12
B12 random_3d_02; neutral charge=0; multiplicity=5; 3D initial geometry; nominal d=4.5 A; Random 3D B12 cloud with controlled minimum distance 02.
B       -0.85848103       3.73846957      -4.94241061
B        4.73374928       5.46619337       4.50599203
B       -4.70528205      -0.16877244       4.62860469
B       -1.09095919      -5.38669472       1.61045101
B       -3.55049299       4.89935610       2.39682397
B        8.19136582       1.63177300      -7.95790187
B       -6.89949447      -0.99518860       2.30850196
B        7.57579826       4.82857666      -4.38838210
B        0.64779829      -2.15990052       4.25055849
B        2.77752417      -3.78621385       1.34253498
B       -1.41630585      -2.43671557      -4.89550879
B       -5.40522025      -5.63088299       1.14073623
