12
B12 distorted_cage; neutral charge=0; multiplicity=1; 3D initial geometry; nominal d=5.0 A; Anisotropically deformed 3D cage.
B       -0.17847244      -2.26605477      -4.62045365
B       -0.19542905      -2.12444008       4.86254946
B        0.06717531       2.16858087      -4.84717005
B       -0.15730532       2.32996226       4.61130110
B       -2.27345149      -3.74191821      -0.17798211
B       -2.75921132       3.38800151       0.00947905
B        2.49518248      -3.82651463       0.14478067
B        3.23137312       3.36840499       0.10352707
B       -4.53775931       0.20065066      -2.91315610
B       -4.46770979      -0.18611593       2.84006755
B        4.41547042       0.43844977      -3.04156374
B        4.36013741       0.25099354       3.02862074
