12
Coordinates from ORCA-job input
  B           0.00000000000000      0.00000000000000      8.05244631000000
  B           6.06826183000000      0.00000000000000      3.68124076000000
  B          -3.03413092000000      5.24544667000000      3.68124076000000
  B          -3.03413092000000     -5.24544667000000      3.68124076000000
  B           3.70266824000000      6.06826183000000     -0.17570532000000
  B          -3.70266824000000      6.06826183000000     -0.17570532000000
  B           3.70266824000000     -6.06826183000000     -0.17570532000000
  B          -3.70266824000000     -6.06826183000000     -0.17570532000000
  B           5.75970614000000      0.00000000000000     -4.08407735000000
  B          -5.75970614000000      0.00000000000000     -4.08407735000000
  B           0.00000000000000      5.03974288000000     -5.11259630000000
  B           0.00000000000000     -5.03974288000000     -5.11259630000000
