
                                 *****************
                                 * O   R   C   A *
                                 *****************

                                            #,                                       
                                            ###                                      
                                            ####                                     
                                            #####                                    
                                            ######                                   
                                           ########,                                 
                                     ,,################,,,,,                         
                               ,,#################################,,                 
                          ,,##########################################,,             
                       ,#########################################, ''#####,          
                    ,#############################################,,   '####,        
                  ,##################################################,,,,####,       
                ,###########''''           ''''###############################       
              ,#####''   ,,,,##########,,,,          '''####'''          '####       
            ,##' ,,,,###########################,,,                        '##       
           ' ,,###''''                  '''############,,,                           
         ,,##''                                '''############,,,,        ,,,,,,###''
      ,#''                                            '''#######################'''  
     '                                                          ''''####''''         
             ,#######,   #######,   ,#######,      ##                                
            ,#'     '#,  ##    ##  ,#'     '#,    #''#        ,####,    ,#,          
            ##       ##  ##   ,#'  ##            #'  '#       #'       ,# #          
            ##       ##  #######   ##           ,######,      #####,      #          
            '#,     ,#'  ##    ##  '#,     ,#' ,#      #,     #,   #      #          
             '#######'   ##     ##  '#######'  #'      '#     '####' #    #          



                #########################################################
                #                        -***-                          #
                #          Department of theory and spectroscopy        #
                #                                                       #
                #                      Frank Neese                      #
                #                                                       #
                #     Directorship, Architecture, Infrastructure        #
                #                    SHARK, DRIVERS                     #
                #        Core code/Algorithms in most modules           #
                #                                                       #
                #        Max Planck Institute fuer Kohlenforschung      #
                #                Kaiser Wilhelm Platz 1                 #
                #                 D-45470 Muelheim/Ruhr                 #
                #                      Germany                          #
                #                                                       #
                #                  All rights reserved                  #
                #                        -***-                          #
                #########################################################


                         Program Version 6.1.1  -  RELEASE   -
                                (GIT: $487d211c$)
                          ($2025-11-21 10:33:24 +0100$)
                                                                         
                                  - NO-DMRG VERSION -                    
                                                                         


 With contributions from (in alphabetic order):
[Max-Planck-Institut fuer Kohlenforschung]                               
  Daniel Aravena         : Magnetic Suceptibility                        
  Michael Atanasov       : Ab Initio Ligand Field Theory (pilot matlab implementation)
  Alexander A. Auer      : GIAO ZORA, VPT2 properties, NMR spectrum      
  Ute Becker             : All parallelization in ORCA, NUMFREQ, NUMCALC 
  Giovanni Bistoni       : ED, misc. LED, open-shell LED, HFLD           
  Dmytro Bykov           : pre 5.0 version of the SCF Hessian            
  Marcos Casanova-Páez   : Triplet and SCS-CIS(D). UHF-(DLPNO)-IP/EA/STEOM-CCSD. UHF-CVS-IP/STEOM-CCSD   
  Vijay G. Chilkuri      : MRCI spin determinant printing, contributions to CSF-ICE 
  Pauline Colinet        : FMM embedding                                 
  Dipayan Datta          : RHF DLPNO-CCSD density                        
  Achintya Kumar Dutta   : EOM-CC, STEOM-CC                              
  Nicolas Foglia         : Exact transition moments, OPA infrastructure, MCD improvements    
  Dmitry Ganyushin       : Spin-Orbit,Spin-Spin,Magnetic field MRCI      
  Miquel Garcia-Rates    : C-PCM and meta-GGA Hessian, CCSD/C-PCM, Gaussian charge scheme 
  Tiago L. C. Gouveia    : GS-ROHF, GS-ROCIS                             
  Yang Guo               : DLPNO-NEVPT2, F12-NEVPT2, CIM, IAO-localization        
  Andreas Hansen         : Spin unrestricted coupled pair/coupled cluster methods 
  Ingolf Harden          : AUTO-CI MPn and infrastructure                
  Benjamin Helmich-Paris : MC-RPA, TRAH-(SCF,CASSCF), AVAS, COSX integrals, SCF dyn. polar., MC-PDFT, srDFT 
  Lee Huntington         : MR-EOM, pCC                                   
  Robert Izsak           : Overlap fitted RIJCOSX, COSX-SCS-MP3, EOM     
  Riya Kayal             : Wick's Theorem for AUTO-CI, AUTO-CI UHF-CCSDT 
  Emily Kempfer          : AUTO-CI RHF CISDT and CCSDT, approximate NEVPT4
  Christian Kollmar      : KDIIS, OOCD, Brueckner-CCSD(T), CCSD density, CASPT2, CASPT2-K, improved NEVPT2 
  Axel Koslowski         : Symmetry handling                             
  Simone Kossmann        : meta-GGA functionals, TD-DFT gradient, OOMP2, (MP2 Hessian; deprecated post 5.0) 
  Lucas Lang             : DCDCAS, Hyperfine gauge corrections, ICE-SOC+SSC
  Marvin Lechner         : AUTO-CI (C++ implementation), FIC-MRCC        
  Spencer Leger          : CASSCF response                               
  Dagmar Lenk            : GEPOL surface, SMD, ORCA-2-JSON               
  Dimitrios Liakos       : Extrapolation schemes; Compound Job, Property file
  Dimitrios Manganas     : Further ROCIS development; embedding schemes. LFT, Crystal Embedding 
  Dimitrios Pantazis     : SARC Basis sets                               
  Anastasios Papadopoulos: AUTO-CI, single reference methods and gradients 
  Taras Petrenko         : pre 6.0 DFT Hessian and TD-DFT gradient,  ECA, NRVS 
  Petra Pikulova         : Analytic Raman intensities                    
  Peter Pinski           : DLPNO-MP2, DLPNO-MP2 Gradient                 
  Shashank Vittal Rao    : ES-AILFT, MagRelax                            
  Christoph Reimann      : Effective Core Potentials                     
  Marius Retegan         : Local ZFS, SOC                                
  Christoph Riplinger    : Optimizer, TS searches, QM/MM, DLPNO-CCSD(T), (RO)-DLPNO pert. Triples 
  Michael Roemelt        : Original ROCIS implementation, recursive CI coupling coefficients
  Masaaki Saitow         : Open-shell DLPNO-CCSD energy and density      
  Barbara Sandhoefer     : DKH picture change effects                    
  Yorick L. A. Schmerwitz: GMF and freeze-and-release deltaSCF, NEB S-IDPP initial path                    
  Kantharuban Sivalingam : CASSCF convergence/infrastructure, NEVPT2, NEVPT3, NEVPT4(SD), FIC-MRCI and CEPA variants
  Bernardo de Souza      : ESD, SOC TD-DFT                               
  Georgi L. Stoychev     : AutoAux, RI-MP2 NMR, DLPNO-MP2 response, X2C  
  Van Anh Tran           : RI-MP2 g-tensors                              
  Willem Van den Heuvel  : Paramagnetic NMR                              
  Zikuan Wang            : NOTCH, Electric field optimization            
  Frank Wennmohs         : Technical directorship and infrastructure     
  Hang Xu                : AUTO-CI-Response properties                   
                                                                         
[FACCTs GmbH]                                                            
  Markus Bursch, Nicolas Foglia, Miquel Garcia-Rates, Ingolf Harden, Hagen Neugebauer, Anastasios Papadopoulos, 
  Christoph Riplinger, Bernardo de Souza, Georgi L. Stoychev                                                    
                                                                 
  APM, various basis sets, CI-OPT, improved COSX, DLPNO-Multilevel,           
  DOCKER, DRACO, updates on ESD, Fragmentator, GOAT, IRC, LR-CPCM, L-BFGS, MBIS, meta-GGA TD-DFT gradient, ML-optimized integration grids, 
  MM, NACMEs, nearIR, NEB, NEB-TS, NL-DFT gradient (VV10), 2- and 3-layer-ONIOM, interface openCOSMO-RS, QMMM,   
  Crystal-QMMM, RESP, rigid body optimization, SF, symmetry and pop. for TD-DFT, various functionals, SOLVATOR                                   
                                                                         
[Other institutions]                                                     
  V. Asgeirsson          : NEB                                           
  Christoph Bannwarth    : sTDA-DFT, sTD-DFT, PBEh-3c, B97-3c, D3        
  Giovanni Bistoni       : ETS/NOCV, ADLD/ADEX, COVALED                  
  Martin Brehm           : Molecular dynamics                            
  Ronald Cardenas        : ETS/NOCV                                      
  Martina Colucci        : COVALED                                       
  Sebastian Ehlert       : rSCAN, r2SCAN, r2SCAN-3c, D4, dhf basis sets  
  Marvin Friede          : D4 for Fr, Ra, Ac-Lr                          
  Lars Goerigk           : TD-DFT with DH, B97 family of functionals     
  Stefan Grimme          : VdW corrections, initial TS optimization, DFT functionals, gCP, sTDA/sTD-DF 
  Waldemar Hujo          : DFT-NL                                        
  H. Jonsson             : NEB                                           
  Holger Kruse           : gCP                                           
  Marcel Mueller         : wB97X-3c, vDZP basis set                      
  Hagen Neugebauer       : wr2SCAN, Native XTB                           
  Gianluca Regni         : ADLD/ADEX                                     
  Tobias Risthaus        : pre 6.0 range-separated hybrid DFT and stability analysis
  Lukas Wittmann         : regularized MP2, r2SCAN double-hybrids, wr2SCAN        
                                                                         
We gratefully acknowledge several colleagues who have allowed us to      
interface, adapt or use parts of their codes:                            
  Ed Valeev, F. Pavosevic, A. Kumar             : LibInt (2-el integral package), F12 methods 
  Garnet Chan, S. Sharma, J. Yang, R. Olivares  : DMRG                   
  Ulf Ekstrom                                   : XCFun DFT Library      
  Mihaly Kallay                                 : mrcc  (arbitrary order and MRCC methods)
  Frank Weinhold                                : gennbo (NPA and NBO analysis)           
  Simon Mueller                                 : openCOSMO-RS                            
  Christopher J. Cramer and Donald G. Truhlar   : smd solvation model                     
  S Lehtola, MJT Oliveira, MAL Marques          : LibXC Library                           
  Liviu Ungur et al                             : ANISO software                          


 Your calculation uses the libint2 library for the computation of 2-el integrals
 For citations please refer to: http://libint.valeyev.net

 Your ORCA version has been built with support for libXC version: 7.0.0
 For citations please refer to: https://libxc.gitlab.io

 This ORCA versions uses:
   CBLAS   interface :  Fast vector & matrix operations
   LAPACKE interface :  Fast linear algebra routines
   SCALAPACK package :  Parallel linear algebra routines
   Shared memory     :  Shared parallel matrices
   BLAS/LAPACK       :  OpenBLAS 0.3.29  USE64BITINT DYNAMIC_ARCH NO_AFFINITY Zen SINGLE_THREADED
        Core in use  :  Zen
   Copyright (c) 2011-2014, The OpenBLAS Project


  ***********************************
  * Starting time: Thu May  7 07:30:50 2026
  * Host name:     vmi3233575
  * Process ID:    332011
  * Working dir.:  /root/B12_ORCA_workflow/calculations/B12/compact_3d/d_4.0/mult_3
  ***********************************

NOTE: MaxCore=2500 MB was set to SCF,MP2,MDCI,CIPSI,MRCI,RASCI and CIS
      => If you want to overwrite this, your respective input block should be placed after the MaxCore statement


***************************************
The coordinates will be read from file: start.xyz
***************************************


ReadChargeInXYXFile::Warning
Found 'charge' in the comment line of the xyz file
not followed by a number. If the intention was to pass
a charge, it's value will be ignored
ReadMultInXYXFile::WarningFound 'mult' or 'multiplicity' in the comment line of the xyz filenot followed by a number. If the intention was to passa multiplicity, it's value will be ignoredYour calculation utilizes the atom-pairwise dispersion correction
with the Becke-Johnson damping scheme (D3BJ)


================================================================================

----- Orbital basis set information -----
Your calculation utilizes the basis: def2-SVP
   F. Weigend and R. Ahlrichs, Phys. Chem. Chem. Phys. 7, 3297 (2005).

================================================================================
                                        WARNINGS
                       Please study these warnings very carefully!
================================================================================


WARNING: your system is open-shell and RHF/RKS was chosen
  ===> : WILL SWITCH to UHF/UKS


================================================================================
                                       INPUT FILE
================================================================================
NAME = input.inp
|  1> # B12 only. Neutral 3D boron cluster. Preliminary geometry optimization + frequency check.
|  2> # Alternative screening level: B3LYP-D3BJ/def2-SVP
|  3> # Run with: orca input.inp > output.out
|  4> 
|  5> ! PBE0 D3BJ def2-SVP NoRI Opt TightSCF NoAutoStart XYZFile
|  6> 
|  7> %pal
|  8> nprocs 8
|  9> end
| 10> 
| 11> %maxcore 2500
| 12> 
| 13> %geom
| 14> MaxIter 300
| 15> end
| 16> 
| 17> %scf
| 18> MaxIter 500
| 19> end
| 20> 
| 21> %output
| 22> PrintLevel Normal
| 23> Print[P_Cartesian] 1
| 24> end
| 25> 
| 26> * xyzfile 0 3 start.xyz
| 27> 
| 28>                          ****END OF INPUT****
================================================================================

                       *****************************
                       * Geometry Optimization Run *
                       *****************************

Geometry optimization settings:
Update method            Update   .... BFGS
Choice of coordinates    CoordSys .... (2022) Redundant Internals
Initial Hessian          InHess   .... Almloef's Model
Max. no of cycles        MaxIter  .... 300

Convergence Tolerances:
Energy Change            TolE     ....  5.0000e-06 Eh
Max. Gradient            TolMAXG  ....  3.0000e-04 Eh/bohr
RMS Gradient             TolRMSG  ....  1.0000e-04 Eh/bohr
Max. Displacement        TolMAXD  ....  4.0000e-03 bohr
RMS Displacement         TolRMSD  ....  2.0000e-03 bohr
Strict Convergence                .... False

------------------------------------------------------------------------------
                        ORCA OPTIMIZATION COORDINATE SETUP
------------------------------------------------------------------------------

The optimization will be done in redundant internal coordinates (2022)
Making redundant internal coordinates   ...  (2022 redundants) done
Evaluating the initial hessian          ...  (Almloef) done
Evaluating the coordinates              ...  done
Calculating the B-matrix                .... done
Calculating the G-matrix                .... done
The number of degrees of freedom        ....  290

    -----------------------------------------------------------------
                    Redundant Internal Coordinates


    -----------------------------------------------------------------
         Definition                    Initial Value    Approx d2E/dq
    -----------------------------------------------------------------
      1. B(B   1,B   0)                  7.4787         0.010000   
      2. B(B   2,B   0)                  7.4718         0.010000   
      3. B(B   3,B   0)                  7.4718         0.010000   
      4. B(B   4,B   2)                  7.8062         0.010000   
      5. B(B   4,B   1)                  7.5694         0.010000   
      6. B(B   4,B   0)                 10.8736         0.010000   
      7. B(B   5,B   4)                  7.4053         0.010000   
      8. B(B   5,B   2)                  4.0000         0.010000   
      9. B(B   6,B   1)                  7.5694         0.010000   
     10. B(B   6,B   3)                  7.8062         0.010000   
     11. B(B   6,B   4)                 12.1365         0.010000   
     12. B(B   6,B   0)                 10.8736         0.010000   
     13. B(B   7,B   6)                  7.4053         0.010000   
     14. B(B   7,B   3)                  4.0000         0.010000   
     15. B(B   8,B   1)                  7.7714         0.010000   
     16. B(B   8,B   6)                  7.5054         0.010000   
     17. B(B   8,B   4)                  7.5054         0.010000   
     18. B(B   9,B   6)                 11.9011         0.010000   
     19. B(B   9,B   4)                 11.9011         0.010000   
     20. B(B   9,B   0)                 13.4339         0.010000   
     21. B(B   9,B   7)                  7.5054         0.010000   
     22. B(B   9,B   5)                  7.5054         0.010000   
     23. B(B  10,B   5)                  6.2562         0.010000   
     24. B(B  10,B   9)                  7.7221         0.010000   
     25. B(B  10,B   4)                  6.2562         0.010000   
     26. B(B  10,B   8)                  7.7221         0.010000   
     27. B(B  11,B   9)                  7.7221         0.010000   
     28. B(B  11,B   6)                  6.2562         0.010000   
     29. B(B  11,B   8)                  7.7221         0.010000   
     30. B(B  11,B   7)                  6.2562         0.010000   
     31. A(B   1,B   0,B   2)           89.2868         0.089017   
     32. A(B   2,B   0,B   3)           89.1803         0.089017   
     33. A(B   1,B   0,B   3)           89.2868         0.089017   
     34. A(B   0,B   1,B   6)           92.5357         0.089015   
     35. A(B   0,B   1,B   4)           92.5357         0.089015   
     36. A(B   0,B   1,B   8)          123.4912         0.089013   
     37. A(B   4,B   1,B   6)          106.5822         0.089014   
     38. A(B   4,B   1,B   8)           58.5637         0.089012   
     39. A(B   6,B   1,B   8)           58.5637         0.089012   
     40. A(B   0,B   2,B   4)           90.7222         0.089013   
     41. A(B   4,B   2,B   5)           69.2764         0.089227   
     42. A(B   0,B   2,B   5)          140.9306         0.089300   
     43. A(B   0,B   3,B   6)           90.7222         0.089013   
     44. A(B   0,B   3,B   7)          140.9306         0.089300   
     45. A(B   6,B   3,B   7)           69.2764         0.089227   
     46. A(B   1,B   4,B   5)          108.2112         0.089016   
     47. A(B   1,B   4,B  10)          117.0813         0.089042   
     48. A(B   1,B   4,B   8)           62.0636         0.089015   
     49. A(B   5,B   4,B  10)           53.7126         0.089049   
     50. A(B   2,B   4,B   5)           30.3448         0.089013   
     51. A(B   5,B   4,B   8)          105.9069         0.089017   
     52. A(B   2,B   4,B  10)           82.0566         0.089035   
     53. A(B   1,B   4,B   2)           86.1839         0.089012   
     54. A(B   8,B   4,B  10)           67.5648         0.089045   
     55. A(B   2,B   4,B   8)          114.1167         0.089012   
     56. A(B   2,B   5,B   9)          112.4335         0.089292   
     57. A(B   4,B   5,B  10)           53.7126         0.089049   
     58. A(B   9,B   5,B  10)           67.5648         0.089045   
     59. A(B   2,B   5,B   4)           80.3788         0.089317   
     60. A(B   4,B   5,B   9)          105.9069         0.089017   
     61. A(B   2,B   5,B  10)          128.9145         0.089824   
     62. A(B   1,B   6,B   3)           86.1839         0.089012   
     63. A(B   1,B   6,B   7)          108.2112         0.089016   
     64. A(B   1,B   6,B  11)          117.0813         0.089042   
     65. A(B   8,B   6,B  11)           67.5648         0.089045   
     66. A(B   3,B   6,B   7)           30.3448         0.089013   
     67. A(B   3,B   6,B  11)           82.0566         0.089035   
     68. A(B   1,B   6,B   8)           62.0636         0.089015   
     69. A(B   3,B   6,B   8)          114.1167         0.089012   
     70. A(B   7,B   6,B   8)          105.9069         0.089017   
     71. A(B   7,B   6,B  11)           53.7126         0.089049   
     72. A(B   9,B   7,B  11)           67.5648         0.089045   
     73. A(B   3,B   7,B   9)          112.4335         0.089292   
     74. A(B   3,B   7,B   6)           80.3788         0.089317   
     75. A(B   3,B   7,B  11)          128.9145         0.089824   
     76. A(B   6,B   7,B   9)          105.9069         0.089017   
     77. A(B   6,B   7,B  11)           53.7126         0.089049   
     78. A(B   1,B   8,B  11)           99.3637         0.089011   
     79. A(B   1,B   8,B  10)           99.3637         0.089011   
     80. A(B   1,B   8,B   6)           59.3727         0.089013   
     81. A(B   1,B   8,B   4)           59.3727         0.089013   
     82. A(B  10,B   8,B  11)           81.4815         0.089011   
     83. A(B   6,B   8,B  11)           48.4909         0.089013   
     84. A(B   4,B   8,B  11)          113.1167         0.089013   
     85. A(B   6,B   8,B  10)          113.1167         0.089013   
     86. A(B   4,B   8,B  10)           48.4909         0.089013   
     87. A(B   4,B   8,B   6)          107.9037         0.089016   
     88. A(B  10,B   9,B  11)           81.4815         0.089011   
     89. A(B   7,B   9,B  11)           48.4909         0.089013   
     90. A(B   5,B   9,B  11)          113.1167         0.089013   
     91. A(B   7,B   9,B  10)          113.1167         0.089013   
     92. A(B   5,B   9,B  10)           48.4909         0.089013   
     93. A(B   5,B   9,B   7)          107.9037         0.089016   
     94. A(B   4,B  10,B   5)           72.5749         0.089126   
     95. A(B   4,B  10,B   8)           63.9443         0.089037   
     96. A(B   5,B  10,B   8)          116.3353         0.089037   
     97. A(B   8,B  10,B   9)           96.4680         0.089011   
     98. A(B   4,B  10,B   9)          116.3353         0.089037   
     99. A(B   5,B  10,B   9)           63.9443         0.089037   
    100. A(B   6,B  11,B   7)           72.5749         0.089126   
    101. A(B   6,B  11,B   8)           63.9443         0.089037   
    102. A(B   7,B  11,B   8)          116.3353         0.089037   
    103. A(B   8,B  11,B   9)           96.4680         0.089011   
    104. A(B   6,B  11,B   9)          116.3353         0.089037   
    105. A(B   7,B  11,B   9)           63.9443         0.089037   
    106. D(B   6,B   1,B   0,B   2)    -97.9610         0.010000   
    107. D(B   6,B   1,B   0,B   3)     -8.7720         0.010000   
    108. D(B   8,B   1,B   0,B   2)    -44.5945         0.010000   
    109. D(B   4,B   1,B   0,B   2)      8.7720         0.010000   
    110. D(B   8,B   1,B   0,B   3)     44.5945         0.010000   
    111. D(B   4,B   1,B   0,B   3)     97.9610         0.010000   
    112. D(B   5,B   2,B   0,B   1)     48.4133         0.010000   
    113. D(B   5,B   2,B   0,B   3)    -40.8836         0.010000   
    114. D(B   4,B   2,B   0,B   1)     -8.4961         0.010000   
    115. D(B   4,B   2,B   0,B   3)    -97.7930         0.010000   
    116. D(B   6,B   3,B   0,B   1)      8.4961         0.010000   
    117. D(B   7,B   3,B   0,B   2)     40.8836         0.010000   
    118. D(B   7,B   3,B   0,B   1)    -48.4133         0.010000   
    119. D(B   6,B   3,B   0,B   2)     97.7930         0.010000   
    120. D(B  10,B   4,B   2,B   5)    -19.1822         0.010000   
    121. D(B  10,B   4,B   2,B   0)    126.4456         0.010000   
    122. D(B   5,B   4,B   2,B   0)    145.6278         0.010000   
    123. D(B   1,B   4,B   2,B   0)      8.4117         0.010000   
    124. D(B   2,B   4,B   1,B   6)     84.9934         0.010000   
    125. D(B   5,B   4,B   1,B   8)     98.7499         0.010000   
    126. D(B   8,B   4,B   2,B   0)     65.4352         0.010000   
    127. D(B  10,B   4,B   1,B   6)      5.9265         0.010000   
    128. D(B   2,B   4,B   1,B   8)    119.9266         0.010000   
    129. D(B  10,B   4,B   1,B   8)     40.8596         0.010000   
    130. D(B   8,B   4,B   1,B   0)   -128.3381         0.010000   
    131. D(B   8,B   4,B   2,B   5)    -80.1926         0.010000   
    132. D(B  10,B   4,B   1,B   0)    -87.4785         0.010000   
    133. D(B   2,B   4,B   1,B   0)     -8.4115         0.010000   
    134. D(B   1,B   4,B   2,B   5)   -137.2161         0.010000   
    135. D(B   5,B   4,B   1,B   0)    -29.5883         0.010000   
    136. D(B   5,B   4,B   1,B   6)     63.8167         0.010000   
    137. D(B   9,B   5,B   4,B  10)     45.4474         0.010000   
    138. D(B  10,B   5,B   4,B   8)    -45.4474         0.010000   
    139. D(B   9,B   5,B   4,B   2)   -110.7417         0.010000   
    140. D(B  10,B   5,B   4,B   1)   -110.6715         0.010000   
    141. D(B   2,B   5,B   4,B   8)    110.7417         0.010000   
    142. D(B  10,B   5,B   4,B   2)   -156.1891         0.010000   
    143. D(B   9,B   5,B   4,B   1)    -65.2240         0.010000   
    144. D(B  10,B   5,B   2,B   4)     24.7231         0.010000   
    145. D(B   2,B   5,B   4,B   1)     45.5177         0.010000   
    146. D(B  10,B   5,B   2,B   0)    -38.8747         0.010000   
    147. D(B   2,B   5,B   4,B  10)    156.1891         0.010000   
    148. D(B   4,B   5,B   2,B   0)    -63.5978         0.010000   
    149. D(B   9,B   5,B   2,B   4)    103.3417         0.010000   
    150. D(B   9,B   5,B   4,B   8)      0.0000         0.010000   
    151. D(B   9,B   5,B   2,B   0)     39.7439         0.010000   
    152. D(B   8,B   6,B   3,B   0)    -65.4352         0.010000   
    153. D(B   1,B   6,B   3,B   0)     -8.4117         0.010000   
    154. D(B  11,B   6,B   3,B   7)     19.1822         0.010000   
    155. D(B  11,B   6,B   3,B   0)   -126.4456         0.010000   
    156. D(B   8,B   6,B   1,B   0)    128.3381         0.010000   
    157. D(B   7,B   6,B   3,B   0)   -145.6278         0.010000   
    158. D(B   3,B   6,B   1,B   8)   -119.9266         0.010000   
    159. D(B   3,B   6,B   1,B   4)    -84.9934         0.010000   
    160. D(B   1,B   6,B   3,B   7)    137.2161         0.010000   
    161. D(B  11,B   6,B   1,B   8)    -40.8596         0.010000   
    162. D(B  11,B   6,B   1,B   4)     -5.9265         0.010000   
    163. D(B  11,B   6,B   1,B   0)     87.4785         0.010000   
    164. D(B   7,B   6,B   1,B   0)     29.5883         0.010000   
    165. D(B   7,B   6,B   1,B   4)    -63.8167         0.010000   
    166. D(B   3,B   6,B   1,B   0)      8.4115         0.010000   
    167. D(B   8,B   6,B   3,B   7)     80.1926         0.010000   
    168. D(B   7,B   6,B   1,B   8)    -98.7499         0.010000   
    169. D(B   9,B   7,B   6,B   8)      0.0000         0.010000   
    170. D(B   9,B   7,B   6,B   3)    110.7417         0.010000   
    171. D(B  11,B   7,B   6,B   3)    156.1891         0.010000   
    172. D(B   3,B   7,B   6,B   8)   -110.7417         0.010000   
    173. D(B   3,B   7,B   6,B   1)    -45.5177         0.010000   
    174. D(B  11,B   7,B   6,B   1)    110.6715         0.010000   
    175. D(B   3,B   7,B   6,B  11)   -156.1891         0.010000   
    176. D(B  11,B   7,B   6,B   8)     45.4474         0.010000   
    177. D(B   9,B   7,B   3,B   6)   -103.3417         0.010000   
    178. D(B   9,B   7,B   3,B   0)    -39.7439         0.010000   
    179. D(B   6,B   7,B   3,B   0)     63.5978         0.010000   
    180. D(B   9,B   7,B   6,B   1)     65.2240         0.010000   
    181. D(B  11,B   7,B   3,B   6)    -24.7231         0.010000   
    182. D(B  11,B   7,B   3,B   0)     38.8747         0.010000   
    183. D(B   9,B   7,B   6,B  11)    -45.4474         0.010000   
    184. D(B  11,B   8,B   6,B   3)    -69.5954         0.010000   
    185. D(B  11,B   8,B   6,B   7)    -38.4213         0.010000   
    186. D(B  10,B   8,B   6,B   1)    -87.2976         0.010000   
    187. D(B  10,B   8,B   6,B   7)     15.2178         0.010000   
    188. D(B  10,B   8,B   6,B  11)     53.6390         0.010000   
    189. D(B   4,B   8,B   6,B   1)    -35.5670         0.010000   
    190. D(B   4,B   8,B   6,B   3)     35.7743         0.010000   
    191. D(B   4,B   8,B   6,B   7)     66.9484         0.010000   
    192. D(B   4,B   8,B   6,B  11)    105.3696         0.010000   
    193. D(B  11,B   8,B   4,B   1)     87.2976         0.010000   
    194. D(B  11,B   8,B   4,B   5)    -15.2178         0.010000   
    195. D(B  11,B   8,B   4,B  10)    -53.6390         0.010000   
    196. D(B  10,B   8,B   4,B   1)    140.9367         0.010000   
    197. D(B  10,B   8,B   1,B   0)     41.4106         0.010000   
    198. D(B   6,B   8,B   4,B   2)    -35.7743         0.010000   
    199. D(B  11,B   8,B   4,B   2)     15.9564         0.010000   
    200. D(B   6,B   8,B   4,B   5)    -66.9484         0.010000   
    201. D(B  10,B   8,B   1,B   4)    -28.5733         0.010000   
    202. D(B  10,B   8,B   1,B   6)    111.3946         0.010000   
    203. D(B   6,B   8,B   4,B  10)   -105.3696         0.010000   
    204. D(B   6,B   8,B   4,B   1)     35.5670         0.010000   
    205. D(B   6,B   8,B   1,B   4)   -139.9679         0.010000   
    206. D(B  10,B   8,B   4,B   5)     38.4213         0.010000   
    207. D(B  10,B   8,B   6,B   3)    -15.9564         0.010000   
    208. D(B   6,B   8,B   1,B   0)    -69.9839         0.010000   
    209. D(B   4,B   8,B   1,B   6)    139.9679         0.010000   
    210. D(B   4,B   8,B   1,B   0)     69.9839         0.010000   
    211. D(B  11,B   8,B   6,B   1)   -140.9367         0.010000   
    212. D(B  10,B   8,B   4,B   2)     69.5954         0.010000   
    213. D(B  11,B   9,B   7,B   3)    124.3867         0.010000   
    214. D(B  10,B   9,B   7,B   6)    -15.2178         0.010000   
    215. D(B  10,B   9,B   7,B  11)    -53.6390         0.010000   
    216. D(B   5,B   9,B   7,B   6)    -66.9484         0.010000   
    217. D(B   5,B   9,B   7,B  11)   -105.3696         0.010000   
    218. D(B   5,B   9,B   7,B   3)     19.0170         0.010000   
    219. D(B  11,B   9,B   5,B   4)     15.2178         0.010000   
    220. D(B  11,B   9,B   5,B  10)     53.6390         0.010000   
    221. D(B  11,B   9,B   5,B   2)    -70.7476         0.010000   
    222. D(B  10,B   9,B   5,B   4)    -38.4213         0.010000   
    223. D(B  10,B   9,B   7,B   3)     70.7476         0.010000   
    224. D(B  10,B   9,B   5,B   2)   -124.3867         0.010000   
    225. D(B   7,B   9,B   5,B   4)     66.9484         0.010000   
    226. D(B   7,B   9,B   5,B  10)    105.3696         0.010000   
    227. D(B  11,B   9,B   7,B   6)     38.4213         0.010000   
    228. D(B   7,B   9,B   5,B   2)    -19.0170         0.010000   
    229. D(B   8,B  10,B   4,B   5)   -132.1459         0.010000   
    230. D(B   5,B  10,B   4,B   8)    132.1459         0.010000   
    231. D(B   5,B  10,B   4,B   1)     93.4417         0.010000   
    232. D(B   5,B  10,B   4,B   2)     11.8843         0.010000   
    233. D(B   8,B  10,B   9,B  11)    -15.3024         0.010000   
    234. D(B   8,B  10,B   9,B   7)     22.2708         0.010000   
    235. D(B   8,B  10,B   9,B   5)    116.2024         0.010000   
    236. D(B   4,B  10,B   9,B   7)    -41.8081         0.010000   
    237. D(B   4,B  10,B   9,B   5)     52.1235         0.010000   
    238. D(B   5,B  10,B   9,B  11)   -131.5048         0.010000   
    239. D(B   5,B  10,B   9,B   7)    -93.9316         0.010000   
    240. D(B   4,B  10,B   8,B   1)     33.3390         0.010000   
    241. D(B   4,B  10,B   8,B  11)    131.5048         0.010000   
    242. D(B   4,B  10,B   8,B   6)     93.9316         0.010000   
    243. D(B   5,B  10,B   8,B   1)    -18.7845         0.010000   
    244. D(B   5,B  10,B   8,B  11)     79.3814         0.010000   
    245. D(B   5,B  10,B   8,B   6)     41.8081         0.010000   
    246. D(B   5,B  10,B   8,B   4)    -52.1235         0.010000   
    247. D(B   9,B  10,B   5,B   2)    101.3778         0.010000   
    248. D(B   8,B  10,B   5,B   9)    -84.1394         0.010000   
    249. D(B   8,B  10,B   5,B   4)     48.0065         0.010000   
    250. D(B   8,B  10,B   5,B   2)     17.2384         0.010000   
    251. D(B   4,B  10,B   5,B   9)   -132.1459         0.010000   
    252. D(B   4,B  10,B   5,B   2)    -30.7681         0.010000   
    253. D(B   9,B  10,B   4,B   8)     84.1394         0.010000   
    254. D(B   9,B  10,B   4,B   1)     45.4352         0.010000   
    255. D(B   4,B  10,B   9,B  11)    -79.3814         0.010000   
    256. D(B   9,B  10,B   4,B   2)    -36.1222         0.010000   
    257. D(B   9,B  10,B   4,B   5)    -48.0065         0.010000   
    258. D(B   8,B  10,B   4,B   1)    -38.7042         0.010000   
    259. D(B   8,B  10,B   4,B   2)   -120.2616         0.010000   
    260. D(B   8,B  11,B   9,B  10)     15.3024         0.010000   
    261. D(B   8,B  11,B   9,B   7)   -116.2024         0.010000   
    262. D(B   6,B  11,B   9,B  10)     79.3814         0.010000   
    263. D(B   6,B  11,B   9,B   7)    -52.1235         0.010000   
    264. D(B   6,B  11,B   9,B   5)     41.8081         0.010000   
    265. D(B   7,B  11,B   9,B  10)    131.5048         0.010000   
    266. D(B   7,B  11,B   9,B   5)     93.9316         0.010000   
    267. D(B   6,B  11,B   8,B   1)    -33.3390         0.010000   
    268. D(B   6,B  11,B   8,B  10)   -131.5048         0.010000   
    269. D(B   7,B  11,B   8,B   1)     18.7845         0.010000   
    270. D(B   7,B  11,B   8,B  10)    -79.3814         0.010000   
    271. D(B   7,B  11,B   8,B   6)     52.1235         0.010000   
    272. D(B   7,B  11,B   8,B   4)    -41.8081         0.010000   
    273. D(B   9,B  11,B   7,B   3)   -101.3778         0.010000   
    274. D(B   8,B  11,B   7,B   9)     84.1394         0.010000   
    275. D(B   8,B  11,B   7,B   6)    -48.0065         0.010000   
    276. D(B   8,B  11,B   7,B   3)    -17.2384         0.010000   
    277. D(B   6,B  11,B   7,B   9)    132.1459         0.010000   
    278. D(B   6,B  11,B   7,B   3)     30.7681         0.010000   
    279. D(B   6,B  11,B   8,B   4)    -93.9316         0.010000   
    280. D(B   9,B  11,B   6,B   8)    -84.1394         0.010000   
    281. D(B   9,B  11,B   6,B   1)    -45.4352         0.010000   
    282. D(B   9,B  11,B   6,B   3)     36.1222         0.010000   
    283. D(B   9,B  11,B   6,B   7)     48.0065         0.010000   
    284. D(B   8,B  11,B   6,B   1)     38.7042         0.010000   
    285. D(B   8,B  11,B   6,B   3)    120.2616         0.010000   
    286. D(B   8,B  11,B   6,B   7)    132.1459         0.010000   
    287. D(B   8,B  11,B   9,B   5)    -22.2708         0.010000   
    288. D(B   7,B  11,B   6,B   8)   -132.1459         0.010000   
    289. D(B   7,B  11,B   6,B   1)    -93.4417         0.010000   
    290. D(B   7,B  11,B   6,B   3)    -11.8843         0.010000   
    -----------------------------------------------------------------

Number of atoms                         .... 12
Number of degrees of freedom            .... 290


         *************************************************************
         *                GEOMETRY OPTIMIZATION CYCLE   1            *
         *************************************************************
---------------------------------
CARTESIAN COORDINATES (ANGSTROEM)
---------------------------------
  B      0.000000    0.000000    8.052446
  B      6.068262    0.000000    3.681241
  B     -3.034131    5.245447    3.681241
  B     -3.034131   -5.245447    3.681241
  B      3.702668    6.068262   -0.175705
  B     -3.702668    6.068262   -0.175705
  B      3.702668   -6.068262   -0.175705
  B     -3.702668   -6.068262   -0.175705
  B      5.759706    0.000000   -4.084077
  B     -5.759706    0.000000   -4.084077
  B      0.000000    5.039743   -5.112596
  B      0.000000   -5.039743   -5.112596

----------------------------
CARTESIAN COORDINATES (A.U.)
----------------------------
  NO LB      ZA    FRAG     MASS         X           Y           Z
   0 B     5.0000    0    10.810    0.000000    0.000000   15.216918
   1 B     5.0000    0    10.810   11.467353    0.000000    6.956537
   2 B     5.0000    0    10.810   -5.733676    9.912458    6.956537
   3 B     5.0000    0    10.810   -5.733676   -9.912458    6.956537
   4 B     5.0000    0    10.810    6.997029   11.467353   -0.332035
   5 B     5.0000    0    10.810   -6.997029   11.467353   -0.332035
   6 B     5.0000    0    10.810    6.997029  -11.467353   -0.332035
   7 B     5.0000    0    10.810   -6.997029  -11.467353   -0.332035
   8 B     5.0000    0    10.810   10.884267    0.000000   -7.717788
   9 B     5.0000    0    10.810  -10.884267    0.000000   -7.717788
  10 B     5.0000    0    10.810    0.000000    9.523734   -9.661407
  11 B     5.0000    0    10.810    0.000000   -9.523734   -9.661407

--------------------------------
INTERNAL COORDINATES (ANGSTROEM)
--------------------------------
 B      0   0   0     0.000000000000     0.00000000     0.00000000
 B      1   0   0     7.478719114781     0.00000000     0.00000000
 B      1   2   0     7.471820338302    89.28681777     0.00000000
 B      1   2   3     7.471820338302    89.28681777    89.18904979
 B      2   1   3     7.569403393565    92.53565476     8.77197036
 B      3   1   2     3.999999999973   140.93055773    48.41330500
 B      2   1   3     7.569403393565    92.53565476   262.03897985
 B      4   1   2     3.999999999973   140.93055773   311.58669500
 B      5   2   1     7.505369976514    62.06359555   231.66187843
 B      6   3   1     7.505369976514   112.43351156    39.74394640
 B      5   2   1     6.256236558381   117.08129150   272.52151094
 B      7   2   1     6.256236558381   117.08129150    87.47848906

---------------------------
INTERNAL COORDINATES (A.U.)
---------------------------
 B      0   0   0     0.000000000000     0.00000000     0.00000000
 B      1   0   0    14.132730959457     0.00000000     0.00000000
 B      1   2   0    14.119694161254    89.28681777     0.00000000
 B      1   2   3    14.119694161254    89.28681777    89.18904979
 B      2   1   3    14.304099411012    92.53565476     8.77197036
 B      3   1   2     7.558904535634   140.93055773    48.41330500
 B      2   1   3    14.304099411012    92.53565476   262.03897985
 B      4   1   2     7.558904535634   140.93055773   311.58669500
 B      5   2   1    14.183093789366    62.06359555   231.66187843
 B      6   3   1    14.183093789366   112.43351156    39.74394640
 B      5   2   1    11.822573724366   117.08129150   272.52151094
 B      7   2   1    11.822573724366   117.08129150    87.47848906

---------------------
BASIS SET INFORMATION
---------------------
There are 1 groups of distinct atoms

 Group   1 Type B   : 7s4p1d contracted to 3s2p1d pattern {511/31/1}

Atom   0B    basis set group =>   1
Atom   1B    basis set group =>   1
Atom   2B    basis set group =>   1
Atom   3B    basis set group =>   1
Atom   4B    basis set group =>   1
Atom   5B    basis set group =>   1
Atom   6B    basis set group =>   1
Atom   7B    basis set group =>   1
Atom   8B    basis set group =>   1
Atom   9B    basis set group =>   1
Atom  10B    basis set group =>   1
Atom  11B    basis set group =>   1


           ************************************************************
           *        Program running with 8 parallel MPI-processes     *
           *              working on a common directory               *
           ************************************************************
------------------------------------------------------------------------------
                             ORCA STARTUP CALCULATIONS
------------------------------------------------------------------------------
------------------------------------------------------------------------------
                   ___                                                        
                  /   \      - P O W E R E D   B Y -                         
                 /     \                                                     
                 |  |  |   _    _      __       _____    __    __             
                 |  |  |  | |  | |    /  \     |  _  \  |  |  /  |          
                  \  \/   | |  | |   /    \    | | | |  |  | /  /          
                 / \  \   | |__| |  /  /\  \   | |_| |  |  |/  /          
                |  |  |   |  __  | /  /__\  \  |    /   |      \           
                |  |  |   | |  | | |   __   |  |    \   |  |\   \          
                \     /   | |  | | |  |  |  |  | |\  \  |  | \   \       
                 \___/    |_|  |_| |__|  |__|  |_| \__\ |__|  \__/        
                                                                              
                      - O R C A' S   B I G   F R I E N D -                    
                                      &                                       
                       - I N T E G R A L  F E E D E R -                       
                                                                              
 v1 FN, 2020, v2 2021, v3 2022-2024                                           
------------------------------------------------------------------------------


----------------------
SHARK INTEGRAL PACKAGE
----------------------

Number of atoms                             ...     12
Number of basis functions                   ...    168
Number of shells                            ...     72
Maximum angular momentum                    ...      2
Integral batch strategy                     ... SHARK/LIBINT Hybrid
RI-J (if used) integral strategy            ... SPLIT-RIJ (Revised 2003 algorithm where possible)
Printlevel                                  ...      1
Contraction scheme used                     ... SEGMENTED contraction
Prescreening option                         ... SCHWARTZ
   Thresh                                   ... 2.500e-11
   Tcut                                     ... 2.500e-12
   Tpresel                                  ... 2.500e-12 
Coulomb Range Separation                    ... NOT USED
Exchange Range Separation                   ... NOT USED
Multipole approximations                    ... NOT USED
Finite Nucleus Model                        ... NOT USED
CABS basis                                  ... NOT available
Auxiliary Coulomb fitting basis             ... NOT available
Auxiliary J/K fitting basis                 ... NOT available
Auxiliary Correlation fitting basis         ... NOT available
Auxiliary 'external' fitting basis          ... NOT available

Checking pre-screening integrals            ... done (  0.0 sec) Dimension = 72
   => SHARK Basis and OBASIS are compatible. Storing Pre-screening
Shell pair information
Shell pair cut-off parameter TPreSel        ...   2.5e-12
Total number of shell pairs                 ...      2628
Shell pairs after pre-screening             ...      1009
Total number of primitive shell pairs       ...     10596
Primitive shell pairs kept                  ...      2437
          la=0 lb=0:    260 shell pairs
          la=1 lb=0:    374 shell pairs
          la=1 lb=1:    157 shell pairs
          la=2 lb=0:    110 shell pairs
          la=2 lb=1:     94 shell pairs
          la=2 lb=2:     14 shell pairs

Checking whether 4 symmetric matrices of dimension 168 fit in memory
:Max Core in MB      =   2500.00
 MB in use           =      2.47
 MB left             =   2497.53
 MB needed           =      0.43
 Data fit in memory  = YES
Calculating Nuclear repulsion               ... done (  0.0 sec) ENN=     93.068236248129 Eh

Diagonalization of the overlap matrix:
Smallest eigenvalue                        ... 1.352e-01
Time for diagonalization                   ...    0.016 sec
Threshold for overlap eigenvalues          ... 1.000e-07
Number of eigenvalues below threshold      ... 0
Time for construction of square roots      ...    0.002 sec
Total time needed                          ...    0.021 sec

-------------------
DFT GRID GENERATION
-------------------

General Integration Accuracy     IntAcc      ... 4.388
Radial Grid Type                 RadialGrid  ... OptM3 with GC (2021)
Angular Grid (max. ang.)         AngularGrid ... 4 (Lebedev-302)
Angular grid pruning method      GridPruning ... 4 (adaptive)
Weight generation scheme         WeightScheme... mBecke (2022)
Basis function cutoff            BFCut       ... 1.0000e-11
Integration weight cutoff        WCut        ... 1.0000e-14
Partially contracted basis set               ... off
Rotationally invariant grid construction     ... off
Angular grids for H and He will be reduced by one unit

Total number of grid points                  ...    73628
Total number of batches                      ...     1156
Average number of points per batch           ...       63
Average number of grid points per atom       ...     6136
Grids setup in   1.1 sec
Initializing property integral containers    ... done (  0.0 sec)

SHARK setup successfully completed in   1.3 seconds

Maximum memory used throughout the entire STARTUP-calculation: 15.6 MB


           ************************************************************
           *        Program running with 8 parallel MPI-processes     *
           *              working on a common directory               *
           ************************************************************
-------------------------------------------------------------------------------
                                 ORCA GUESS
                   Start orbitals & Density for SCF / CASSCF
-------------------------------------------------------------------------------

------------
SCF SETTINGS
------------
Hamiltonian:
 Density Functional     Method          .... DFT(GTOs)
 Exchange Functional    Exchange        .... PBE
   PBE kappa parameter   XKappa         ....  0.804000
   PBE mue parameter    XMuePBE         ....  0.219520
 Correlation Functional Correlation     .... PBE
   PBE beta parameter  CBetaPBE         ....  0.066725
 LDA part of GGA corr.  LDAOpt          .... PW91-LDA
 Gradients option       PostSCFGGA      .... off
 Hybrid DFT is turned on
   Fraction HF Exchange ScalHFX         ....  0.250000
   Scaling of DF-GGA-X  ScalDFX         ....  0.750000
   Scaling of DF-GGA-C  ScalDFC         ....  1.000000
   Scaling of DF-LDA-C  ScalLDAC        ....  1.000000
   Perturbative correction              ....  0.000000
   NL short-range parameter             ....  6.900000


General Settings:
 Integral files         IntName         .... input
 Hartree-Fock type      HFTyp           .... UHF
 Total Charge           Charge          ....    0
 Multiplicity           Mult            ....    3
 Number of Electrons    NEL             ....   60
 Basis Dimension        Dim             ....  168
 Nuclear Repulsion      ENuc            ....     93.0682362481 Eh

Convergence Acceleration:
 AO-DIIS                CNVDIIS         .... on
   Start iteration      DIISMaxIt       ....    12
   Startup error        DIISStart       ....  0.200000
   # of expansion vecs  DIISMaxEq       ....     5
   Bias factor          DIISBfac        ....   1.050
   Max. coefficient     DIISMaxC        ....  10.000
 MO-DIIS                CNVKDIIS        .... off
 Trust-Rad. Augm. Hess. CNVTRAH         .... auto
   Auto Start mean grad. ratio tolernc. ....  1.125000
   Auto Start start iteration           ....    50
   Auto Start num. interpolation iter.  ....    10
   Max. Number of Micro iterations      ....    24
   Max. Number of Macro iterations      .... Maxiter - #DIIS iter
   Number of Davidson start vectors     ....     2
   Converg. threshold    (grad. norm)   ....   1.000e-05
   Grad. Scal. Fac. for Micro threshold ....   0.100
   Minimum threshold for Micro iter.    ....   1.000e-02
   NR start threshold (gradient norm)   ....   1.000e-04
   Initial trust radius                 ....   0.400
   Minimum AH scaling param. (alpha)    ....   1.000
   Maximum AH scaling param. (alpha)    .... 1000.000
   Quad. conv. algorithm                .... NR
   White noise on init. David. guess    .... on
   Maximum white noise                  ....   0.010
   Pseudo random numbers                .... off
   Inactive MOs                         .... canonical
   Orbital update algorithm             .... Taylor
   Preconditioner                       .... Diag
   Full preconditioner red. dimension   ....   250
 SOSCF                 CNVSOSCF           .... on
   Start iteration     SOSCFMaxIt         ....   150
   Startup grad/error  SOSCFStart         ....  0.003300
   Hessian update      SOSCFHessUp        .... L-BFGS
   Autom. constraints  SOSCFAutoConstrain .... off
 Level Shifting         CNVShift        .... on
   Level shift para.    LevelShift      ....    0.2500
   Turn off err/grad.   ShiftErr        ....    0.0010
 Zerner damping         CNVZerner       .... off
 Static damping         CNVDamp         .... on
   Fraction old density DampFac         ....    0.7000
   Max. Damping (<1)    DampMax         ....    0.9800
   Min. Damping (>=0)   DampMin         ....    0.0000
   Turn off err/grad.   DampErr         ....    0.1000

SCF Procedure:
 Maximum # iterations   MaxIter         ....   500
 SCF integral mode      SCFMode         .... Direct
   Integral package                     .... SHARK and LIBINT hybrid scheme
 Reset frequency        DirectResetFreq ....    20
 Integral Threshold     Thresh          ....  2.500e-11 Eh
 Primitive CutOff       TCut            ....  2.500e-12 Eh

Convergence Tolerance:
 Convergence Check Mode ConvCheckMode   .... Total+1el-Energy
 Convergence forced     ConvForced      .... 0
 Energy Change          TolE            ....  1.000e-08 Eh
 1-El. energy change                    ....  1.000e-05 Eh
 Orbital Gradient       TolG            ....  1.000e-05
 Orbital Rotation angle TolX            ....  1.000e-05
 DIIS Error             TolErr          ....  5.000e-07

------------------------------
INITIAL GUESS: MODEL POTENTIAL
------------------------------
Loading Hartree-Fock densities                     ... done
Calculating cut-offs                               ... done
Initializing the effective Hamiltonian             ... done
Setting up the integral package (SHARK)            ... done
Starting the Coulomb interaction                   ... done (   0.1 sec)
Making the grid                                    ... done (   0.2 sec)
Mapping shells                                     ... done
Starting the XC term evaluation                    ... done (   0.0 sec)
  promolecular density results
     # of electrons  =     59.999290730
     EX              =    -43.872433494
     EC              =     -1.393544929
     EX+EC           =    -45.265978423
Transforming the Hamiltonian                       ... done (   0.0 sec)
Diagonalizing the Hamiltonian                      ... done (   0.0 sec)
Back transforming the eigenvectors                 ... done (   0.0 sec)
Now organizing SCF variables                       ... done
                      ------------------
                      INITIAL GUESS DONE (   0.4 sec)
                      ------------------
             **** ENERGY FILE WAS UPDATED (input.en.tmp) ****
Finished Guess after   0.8 sec
Maximum memory used throughout the entire GUESS-calculation: 6.2 MB


           ************************************************************
           *        Program running with 8 parallel MPI-processes     *
           *              working on a common directory               *
           ************************************************************

-------------------------------------------------------------------------------------------
                                      ORCA LEAN-SCF
                              memory conserving SCF solver
-------------------------------------------------------------------------------------------

----------------------------------------D-I-I-S--------------------------------------------
Iteration    Energy (Eh)           Delta-E    RMSDP     MaxDP     DIISErr   Damp  Time(sec)
-------------------------------------------------------------------------------------------
               ***  Starting incremental Fock matrix formation  ***
    1    -291.5167233761288230     0.00e+00  1.98e-02  1.92e-01  7.90e-02  0.700   0.3
Warning: op=0 Small HOMO/LUMO gap (  -0.726) - skipping pre-diagonalization
         LevelShift set to 0.826 Eh
         Will do a full diagonalization
    2    -293.0566710958472072    -1.54e+00  1.32e-02  1.02e-01  5.27e-02  0.700   0.5
                               ***Turning on AO-DIIS***
    3    -290.6110613740661961     2.45e+00  1.00e-02  9.08e-02  9.13e-02  0.700   0.3
    4    -287.3858074844173984     3.23e+00  2.58e-02  2.60e-01  1.32e-01  0.000   0.3
    5    -275.5214249479554383     1.19e+01  1.32e-03  1.23e-02  2.41e-01  0.700   0.3
    6    -275.6977835678313227    -1.76e-01  2.48e-03  2.93e-02  2.34e-01  0.700   0.3
    7    -276.0861345029981067    -3.88e-01  5.65e-03  9.17e-02  2.23e-01  0.700   0.3
    8    -277.3271684626233764    -1.24e+00  1.81e-02  2.05e-01  2.79e-01  0.700   0.3
    9    -286.1138324259285923    -8.79e+00  2.49e-02  2.50e-01  1.12e-01  0.700   0.2
   10    -291.9643747145718748    -5.85e+00  1.51e-02  1.42e-01  4.38e-02  0.700   0.4
   11    -290.2966527462910449     1.67e+00  3.31e-02  2.76e-01  1.23e-01  0.000   0.3
   12    -269.5914059476926354     2.07e+01  2.13e-03  2.62e-02  4.69e-01  0.700   0.3
   13    -269.9092396135426952    -3.18e-01  2.71e-03  3.46e-02  4.58e-01  0.700   0.3
   14    -270.2990886446798982    -3.90e-01  2.78e-03  3.67e-02  4.42e-01  0.700   0.3
   15    -270.6836127407509025    -3.85e-01  5.48e-03  5.70e-02  4.24e-01  0.700   0.5
   16    -271.4794528568439773    -7.96e-01  3.35e-02  3.63e-01  3.85e-01  0.700   0.5
   17    -287.8687377474850564    -1.64e+01  1.76e-02  1.72e-01  1.36e-01  0.700   0.3
   18    -290.1466730846069026    -2.28e+00  1.22e-02  9.78e-02  1.05e-01  0.700   0.4
   19    -287.9864175797773100     2.16e+00  1.10e-02  9.30e-02  1.63e-01  0.700   0.5
   20    -285.1497740862904493     2.84e+00  1.02e-02  9.83e-02  1.92e-01  0.700   0.3
               *** Restarting incremental Fock matrix formation ***
                             ****Resetting DIIS****
Warning: op=0 Small HOMO/LUMO gap (  -2.297) - skipping pre-diagonalization
         LevelShift set to 1.000 Eh
         Will do a full diagonalization
   21    -282.8263584900649903     2.32e+00  2.59e-02  2.67e-01  1.94e-01  0.700   0.4
   22    -290.3585401421514689    -7.53e+00  1.42e-02  1.60e-01  5.68e-02  0.700   0.7
   23    -289.5560946689832349     8.02e-01  3.36e-02  3.56e-01  1.34e-01  0.000   0.5
   24    -271.4646304165847823     1.81e+01  3.71e-03  3.98e-02  4.32e-01  0.700   0.3
   25    -272.0775940281945964    -6.13e-01  5.45e-03  5.72e-02  4.11e-01  0.700   0.4
   26    -272.9904976077166339    -9.13e-01  5.95e-03  7.00e-02  3.80e-01  0.700   0.3
   27    -273.9090288821590775    -9.19e-01  6.69e-03  8.29e-02  3.47e-01  0.700   0.4
   28    -274.7506987072615630    -8.42e-01  3.38e-02  3.63e-01  3.06e-01  0.700   0.3
   29    -288.8888403994196210    -1.41e+01  1.81e-02  1.79e-01  8.98e-02  0.700   0.4
   30    -289.6340666199022849    -7.45e-01  3.84e-02  4.10e-01  1.10e-01  0.000   0.4
   31    -266.1130329551883733     2.35e+01  4.76e-03  4.73e-02  4.72e-01  0.700   0.4
   32    -266.9423764653800504    -8.29e-01  6.63e-03  6.27e-02  4.50e-01  0.700   0.3
   33    -268.1183905255353466    -1.18e+00  6.99e-03  6.67e-02  4.13e-01  0.700   0.4
   34    -269.3971547281797143    -1.28e+00  6.32e-03  6.10e-02  3.95e-01  0.700   0.4
   35    -270.5931969658564071    -1.20e+00  3.35e-02  3.65e-01  4.23e-01  0.700   0.3
   36    -287.1882920397613361    -1.66e+01  1.79e-02  2.40e-01  1.96e-01  0.700   0.5
   37    -289.8487133069794481    -2.66e+00  1.24e-02  1.60e-01  1.07e-01  0.700   0.4
   38    -288.1502629752870348     1.70e+00  1.17e-02  1.10e-01  1.65e-01  0.700   0.4
   39    -285.7278232789490175     2.42e+00  1.11e-02  1.25e-01  1.93e-01  0.700   0.3
   40    -283.6411868217708161     2.09e+00  9.83e-03  1.17e-01  1.95e-01  0.700   0.3
               *** Restarting incremental Fock matrix formation ***
                             ****Resetting DIIS****
Warning: op=0 Small HOMO/LUMO gap (  -2.415) - skipping pre-diagonalization
         LevelShift set to 1.000 Eh
         Will do a full diagonalization
   41    -282.0398961943867562     1.60e+00  2.89e-02  2.97e-01  2.08e-01  0.700   0.5
   42    -290.4026986471842520    -8.36e+00  1.58e-02  1.57e-01  7.66e-02  0.700   0.3
   43    -289.1789246140955925     1.22e+00  3.42e-02  3.65e-01  1.25e-01  0.000   0.3
   44    -266.7050672537269520     2.25e+01  3.39e-03  3.27e-02  4.57e-01  0.700   0.3
   45    -267.2492865812705531    -5.44e-01  4.71e-03  4.30e-02  4.40e-01  0.700   0.3
   46    -267.9787627487035024    -7.29e-01  4.78e-03  4.23e-02  4.14e-01  0.700   0.3
   47    -268.6855790939532653    -7.07e-01  5.41e-03  4.63e-02  3.85e-01  0.700   0.3
   48    -269.4505459071972382    -7.65e-01  3.39e-02  3.65e-01  3.50e-01  0.700   0.3
   49    -286.6965667513107974    -1.72e+01  1.98e-02  3.00e-01  1.15e-01  0.700   0.3
   50    -290.1433903003486421    -3.45e+00  1.30e-02  1.96e-01  1.09e-01  0.700   0.3

       ******************************************************************************
       ***                                                                        ***
       ***                               Auto-TRAH                                ***
       ***                               ---------                                ***
       *** the maximum gradient error decreased on average only by a factor   1.0 ***
       *** during the last  10 iterations                                         ***
       ***                                                                        ***
       ***               Leaving SCF to start the TRAH-SCF procedure              ***
       ***                                                                        ***
       ******************************************************************************

 --------------------------------------------------------------------------------------------
   Iter.        energy            ||Error||_2        Shift      TRadius  Mac/Mic        Rej.
 --------------------------------------------------------------------------------------------
    0       -274.380316221139     1.876399e+00                     0.400 (TRAH MAcro)   No
WARNING: 3002 diagonal Hessian elements are negative!
WARNING : negative HOMO - LUMO gap : (op = alpha) -3.165283
WARNING : negative HOMO - LUMO gap : (op =  beta) -3.165159
WARNING : negative HOMO - LUMO gap : (op = alpha) -3.165283
WARNING : negative HOMO - LUMO gap : (op =  beta) -3.165159
    0     dE    -1.354866e+00     1.217584e-01    -3.7937e+00      0.400 (TRAH MIcro)
    0     dE    -1.358167e+00     4.338506e-03    -3.8363e+00      0.400 (TRAH MIcro)
    1       -275.730554630627     1.505975e+00                     0.480 (TRAH MAcro)   No
WARNING: 2927 diagonal Hessian elements are negative!
WARNING : negative HOMO - LUMO gap : (op = alpha) -2.997659
WARNING : negative HOMO - LUMO gap : (op =  beta) -2.997828
WARNING : negative HOMO - LUMO gap : (op = alpha) -2.997659
WARNING : negative HOMO - LUMO gap : (op =  beta) -2.997828
    1     dE    -1.249857e+00     1.580779e-01    -2.6104e+00      0.472 (TRAH MIcro)
    1     dE    -8.740592e-01     1.225150e-01    -3.9919e+00      0.323 (TRAH MIcro)
    1     dE    -8.525979e-01     8.267425e-03    -4.0274e+00      0.311 (TRAH MIcro)
    2       -276.580551058901     1.241546e+00                     0.576 (TRAH MAcro)   No
WARNING: 2855 diagonal Hessian elements are negative!
WARNING : negative HOMO - LUMO gap : (op = alpha) -2.891672
WARNING : negative HOMO - LUMO gap : (op =  beta) -2.893473
WARNING : negative HOMO - LUMO gap : (op = alpha) -2.891672
WARNING : negative HOMO - LUMO gap : (op =  beta) -2.893473
    2     dE    -1.334237e+00     4.437087e-01    -2.0156e+00      0.576 (TRAH MIcro)
    2     dE    -1.386539e+00     2.528292e-01    -2.4611e+00      0.576 (TRAH MIcro)
    2     dE    -8.026861e-01     8.726949e-02    -3.4191e+00      0.346 (TRAH MIcro)
    2     dE    -8.461803e-01     5.514581e-03    -3.4319e+00      0.363 (TRAH MIcro)
    3       -277.418824870346     1.211073e+00                     0.691 (TRAH MAcro)   No
WARNING: 2797 diagonal Hessian elements are negative!
WARNING : negative HOMO - LUMO gap : (op = alpha) -2.790325
WARNING : negative HOMO - LUMO gap : (op =  beta) -2.800734
WARNING : negative HOMO - LUMO gap : (op = alpha) -2.790325
WARNING : negative HOMO - LUMO gap : (op =  beta) -2.800734
    3     dE    -2.253477e+00     1.602668e-01    -3.2258e+00      0.691 (TRAH MIcro)
    3     dE    -2.259696e+00     1.284321e-02    -3.2909e+00      0.691 (TRAH MIcro)
    3     dE    -2.259742e+00     9.734462e-04    -3.2887e+00      0.691 (TRAH MIcro)
    4       -279.381283390475     1.620757e+00                     0.829 (TRAH MAcro)   No
WARNING: 2594 diagonal Hessian elements are negative!
WARNING : negative HOMO - LUMO gap : (op = alpha) -2.627119
WARNING : negative HOMO - LUMO gap : (op =  beta) -2.630767
WARNING : negative HOMO - LUMO gap : (op = alpha) -2.627119
WARNING : negative HOMO - LUMO gap : (op =  beta) -2.630767
    4     dE    -2.963911e+00     2.290277e-01    -2.6363e+00      0.829 (TRAH MIcro)
    4     dE    -1.980524e+00     1.184353e-01    -3.2675e+00      0.592 (TRAH MIcro)
    4     dE    -1.915898e+00     1.191945e-02    -3.2772e+00      0.573 (TRAH MIcro)
    4     dE    -1.911907e+00     4.220830e-04    -3.2773e+00      0.572 (TRAH MIcro)
    5       -281.183299236230     1.595461e+00                     0.995 (TRAH MAcro)   No
WARNING: 2389 diagonal Hessian elements are negative!
WARNING : negative HOMO - LUMO gap : (op = alpha) -2.475930
WARNING : negative HOMO - LUMO gap : (op =  beta) -2.475570
WARNING : negative HOMO - LUMO gap : (op = alpha) -2.475930
WARNING : negative HOMO - LUMO gap : (op =  beta) -2.475570
    5     dE    -3.915290e+00     2.549737e-01    -2.5916e+00      0.995 (TRAH MIcro)
    5     dE    -3.736518e+00     6.706727e-02    -2.7306e+00      0.957 (TRAH MIcro)
    5     dE    -3.686678e+00     6.233118e-03    -2.7318e+00      0.948 (TRAH MIcro)
    6       -284.219050488474     1.623004e+00                     1.194 (TRAH MAcro)   No
WARNING: 2000 diagonal Hessian elements are negative!
WARNING : negative HOMO - LUMO gap : (op = alpha) -2.222727
WARNING : negative HOMO - LUMO gap : (op =  beta) -2.242036
WARNING : negative HOMO - LUMO gap : (op = alpha) -2.222727
WARNING : negative HOMO - LUMO gap : (op =  beta) -2.242036
    6     dE    -4.763593e+00     4.238894e-01    -2.3072e+00      1.194 (TRAH MIcro)
    6     dE    -3.703138e+00     1.834183e-01    -2.5817e+00      0.991 (TRAH MIcro)
    6     dE    -3.605632e+00     1.329380e-02    -2.5904e+00      0.970 (TRAH MIcro)
    6     dE    -3.605256e+00     1.030362e-03    -2.5905e+00      0.970 (TRAH MIcro)
    7       -287.303580155822     1.706691e+00                     1.433 (TRAH MAcro)   No
WARNING: 1613 diagonal Hessian elements are negative!
WARNING : negative HOMO - LUMO gap : (op = alpha) -1.751943
WARNING : negative HOMO - LUMO gap : (op =  beta) -1.887157
WARNING : negative HOMO - LUMO gap : (op = alpha) -1.751943
WARNING : negative HOMO - LUMO gap : (op =  beta) -1.887157
    7     dE    -4.854911e+00     4.313843e-01    -1.7249e+00      1.347 (TRAH MIcro)
    7     dE    -5.302534e+00     2.882725e-01    -1.8084e+00      1.430 (TRAH MIcro)
    7     dE    -5.365503e+00     1.173714e-01    -1.8601e+00      1.433 (TRAH MIcro)
    7     dE    -5.193957e+00     6.526055e-02    -1.8906e+00      1.397 (TRAH MIcro)
    7     dE    -3.335898e+00     2.475542e-01    -2.0310e+00      0.998 (TRAH MIcro)
    7     dE    -3.016396e+00     2.620038e-02    -2.0531e+00      0.907 (TRAH MIcro)
    7     dE    -3.000988e+00     2.940099e-03    -2.0534e+00      0.903 (TRAH MIcro)
    8       -289.954379114060     1.317945e+00                     1.720 (TRAH MAcro)   No
WARNING: 1273 diagonal Hessian elements are negative!
WARNING : negative HOMO - LUMO gap : (op = alpha) -1.338908
WARNING : negative HOMO - LUMO gap : (op =  beta) -1.320806
WARNING : negative HOMO - LUMO gap : (op = alpha) -1.338908
WARNING : negative HOMO - LUMO gap : (op =  beta) -1.320806
    8     dE    -3.501433e+00     3.574519e-01    -1.2863e+00      1.312 (TRAH MIcro)
    8     dE    -5.066471e+00     2.591136e-01    -1.3288e+00      1.694 (TRAH MIcro)
    8     dE    -5.257193e+00     1.054703e-01    -1.3629e+00      1.720 (TRAH MIcro)
    8     dE    -5.287907e+00     4.963155e-02    -1.3806e+00      1.720 (TRAH MIcro)
    8     dE    -5.289694e+00     8.905395e-03    -1.3759e+00      1.720 (TRAH MIcro)
    9       -292.850128067649     7.445982e-01                     1.720 (TRAH MAcro)   No
WARNING: 565 diagonal Hessian elements are negative!
WARNING : negative HOMO - LUMO gap : (op = alpha) -0.607757
WARNING : negative HOMO - LUMO gap : (op =  beta) -0.679268
WARNING : negative HOMO - LUMO gap : (op = alpha) -0.607757
WARNING : negative HOMO - LUMO gap : (op =  beta) -0.679268
    9     dE    -1.833332e+00     3.312890e-01    -6.6075e-01      1.332 (TRAH MIcro)
    9     dE    -2.741481e+00     2.211201e-01    -7.2033e-01      1.720 (TRAH MIcro)
    9     dE    -2.784566e+00     3.552259e-02    -7.1914e-01      1.720 (TRAH MIcro)
    9     dE    -2.786612e+00     1.075449e-02    -7.2053e-01      1.720 (TRAH MIcro)
    9     dE    -2.786750e+00     2.379973e-03    -7.2114e-01      1.720 (TRAH MIcro)
   10       -293.984306172262     4.292157e-01                     1.720 (TRAH MAcro)   No
WARNING: 328 diagonal Hessian elements are negative!
WARNING : negative HOMO - LUMO gap : (op = alpha) -0.417199
WARNING : negative HOMO - LUMO gap : (op =  beta) -0.347035
WARNING : negative HOMO - LUMO gap : (op = alpha) -0.417199
WARNING : negative HOMO - LUMO gap : (op =  beta) -0.347035
   10     dE    -6.171999e-01     1.933622e-01    -3.1425e-01      0.982 (TRAH MIcro)
   10     dE    -7.198308e-01     5.601549e-02    -3.3482e-01      1.072 (TRAH MIcro)
   10     dE    -1.363684e+00     2.537945e-02    -3.4858e-01      1.720 (TRAH MIcro)
   10     dE    -7.248067e-01     4.415756e-02    -3.7346e-01      1.071 (TRAH MIcro)
   10     dE    -5.364084e-01     5.541369e-02    -4.1305e-01      0.808 (TRAH MIcro)
   10     dE    -4.330620e-01     8.463604e-02    -4.9630e-01      0.649 (TRAH MIcro)
   10     dE    -4.062723e-01     1.581379e-02    -5.1140e-01      0.585 (TRAH MIcro)
   10     dE    -4.055662e-01     3.381773e-03    -5.1171e-01      0.584 (TRAH MIcro)
   11       -294.379097535165     2.737768e-01                     2.064 (TRAH MAcro)   No
WARNING: 220 diagonal Hessian elements are negative!
WARNING : negative HOMO - LUMO gap : (op = alpha) -0.397717
WARNING : negative HOMO - LUMO gap : (op =  beta) -0.295455
WARNING : negative HOMO - LUMO gap : (op = alpha) -0.397717
WARNING : negative HOMO - LUMO gap : (op =  beta) -0.295455
   11     dE    -3.270983e-01     1.494252e-01    -1.9939e-01      0.800 (TRAH MIcro)
   11     dE    -5.335227e-01     1.018532e-01    -2.2314e-01      1.179 (TRAH MIcro)
   11     dE    -4.326176e-01     8.098607e-02    -2.4741e-01      0.977 (TRAH MIcro)
   11     dE    -1.031530e+00     1.606625e-01    -2.4035e-01      1.814 (TRAH MIcro)
   11     dE    -1.316572e+00     9.271584e-02    -2.5643e-01      2.064 (TRAH MIcro)
   11     dE    -1.357664e+00     1.081878e-01    -2.6924e-01      2.064 (TRAH MIcro)
   11     dE    -1.010456e+00     5.413675e-02    -2.8907e-01      1.688 (TRAH MIcro)
   11     dE    -1.482799e+00     7.269636e-02    -2.9718e-01      2.064 (TRAH MIcro)
   11     dE    -1.538075e+00     5.030836e-02    -3.1459e-01      2.064 (TRAH MIcro)
   11     dE    -1.541288e+00     1.813577e-02    -3.1565e-01      2.064 (TRAH MIcro)
   11     dE    -1.542092e+00     2.228211e-02    -3.1554e-01      2.064 (TRAH MIcro)
   11     dE    -1.580741e+00     3.317485e-01    -3.2559e-01      2.064 (TRAH MIcro)
   11     dE    -2.231713e-01     3.489669e-02    -4.5344e-01      0.486 (TRAH MIcro)
   11     dE    -2.215911e-01     6.403146e-03    -4.5611e-01      0.479 (TRAH MIcro)
   12       -294.594599567666     2.006176e-01                     2.477 (TRAH MAcro)   No
WARNING: 136 diagonal Hessian elements are negative!
WARNING : negative HOMO - LUMO gap : (op = alpha) -0.340059
WARNING : negative HOMO - LUMO gap : (op =  beta) -0.219528
WARNING : negative HOMO - LUMO gap : (op = alpha) -0.340059
WARNING : negative HOMO - LUMO gap : (op =  beta) -0.219528
   12     dE    -2.173279e+00     1.835639e-01    -3.2415e-01      2.477 (TRAH MIcro)
   12     dE    -2.209430e+00     1.086652e-01    -3.3805e-01      2.477 (TRAH MIcro)
   12     dE    -5.801617e-01     1.128155e-01    -3.5646e-01      1.171 (TRAH MIcro)
   12     dE    -3.196128e-01     2.986765e-02    -3.7380e-01      0.774 (TRAH MIcro)
   12     dE    -2.652189e-01     1.518705e-02    -3.7768e-01      0.668 (TRAH MIcro)
   12     dE    -2.592157e-01     3.547908e-03    -3.7814e-01      0.655 (TRAH MIcro)
   13       -294.801230074457     1.523842e-01                     2.972 (TRAH MAcro)   No
WARNING: 47 diagonal Hessian elements are negative!
WARNING : negative HOMO - LUMO gap : (op = alpha) -0.077725
WARNING : negative HOMO - LUMO gap : (op =  beta) -0.030108
WARNING : negative HOMO - LUMO gap : (op = alpha) -0.077725
WARNING : negative HOMO - LUMO gap : (op =  beta) -0.030108
   13     dE    -9.184196e-02     1.771652e-01    -6.9056e-02      0.574 (TRAH MIcro)
   13     dE    -2.343206e-01     9.538943e-02    -1.0891e-01      1.073 (TRAH MIcro)
   13     dE    -3.191646e-01     6.572871e-02    -1.2176e-01      1.273 (TRAH MIcro)
   13     dE    -3.622490e-01     3.297055e-02    -1.2620e-01      1.368 (TRAH MIcro)
   13     dE    -3.824409e-01     2.105955e-02    -1.2723e-01      1.416 (TRAH MIcro)
   13     dE    -3.938210e-01     1.595681e-02    -1.2783e-01      1.443 (TRAH MIcro)
   13     dE    -3.973121e-01     1.018918e-02    -1.2800e-01      1.450 (TRAH MIcro)
   13     dE    -3.965611e-01     7.117485e-03    -1.2809e-01      1.448 (TRAH MIcro)
   14       -295.018047744959     9.136328e-02                     2.972 (TRAH MAcro)   No
   14     dE    -5.009806e-02     4.242212e-02    -3.9670e-02      0.513 (TRAH MIcro)
   14     dE    -5.865401e-02     1.485945e-02    -4.3266e-02      0.596 (TRAH MIcro)
   14     dE    -6.048304e-02     9.160345e-03    -4.3709e-02      0.619 (TRAH MIcro)
   14     dE    -6.122011e-02     4.016393e-03    -4.3860e-02      0.629 (TRAH MIcro)
   15       -295.072708500621     2.087356e-02                     3.566 (TRAH MAcro)   No
   15     dE    -3.360300e-03     7.093526e-03    -3.2618e-03      0.174 (TRAH MIcro)
   15     dE    -3.507824e-03     3.497452e-03    -3.3932e-03      0.184 (TRAH MIcro)
   15     dE    -3.746054e-03     5.466947e-03    -3.5726e-03      0.220 (TRAH MIcro)
   15     dE    -4.020433e-03     5.544135e-03    -3.7235e-03      0.282 (TRAH MIcro)
   15     dE    -4.310995e-03     4.346048e-03    -3.8387e-03      0.351 (TRAH MIcro)
   15     dE    -4.774748e-03     3.450471e-03    -3.9701e-03      0.450 (TRAH MIcro)
   15     dE    -4.873783e-03     1.450758e-03    -3.9936e-03      0.469 (TRAH MIcro)
   16       -295.077253428085     9.065330e-03                     4.280 (TRAH MAcro)   No
   16     dE    -1.001803e-04     1.828601e-03    -1.0015e-04      0.018 (TRAH MIcro)
   16     dE    -1.188105e-04     2.486086e-03    -1.1872e-04      0.028 (TRAH MIcro)
   16     dE    -2.118306e-04     4.402806e-03    -2.0789e-04      0.138 (TRAH MIcro)
   16     dE    -2.608568e-04     1.673760e-03    -2.5115e-04      0.197 (TRAH MIcro)
   16     dE    -2.715461e-04     9.300780e-04    -2.6010e-04      0.210 (TRAH MIcro)
   16     dE    -2.760987e-04     7.726546e-04    -2.6384e-04      0.216 (TRAH MIcro)
   17       -295.077547496645     2.034242e-03                     5.136 (TRAH MAcro)   No
   17     dE    -5.352699e-06     5.765285e-04    -5.3526e-06      0.004 (TRAH MIcro)
   17     dE    -6.596905e-06     5.718401e-04    -6.5966e-06      0.007 (TRAH MIcro)
   17     dE    -1.183986e-05     1.295833e-03    -1.1828e-05      0.031 (TRAH MIcro)
   17     dE    -1.898693e-05     1.232316e-03    -1.8901e-05      0.068 (TRAH MIcro)
   17     dE    -2.508904e-05     9.479744e-04    -2.4841e-05      0.100 (TRAH MIcro)
   17     dE    -3.015281e-05     1.034330e-03    -2.9671e-05      0.127 (TRAH MIcro)
   17     dE    -3.315626e-05     5.490366e-04    -3.2484e-05      0.144 (TRAH MIcro)
   17     dE    -3.529517e-05     1.008705e-03    -3.4459e-05      0.156 (TRAH MIcro)
   17     dE    -4.667780e-05     2.509401e-03    -4.4462e-05      0.223 (TRAH MIcro)
   17     dE    -2.125803e-04     6.765382e-03    -1.2280e-04      0.855 (TRAH MIcro)
   17     dE    -4.988280e-04     4.029819e-03    -1.7825e-04      1.341 (TRAH MIcro)
   17     dE    -9.071874e-04     9.177796e-03    -2.2282e-04      1.753 (TRAH MIcro)
   17     dE    -1.111889e-02     5.026794e-02    -4.8396e-04      4.688 (TRAH MIcro)
   17     dE    -1.985777e-02     2.516791e-02    -7.3614e-04      5.136 (TRAH MIcro)
   17     dE    -2.159525e-02     1.925729e-02    -8.0285e-04      5.136 (TRAH MIcro)
   17     dE    -2.383827e-02     2.107036e-02    -8.8896e-04      5.136 (TRAH MIcro)
   17     dE    -2.486189e-02     1.356799e-02    -9.2826e-04      5.136 (TRAH MIcro)
   17     dE    -2.648952e-02     2.855161e-02    -9.9077e-04      5.136 (TRAH MIcro)
   17     dE    -2.835868e-02     1.343460e-02    -1.0626e-03      5.136 (TRAH MIcro)
   17     dE    -2.002070e-02     6.006505e-03    -1.0787e-03      4.278 (TRAH MIcro)
   17     dE    -2.214380e-02     2.110784e-02    -1.0980e-03      4.462 (TRAH MIcro)
   17     dE    -3.172203e-02     2.647818e-02    -1.1920e-03      5.136 (TRAH MIcro)
   17     dE    -3.374975e-02     2.249930e-02    -1.2702e-03      5.136 (TRAH MIcro)
 ---------------------------------
          TRAH Step control 
 ---------------------------------
  predicted energy change =    -3.374975482102e-02
  actual energy  change   =     1.206110241624e-01
  energy change ratio     = -3.573686
  old trust radius        = 5.135674
  new trust radius        = 3.440901
  reject step?            = YES
   18       -294.956936472483     2.034242e-03                     3.441 (TRAH MAcro)  Yes
   19       -294.956936472483     3.744798e-01                     3.441 (TRAH MAcro)   No
   19     dE    -1.210945e-01     1.821868e-02    -1.1032e-01      0.312 (TRAH MIcro)
   19     dE    -1.212023e-01     8.713861e-03    -1.1106e-01      0.302 (TRAH MIcro)
   20       -295.076382346897     2.722893e-02                     4.129 (TRAH MAcro)   No
   20     dE    -6.798034e-04     4.474883e-03    -6.7903e-04      0.034 (TRAH MIcro)
   20     dE    -7.169323e-04     2.070020e-03    -7.1595e-04      0.037 (TRAH MIcro)
   21       -295.077099383642     2.063866e-03                     4.955 (TRAH MAcro)   No
   21     dE    -2.092187e-05     2.645820e-03    -2.0917e-05      0.015 (TRAH MIcro)
   21     dE    -6.694176e-05     3.214373e-03    -6.6690e-05      0.061 (TRAH MIcro)
   21     dE    -1.084161e-04     3.460184e-03    -1.0700e-04      0.115 (TRAH MIcro)
   21     dE    -2.107390e-04     5.288251e-03    -1.9767e-04      0.257 (TRAH MIcro)
   21     dE    -2.856279e-04     1.799856e-03    -2.5441e-04      0.350 (TRAH MIcro)
   21     dE    -2.965972e-04     9.574473e-04    -2.6205e-04      0.363 (TRAH MIcro)
   21     dE    -3.005784e-04     9.561767e-04    -2.6476e-04      0.368 (TRAH MIcro)
   21     dE    -3.195698e-04     3.410357e-03    -2.7694e-04      0.392 (TRAH MIcro)
   21     dE    -3.536941e-04     1.575535e-03    -2.9599e-04      0.442 (TRAH MIcro)
   21     dE    -3.682090e-04     1.763702e-03    -3.0317e-04      0.463 (TRAH MIcro)
   21     dE    -3.926636e-04     1.499531e-03    -3.1415e-04      0.500 (TRAH MIcro)
   21     dE    -4.067056e-04     1.253678e-03    -3.1990e-04      0.521 (TRAH MIcro)
   21     dE    -4.359481e-04     2.617753e-03    -3.3070e-04      0.564 (TRAH MIcro)
   21     dE    -5.098954e-04     2.817890e-03    -3.5292e-04      0.667 (TRAH MIcro)
   21     dE    -5.703245e-04     1.586365e-03    -3.6744e-04      0.743 (TRAH MIcro)
   21     dE    -6.098206e-04     2.952221e-03    -3.7566e-04      0.790 (TRAH MIcro)
   21     dE    -1.372903e-03     1.450450e-02    -4.6199e-04      1.404 (TRAH MIcro)
   21     dE    -2.185441e-02     4.211876e-02    -8.6272e-04      4.955 (TRAH MIcro)
   21     dE    -2.287556e-02     8.307565e-03    -9.0542e-04      4.955 (TRAH MIcro)
   21     dE    -2.314694e-02     1.322998e-02    -9.1676e-04      4.955 (TRAH MIcro)
   21     dE    -2.353320e-02     1.056011e-02    -9.3292e-04      4.955 (TRAH MIcro)
   21     dE    -2.332274e-02     1.084741e-02    -9.4917e-04      4.891 (TRAH MIcro)
   21     dE    -2.450207e-02     1.820329e-02    -9.7347e-04      4.955 (TRAH MIcro)
 ---------------------------------
          TRAH Step control 
 ---------------------------------
  predicted energy change =    -2.450207495979e-02
  actual energy  change   =     8.973146839674e-02
  energy change ratio     = -3.662199
  old trust radius        = 4.954898
  new trust radius        = 3.319782
  reject step?            = YES
   22       -294.987367915245     2.063866e-03                     3.320 (TRAH MAcro)  Yes
   23       -294.987367915245     3.246132e-01                     3.320 (TRAH MAcro)   No
   23     dE    -8.984126e-02     1.813197e-02    -8.3069e-02      0.286 (TRAH MIcro)
   23     dE    -8.989770e-02     1.037203e-02    -8.3890e-02      0.268 (TRAH MIcro)
   23     dE    -8.995261e-02     5.489626e-03    -8.4105e-02      0.264 (TRAH MIcro)
   24       -295.076857825438     2.062043e-02                     3.984 (TRAH MAcro)   No
   24     dE    -4.619218e-04     2.950569e-03    -4.6133e-04      0.036 (TRAH MIcro)
   24     dE    -4.959283e-04     2.993309e-03    -4.9479e-04      0.048 (TRAH MIcro)
   24     dE    -5.264166e-04     2.095031e-03    -5.2420e-04      0.065 (TRAH MIcro)
   24     dE    -5.444203e-04     1.866224e-03    -5.4110e-04      0.078 (TRAH MIcro)
   25       -295.077403441864     1.837998e-03                     4.780 (TRAH MAcro)   No
   25     dE    -9.727652e-06     1.613218e-03    -9.7270e-06      0.008 (TRAH MIcro)
   25     dE    -2.887745e-05     2.292830e-03    -2.8837e-05      0.038 (TRAH MIcro)
   25     dE    -4.209003e-05     1.670216e-03    -4.1929e-05      0.062 (TRAH MIcro)
   25     dE    -6.542863e-05     2.942423e-03    -6.4597e-05      0.113 (TRAH MIcro)
   25     dE    -9.751475e-05     1.671379e-03    -9.4212e-05      0.187 (TRAH MIcro)
   25     dE    -1.021776e-04     6.773067e-04    -9.8327e-05      0.198 (TRAH MIcro)
   25     dE    -1.055713e-04     1.314509e-03    -1.0128e-04      0.206 (TRAH MIcro)
   25     dE    -1.232648e-04     2.470722e-03    -1.1590e-04      0.252 (TRAH MIcro)
   25     dE    -1.504385e-04     2.063960e-03    -1.3570e-04      0.330 (TRAH MIcro)
   25     dE    -1.639888e-04     1.452841e-03    -1.4446e-04      0.368 (TRAH MIcro)
   25     dE    -1.843110e-04     2.261681e-03    -1.5638e-04      0.423 (TRAH MIcro)
   25     dE    -2.183098e-04     2.231686e-03    -1.7359e-04      0.508 (TRAH MIcro)
   25     dE    -2.921371e-04     4.141823e-03    -2.0262e-04      0.665 (TRAH MIcro)
   25     dE    -4.823010e-04     5.206810e-03    -2.5139e-04      0.958 (TRAH MIcro)
   25     dE    -6.846871e-04     3.127468e-03    -2.8553e-04      1.182 (TRAH MIcro)
   25     dE    -7.298572e-04     3.403372e-03    -2.9181e-04      1.225 (TRAH MIcro)
   25     dE    -9.616089e-04     8.122816e-03    -3.1876e-04      1.420 (TRAH MIcro)
   25     dE    -2.319116e-03     1.127590e-02    -4.0473e-04      2.175 (TRAH MIcro)
   25     dE    -3.050900e-03     3.981561e-03    -4.3202e-04      2.462 (TRAH MIcro)
   25     dE    -3.312846e-03     5.520568e-03    -4.4028e-04      2.554 (TRAH MIcro)
   25     dE    -4.026865e-03     6.692061e-03    -4.5985e-04      2.785 (TRAH MIcro)
   25     dE    -5.126828e-03     1.062124e-02    -4.8393e-04      3.097 (TRAH MIcro)
   25     dE    -1.487681e-02     4.491450e-02    -6.2759e-04      4.780 (TRAH MIcro)
 ---------------------------------
          TRAH Step control 
 ---------------------------------
  predicted energy change =    -1.487680904913e-02
  actual energy  change   =     9.222843432718e-02
  energy change ratio     = -6.199477
  old trust radius        = 4.780486
  new trust radius        = 3.202925
  reject step?            = YES
   26       -294.985175007537     1.837998e-03                     3.203 (TRAH MAcro)  Yes
   27       -294.985175007537     3.269186e-01                     3.203 (TRAH MAcro)   No
   27     dE    -9.075175e-02     2.040534e-02    -8.4377e-02      0.275 (TRAH MIcro)
   27     dE    -9.119242e-02     7.003459e-03    -8.4939e-02      0.271 (TRAH MIcro)
   28       -295.076061136246     2.284108e-02                     3.844 (TRAH MAcro)   No
   28     dE    -8.230749e-04     7.883645e-03    -8.2027e-04      0.059 (TRAH MIcro)
   28     dE    -9.965562e-04     6.064351e-03    -9.9004e-04      0.081 (TRAH MIcro)
   28     dE    -1.118714e-03     2.884039e-03    -1.1061e-03      0.107 (TRAH MIcro)
   28     dE    -1.143929e-03     1.933010e-03    -1.1297e-03      0.112 (TRAH MIcro)
   29       -295.077207692582     2.009800e-03                     4.612 (TRAH MAcro)   No
   29     dE    -1.312568e-05     1.713592e-03    -1.3124e-05      0.010 (TRAH MIcro)
   29     dE    -8.409707e-05     5.959885e-03    -8.3185e-05      0.105 (TRAH MIcro)
   29     dE    -1.907493e-04     4.168104e-03    -1.7993e-04      0.245 (TRAH MIcro)
   29     dE    -2.445185e-04     2.523806e-03    -2.2302e-04      0.310 (TRAH MIcro)
   29     dE    -2.796386e-04     2.399648e-03    -2.4886e-04      0.352 (TRAH MIcro)
   29     dE    -2.974473e-04     1.091089e-03    -2.6123e-04      0.372 (TRAH MIcro)
   29     dE    -3.061776e-04     1.227221e-03    -2.6710e-04      0.383 (TRAH MIcro)
   29     dE    -3.192641e-04     1.841021e-03    -2.7552e-04      0.398 (TRAH MIcro)
   29     dE    -3.399105e-04     1.174009e-03    -2.8783e-04      0.425 (TRAH MIcro)
   29     dE    -3.437993e-04     5.567836e-04    -2.9002e-04      0.431 (TRAH MIcro)
   29     dE    -3.486118e-04     1.298217e-03    -2.9265e-04      0.437 (TRAH MIcro)
   29     dE    -3.844668e-04     3.165284e-03    -3.0935e-04      0.493 (TRAH MIcro)
   29     dE    -5.110870e-04     3.816414e-03    -3.4769e-04      0.686 (TRAH MIcro)
   29     dE    -8.436516e-04     5.785526e-03    -4.0191e-04      1.048 (TRAH MIcro)
   29     dE    -1.625747e-03     5.748397e-03    -4.6784e-04      1.573 (TRAH MIcro)
   29     dE    -2.041826e-03     4.067570e-03    -4.9121e-04      1.777 (TRAH MIcro)
   29     dE    -3.039914e-03     1.227390e-02    -5.3313e-04      2.168 (TRAH MIcro)
   29     dE    -1.697225e-02     3.136182e-02    -7.6437e-04      4.612 (TRAH MIcro)
   29     dE    -1.865020e-02     1.272014e-02    -8.4570e-04      4.612 (TRAH MIcro)
   29     dE    -1.889483e-02     4.046908e-03    -8.5755e-04      4.612 (TRAH MIcro)
   29     dE    -1.901150e-02     7.968845e-03    -8.6320e-04      4.612 (TRAH MIcro)
   29     dE    -1.930719e-02     1.014172e-02    -8.7755e-04      4.612 (TRAH MIcro)
   29     dE    -1.966539e-02     1.153017e-02    -8.9500e-04      4.612 (TRAH MIcro)
 ---------------------------------
          TRAH Step control 
 ---------------------------------
  predicted energy change =    -1.966539152348e-02
  actual energy  change   =     1.061877850365e-01
  energy change ratio     = -5.399729
  old trust radius        = 4.612213
  new trust radius        = 3.090182
  reject step?            = YES
   30       -294.971019907545     2.009800e-03                     3.090 (TRAH MAcro)  Yes
   31       -294.971019907545     3.474720e-01                     3.090 (TRAH MAcro)   No
   31     dE    -1.043683e-01     3.167886e-02    -9.5845e-02      0.298 (TRAH MIcro)
   31     dE    -1.051945e-01     7.536361e-03    -9.7015e-02      0.290 (TRAH MIcro)
   32       -295.075422426534     2.584730e-02                     3.708 (TRAH MAcro)   No
   32     dE    -7.747769e-04     7.692116e-03    -7.7342e-04      0.042 (TRAH MIcro)
   32     dE    -9.093167e-04     4.907216e-03    -9.0670e-04      0.054 (TRAH MIcro)
   32     dE    -1.063396e-03     4.183855e-03    -1.0523e-03      0.103 (TRAH MIcro)
   32     dE    -1.129727e-03     3.986592e-03    -1.1098e-03      0.134 (TRAH MIcro)
   32     dE    -1.482975e-03     1.171384e-02    -1.3420e-03      0.324 (TRAH MIcro)
   32     dE    -2.996366e-03     1.109164e-02    -1.8261e-03      0.801 (TRAH MIcro)
   32     dE    -3.939968e-03     4.404078e-03    -1.9990e-03      0.985 (TRAH MIcro)
   32     dE    -4.103539e-03     2.890716e-03    -2.0245e-03      1.013 (TRAH MIcro)
   32     dE    -4.416038e-03     7.604850e-03    -2.0676e-03      1.066 (TRAH MIcro)
   32     dE    -7.593499e-03     1.590324e-02    -2.3161e-03      1.509 (TRAH MIcro)
   32     dE    -1.133843e-02     9.681967e-03    -2.4684e-03      1.896 (TRAH MIcro)
   32     dE    -1.623058e-02     1.709245e-02    -2.5956e-03      2.292 (TRAH MIcro)
   32     dE    -2.045330e-02     8.950079e-03    -2.6759e-03      2.578 (TRAH MIcro)
   32     dE    -2.226366e-02     8.502191e-03    -2.7047e-03      2.689 (TRAH MIcro)
   32     dE    -2.685279e-02     1.752601e-02    -2.7654e-03      2.951 (TRAH MIcro)
   32     dE    -2.948128e-02     3.846892e-03    -2.7941e-03      3.091 (TRAH MIcro)
   32     dE    -3.002442e-02     4.312957e-03    -2.7995e-03      3.118 (TRAH MIcro)
   32     dE    -3.253365e-02     1.272745e-02    -2.8221e-03      3.245 (TRAH MIcro)
   32     dE    -3.707502e-02     8.149951e-03    -2.8558e-03      3.462 (TRAH MIcro)
   32     dE    -3.843637e-02     4.119379e-03    -2.8645e-03      3.524 (TRAH MIcro)
   32     dE    -3.875729e-02     2.314076e-03    -2.8665e-03      3.538 (TRAH MIcro)
 ---------------------------------
          TRAH Step control 
 ---------------------------------
  predicted energy change =    -3.875729450235e-02
  actual energy  change   =     4.341302527922e-02
  energy change ratio     = -1.120125
  old trust radius        = 3.708219
  new trust radius        = 2.484507
  reject step?            = YES
   33       -295.032009401255     2.584730e-02                     2.485 (TRAH MAcro)  Yes
   34       -295.032009401255     2.234529e-01                     2.485 (TRAH MAcro)   No
   34     dE    -4.363645e-02     2.338024e-02    -4.1459e-02      0.229 (TRAH MIcro)
   34     dE    -4.418167e-02     6.117855e-03    -4.2206e-02      0.216 (TRAH MIcro)
   35       -295.076012218567     1.023657e-02                     2.981 (TRAH MAcro)   No
   35     dE    -1.994074e-04     4.497660e-03    -1.9923e-04      0.030 (TRAH MIcro)
   35     dE    -2.699453e-04     4.188878e-03    -2.6925e-04      0.051 (TRAH MIcro)
   35     dE    -3.807518e-04     3.542473e-03    -3.7620e-04      0.110 (TRAH MIcro)
   35     dE    -4.527428e-04     4.361114e-03    -4.4118e-04      0.162 (TRAH MIcro)
   35     dE    -7.560083e-04     7.341069e-03    -6.5944e-04      0.383 (TRAH MIcro)
   35     dE    -1.027129e-03     4.441268e-03    -7.9854e-04      0.535 (TRAH MIcro)
   35     dE    -1.096908e-03     1.365907e-03    -8.2856e-04      0.569 (TRAH MIcro)
   35     dE    -1.109682e-03     1.180230e-03    -8.3381e-04      0.575 (TRAH MIcro)
   35     dE    -1.150165e-03     3.571675e-03    -8.4892e-04      0.596 (TRAH MIcro)
   35     dE    -1.730331e-03     9.680479e-03    -9.7000e-04      0.885 (TRAH MIcro)
   35     dE    -2.749503e-03     4.475522e-03    -1.0736e-03      1.249 (TRAH MIcro)
   35     dE    -3.143030e-03     4.055910e-03    -1.1020e-03      1.361 (TRAH MIcro)
   35     dE    -4.143302e-03     7.489983e-03    -1.1582e-03      1.605 (TRAH MIcro)
   35     dE    -5.298626e-03     6.975236e-03    -1.2067e-03      1.841 (TRAH MIcro)
   35     dE    -7.037507e-03     1.009860e-02    -1.2618e-03      2.139 (TRAH MIcro)
   35     dE    -1.001532e-02     8.174695e-03    -1.3299e-03      2.556 (TRAH MIcro)
   35     dE    -1.115644e-02     4.922385e-03    -1.3505e-03      2.695 (TRAH MIcro)
   35     dE    -1.237184e-02     7.661983e-03    -1.3699e-03      2.834 (TRAH MIcro)
   35     dE    -1.383168e-02     8.960483e-03    -1.4009e-03      2.981 (TRAH MIcro)
   35     dE    -1.404881e-02     3.724593e-03    -1.4281e-03      2.981 (TRAH MIcro)
   35     dE    -1.406338e-02     1.170707e-03    -1.4299e-03      2.981 (TRAH MIcro)
   35     dE    -1.407059e-02     1.770028e-03    -1.4308e-03      2.981 (TRAH MIcro)
   35     dE    -1.408635e-02     2.106510e-03    -1.4328e-03      2.981 (TRAH MIcro)
 ---------------------------------
          TRAH Step control 
 ---------------------------------
  predicted energy change =    -1.408634672482e-02
  actual energy  change   =     4.567639629124e-02
  energy change ratio     = -3.242601
  old trust radius        = 2.981408
  new trust radius        = 1.997543
  reject step?            = YES
   36       -295.030335822276     1.023657e-02                     1.998 (TRAH MAcro)  Yes
   37       -295.030335822276     2.281670e-01                     1.998 (TRAH MAcro)   No
   37     dE    -4.631617e-02     2.300026e-02    -4.3840e-02      0.238 (TRAH MIcro)
   37     dE    -4.665509e-02     5.482514e-03    -4.4327e-02      0.229 (TRAH MIcro)
   38       -295.076358633179     9.481923e-03                     1.998 (TRAH MAcro)   No
   38     dE    -1.434482e-04     3.508368e-03    -1.4337e-04      0.024 (TRAH MIcro)
   38     dE    -1.793645e-04     2.733049e-03    -1.7912e-04      0.037 (TRAH MIcro)
   38     dE    -2.644201e-04     6.171474e-03    -2.6160e-04      0.104 (TRAH MIcro)
   38     dE    -4.155782e-04     6.050424e-03    -3.9298e-04      0.240 (TRAH MIcro)
   38     dE    -7.861401e-04     8.979193e-03    -6.2399e-04      0.510 (TRAH MIcro)
   38     dE    -1.271869e-03     7.677922e-03    -8.1548e-04      0.748 (TRAH MIcro)
   38     dE    -1.563906e-03     3.553150e-03    -9.0058e-04      0.858 (TRAH MIcro)
   38     dE    -1.602434e-03     1.849812e-03    -9.1066e-04      0.872 (TRAH MIcro)
   38     dE    -1.677965e-03     4.867778e-03    -9.2910e-04      0.898 (TRAH MIcro)
   38     dE    -6.593189e-03     4.046381e-02    -1.3293e-03      1.998 (TRAH MIcro)
   38     dE    -7.994716e-03     1.108613e-02    -1.7347e-03      1.998 (TRAH MIcro)
   38     dE    -8.651779e-03     2.142231e-02    -1.9195e-03      1.998 (TRAH MIcro)
   38     dE    -1.000537e-02     1.528136e-02    -2.2948e-03      1.998 (TRAH MIcro)
   38     dE    -1.048615e-02     9.298433e-03    -2.4266e-03      1.998 (TRAH MIcro)
   38     dE    -5.630284e-03     7.290633e-03    -2.5604e-03      1.394 (TRAH MIcro)
   38     dE    -6.856466e-03     4.142180e-03    -2.6096e-03      1.540 (TRAH MIcro)
   38     dE    -7.316519e-03     3.146037e-03    -2.6257e-03      1.591 (TRAH MIcro)
   38     dE    -8.305176e-03     7.533848e-03    -2.6568e-03      1.694 (TRAH MIcro)
   38     dE    -9.762413e-03     5.041182e-03    -2.6953e-03      1.835 (TRAH MIcro)
   38     dE    -1.029560e-02     2.117991e-03    -2.7077e-03      1.883 (TRAH MIcro)
   38     dE    -1.035811e-02     8.279472e-04    -2.7091e-03      1.889 (TRAH MIcro)
 ---------------------------------
          TRAH Step control 
 ---------------------------------
  predicted energy change =    -1.035811336434e-02
  actual energy  change   =     2.011159979213e-02
  energy change ratio     = -1.941628
  old trust radius        = 1.997543
  new trust radius        = 1.338354
  reject step?            = YES
   39       -295.056247033387     9.481923e-03                     1.338 (TRAH MAcro)  Yes
   40       -295.056247033387     1.487782e-01                     1.338 (TRAH MAcro)   No
   40     dE    -2.010382e-02     1.340538e-02    -1.9541e-02      0.170 (TRAH MIcro)
   40     dE    -2.029795e-02     2.975623e-03    -1.9717e-02      0.172 (TRAH MIcro)
   41       -295.076350647313     3.888675e-03                     1.606 (TRAH MAcro)   No
   41     dE    -4.822443e-05     2.641603e-03    -4.8210e-05      0.018 (TRAH MIcro)
   41     dE    -7.434243e-05     2.244652e-03    -7.4253e-05      0.035 (TRAH MIcro)
   41     dE    -1.851378e-04     6.358006e-03    -1.8101e-04      0.151 (TRAH MIcro)
   41     dE    -7.122058e-04     1.520589e-02    -5.2701e-04      0.593 (TRAH MIcro)
   41     dE    -5.825633e-03     2.894671e-02    -1.7841e-03      1.606 (TRAH MIcro)
   41     dE    -7.409451e-03     1.253027e-02    -2.5324e-03      1.573 (TRAH MIcro)
   41     dE    -7.996080e-03     5.059708e-03    -2.6514e-03      1.606 (TRAH MIcro)
   41     dE    -8.169357e-03     8.213004e-03    -2.7213e-03      1.606 (TRAH MIcro)
   41     dE    -8.800383e-03     1.533972e-02    -2.9875e-03      1.606 (TRAH MIcro)
   41     dE    -9.301150e-03     6.025889e-03    -3.2072e-03      1.606 (TRAH MIcro)
   41     dE    -9.345012e-03     1.805448e-03    -3.2264e-03      1.606 (TRAH MIcro)
   41     dE    -9.357752e-03     1.988854e-03    -3.2320e-03      1.606 (TRAH MIcro)
   41     dE    -9.382954e-03     1.846867e-03    -3.2436e-03      1.606 (TRAH MIcro)
   41     dE    -9.389278e-03     8.301096e-04    -3.2465e-03      1.606 (TRAH MIcro)
   41     dE    -9.391456e-03     6.995719e-04    -3.2475e-03      1.606 (TRAH MIcro)
   41     dE    -9.393049e-03     5.041575e-04    -3.2482e-03      1.606 (TRAH MIcro)
   41     dE    -9.393660e-03     2.797845e-04    -3.2485e-03      1.606 (TRAH MIcro)
 ---------------------------------
          TRAH Step control 
 ---------------------------------
  predicted energy change =    -9.393660408687e-03
  actual energy  change   =     1.260044373117e-02
  energy change ratio     = -1.341377
  old trust radius        = 1.606025
  new trust radius        = 1.076037
  reject step?            = YES
   42       -295.063750203582     3.888675e-03                     1.076 (TRAH MAcro)  Yes
   43       -295.063750203582     1.165118e-01                     1.076 (TRAH MAcro)   No
   43     dE    -1.255861e-02     1.072449e-02    -1.2293e-02      0.147 (TRAH MIcro)
   43     dE    -1.269921e-02     2.567999e-03    -1.2420e-02      0.150 (TRAH MIcro)
   44       -295.076382435080     3.145596e-03                     1.291 (TRAH MAcro)   No
   44     dE    -5.601020e-05     3.696937e-03    -5.5972e-05      0.026 (TRAH MIcro)
   44     dE    -1.561104e-04     5.996764e-03    -1.5469e-04      0.096 (TRAH MIcro)
   44     dE    -1.239417e-03     1.445836e-02    -8.5098e-04      0.676 (TRAH MIcro)
   44     dE    -3.692950e-03     1.551944e-02    -1.4687e-03      1.231 (TRAH MIcro)
   44     dE    -4.745993e-03     9.666493e-03    -1.9488e-03      1.291 (TRAH MIcro)
   44     dE    -4.995962e-03     5.175688e-03    -2.1073e-03      1.291 (TRAH MIcro)
   44     dE    -5.027459e-03     1.569519e-03    -2.1270e-03      1.291 (TRAH MIcro)
   44     dE    -5.036988e-03     2.207614e-03    -2.1330e-03      1.291 (TRAH MIcro)
   44     dE    -5.120346e-03     6.584888e-03    -2.1950e-03      1.291 (TRAH MIcro)
   44     dE    -5.234044e-03     3.073218e-03    -2.2986e-03      1.291 (TRAH MIcro)
   44     dE    -5.249076e-03     1.316490e-03    -2.3133e-03      1.291 (TRAH MIcro)
   44     dE    -5.256799e-03     1.630561e-03    -2.3208e-03      1.291 (TRAH MIcro)
   44     dE    -5.266162e-03     1.040130e-03    -2.3304e-03      1.291 (TRAH MIcro)
   44     dE    -5.271246e-03     1.361963e-03    -2.3359e-03      1.291 (TRAH MIcro)
   44     dE    -5.281072e-03     1.916353e-03    -2.3467e-03      1.291 (TRAH MIcro)
   44     dE    -5.288547e-03     9.056304e-04    -2.3551e-03      1.291 (TRAH MIcro)
   44     dE    -5.290017e-03     5.122528e-04    -2.3568e-03      1.291 (TRAH MIcro)
   44     dE    -5.292186e-03     1.131097e-03    -2.3594e-03      1.291 (TRAH MIcro)
   44     dE    -5.295072e-03     5.975490e-04    -2.3630e-03      1.291 (TRAH MIcro)
   44     dE    -5.295731e-03     2.745153e-04    -2.3638e-03      1.291 (TRAH MIcro)
 ---------------------------------
          TRAH Step control 
 ---------------------------------
  predicted energy change =    -5.295730864665e-03
  actual energy  change   =     4.994928674762e-03
  energy change ratio     = -0.943199
  old trust radius        = 1.291244
  new trust radius        = 0.865133
  reject step?            = YES
   45       -295.071387506405     3.145596e-03                     0.865 (TRAH MAcro)  Yes
   46       -295.071387506405     7.541034e-02                     0.865 (TRAH MAcro)   No
   46     dE    -5.190449e-03     7.744762e-03    -5.1426e-03      0.096 (TRAH MIcro)
   46     dE    -5.284477e-03     1.855436e-03    -5.2326e-03      0.100 (TRAH MIcro)
   47       -295.076681178840     2.184350e-03                     1.038 (TRAH MAcro)   No
   47     dE    -4.905401e-05     4.014071e-03    -4.9005e-05      0.031 (TRAH MIcro)
   47     dE    -1.761376e-04     5.252021e-03    -1.7311e-04      0.132 (TRAH MIcro)
   47     dE    -5.051616e-04     7.232867e-03    -4.4190e-04      0.378 (TRAH MIcro)
   47     dE    -9.040093e-04     8.322507e-03    -6.6449e-04      0.600 (TRAH MIcro)
   47     dE    -1.595328e-03     6.112412e-03    -9.1355e-04      0.864 (TRAH MIcro)
   47     dE    -1.707544e-03     2.112446e-03    -9.4487e-04      0.898 (TRAH MIcro)
   47     dE    -1.728357e-03     1.467669e-03    -9.5051e-04      0.905 (TRAH MIcro)
   47     dE    -1.776123e-03     4.366278e-03    -9.6279e-04      0.919 (TRAH MIcro)
   47     dE    -2.152409e-03     6.052384e-03    -1.0485e-03      1.038 (TRAH MIcro)
   47     dE    -2.240666e-03     3.104731e-03    -1.1765e-03      1.038 (TRAH MIcro)
   47     dE    -2.254446e-03     1.299913e-03    -1.1963e-03      1.038 (TRAH MIcro)
   47     dE    -2.254390e-03     1.495215e-03    -1.2077e-03      1.036 (TRAH MIcro)
   47     dE    -2.265053e-03     4.990875e-04    -1.2122e-03      1.038 (TRAH MIcro)
   47     dE    -2.266488e-03     8.463125e-04    -1.2146e-03      1.038 (TRAH MIcro)
   47     dE    -2.270686e-03     1.418264e-03    -1.2214e-03      1.038 (TRAH MIcro)
   47     dE    -2.273646e-03     4.121143e-04    -1.2261e-03      1.038 (TRAH MIcro)
   47     dE    -2.274124e-03     3.175892e-04    -1.2270e-03      1.038 (TRAH MIcro)
   47     dE    -2.275682e-03     1.023964e-03    -1.2300e-03      1.038 (TRAH MIcro)
   47     dE    -2.276994e-03     3.806717e-04    -1.2324e-03      1.038 (TRAH MIcro)
   47     dE    -2.277243e-03     1.846000e-04    -1.2328e-03      1.038 (TRAH MIcro)
 ---------------------------------
          TRAH Step control 
 ---------------------------------
  predicted energy change =    -2.277242530635e-03
  actual energy  change   =     2.374270116263e-03
  energy change ratio     = -1.042607
  old trust radius        = 1.038160
  new trust radius        = 0.695567
  reject step?            = YES
   48       -295.074306908723     2.184350e-03                     0.696 (TRAH MAcro)  Yes
   49       -295.074306908723     5.378225e-02                     0.696 (TRAH MAcro)   No
   49     dE    -2.652898e-03     5.037089e-03    -2.6405e-03      0.069 (TRAH MIcro)
   50       -295.076964553225     5.047358e-03                     0.835 (TRAH MAcro)   No
   50     dE    -4.508514e-05     1.903039e-03    -4.5078e-05      0.013 (TRAH MIcro)
   50     dE    -9.685604e-05     4.389262e-03    -9.6570e-05      0.054 (TRAH MIcro)
   50     dE    -2.377395e-04     5.990008e-03    -2.2931e-04      0.192 (TRAH MIcro)
   50     dE    -3.948978e-04     4.177612e-03    -3.5578e-04      0.332 (TRAH MIcro)
   50     dE    -4.871180e-04     3.678486e-03    -4.1799e-04      0.407 (TRAH MIcro)
   50     dE    -5.306300e-04     2.005653e-03    -4.4450e-04      0.440 (TRAH MIcro)
   50     dE    -5.391329e-04     7.407534e-04    -4.4953e-04      0.446 (TRAH MIcro)
   50     dE    -5.404496e-04     3.509987e-04    -4.5032e-04      0.447 (TRAH MIcro)
   51       -295.077286436114     1.063272e-02                     0.835 (TRAH MAcro)   No
   51     dE    -1.055273e-04     1.264475e-03    -1.0551e-04      0.014 (TRAH MIcro)
   51     dE    -1.082669e-04     5.015202e-04    -1.0824e-04      0.015 (TRAH MIcro)
   52       -295.077394827839     5.055059e-04                     1.002 (TRAH MAcro)   No
   52     dE    -1.641570e-06     8.141241e-04    -1.6415e-06      0.005 (TRAH MIcro)
   52     dE    -8.774824e-06     1.305959e-03    -8.7648e-06      0.034 (TRAH MIcro)
   52     dE    -1.501822e-05     1.028635e-03    -1.4960e-05      0.062 (TRAH MIcro)
   52     dE    -2.044490e-05     1.189389e-03    -2.0287e-05      0.088 (TRAH MIcro)
   52     dE    -2.493730e-05     5.293656e-04    -2.4638e-05      0.110 (TRAH MIcro)
   52     dE    -2.605748e-05     4.890513e-04    -2.5712e-05      0.116 (TRAH MIcro)
   52     dE    -2.796054e-05     9.592506e-04    -2.7522e-05      0.126 (TRAH MIcro)
   52     dE    -4.978632e-05     4.203035e-03    -4.6441e-05      0.268 (TRAH MIcro)
   52     dE    -1.029401e-04     1.545841e-03    -7.8882e-05      0.552 (TRAH MIcro)
   52     dE    -1.092914e-04     6.551465e-04    -8.1845e-05      0.579 (TRAH MIcro)
   52     dE    -1.113371e-04     5.795972e-04    -8.2768e-05      0.588 (TRAH MIcro)
   52     dE    -1.189808e-04     1.497033e-03    -8.6080e-05      0.618 (TRAH MIcro)
   52     dE    -1.407146e-04     1.575960e-03    -9.4420e-05      0.700 (TRAH MIcro)
   52     dE    -1.764273e-04     3.291693e-03    -1.0554e-04      0.820 (TRAH MIcro)
   52     dE    -2.662165e-04     4.317200e-03    -1.4883e-04      1.002 (TRAH MIcro)
   52     dE    -3.249329e-04     4.217689e-03    -2.2904e-04      0.983 (TRAH MIcro)
   52     dE    -4.895469e-04     1.120225e-02    -4.0775e-04      1.002 (TRAH MIcro)
   52     dE    -6.748252e-04     5.437892e-03    -6.1227e-04      1.002 (TRAH MIcro)
   52     dE    -7.012419e-04     1.421963e-03    -6.4080e-04      1.002 (TRAH MIcro)
   52     dE    -7.057942e-04     1.019983e-03    -6.4570e-04      1.002 (TRAH MIcro)
   52     dE    -7.181282e-04     3.753639e-03    -6.5897e-04      1.002 (TRAH MIcro)
   52     dE    -1.149978e-04     8.110405e-04    -7.7552e-04      0.327 (TRAH MIcro)
   52     dE    -1.337812e-04     6.119539e-04    -7.8635e-04      0.358 (TRAH MIcro)
   53       -295.077397727414     7.363154e-03                     0.671 (TRAH MAcro)   No
   53     dE    -4.684719e-05     5.169568e-04    -4.6845e-05      0.007 (TRAH MIcro)
   54       -295.077444592725     5.142923e-04                     0.805 (TRAH MAcro)   No
   54     dE    -8.495766e-07     4.757653e-04    -8.4957e-07      0.003 (TRAH MIcro)
   54     dE    -3.464223e-06     1.139402e-03    -3.4633e-06      0.016 (TRAH MIcro)
   54     dE    -1.047991e-05     1.295844e-03    -1.0445e-05      0.058 (TRAH MIcro)
   54     dE    -2.104633e-05     2.041684e-03    -2.0734e-05      0.123 (TRAH MIcro)
   54     dE    -6.522876e-05     3.840814e-03    -5.7653e-05      0.362 (TRAH MIcro)
   54     dE    -1.024689e-04     1.713533e-03    -8.0955e-05      0.516 (TRAH MIcro)
   54     dE    -1.151805e-04     1.467252e-03    -8.7682e-05      0.560 (TRAH MIcro)
   54     dE    -1.907101e-04     5.703050e-03    -1.1920e-04      0.775 (TRAH MIcro)
   54     dE    -3.456320e-04     5.970927e-03    -3.5664e-04      0.805 (TRAH MIcro)
   54     dE    -4.123207e-04     2.052187e-03    -4.6847e-04      0.805 (TRAH MIcro)
   54     dE    -4.210103e-04     1.160348e-03    -4.8311e-04      0.805 (TRAH MIcro)
   54     dE    -4.319592e-04     2.538420e-03    -5.0164e-04      0.805 (TRAH MIcro)
   54     dE    -4.617424e-04     2.320374e-03    -5.5280e-04      0.805 (TRAH MIcro)
   54     dE    -4.786960e-04     2.083074e-03    -5.8239e-04      0.805 (TRAH MIcro)
   54     dE    -3.305955e-04     1.732130e-03    -6.6531e-04      0.618 (TRAH MIcro)
   54     dE    -3.473805e-04     6.691799e-04    -6.7321e-04      0.633 (TRAH MIcro)
   54     dE    -3.535414e-04     7.095099e-04    -6.7596e-04      0.639 (TRAH MIcro)
   54     dE    -3.800520e-04     2.732538e-03    -6.8686e-04      0.662 (TRAH MIcro)
   54     dE    -4.787018e-04     2.877032e-03    -7.1762e-04      0.743 (TRAH MIcro)
   54     dE    -5.350550e-04     1.119040e-03    -7.3093e-04      0.786 (TRAH MIcro)
   54     dE    -5.469425e-04     5.746970e-04    -7.3346e-04      0.794 (TRAH MIcro)
   54     dE    -5.521540e-04     4.848947e-04    -7.3454e-04      0.798 (TRAH MIcro)
   54     dE    -5.538664e-04     1.443659e-04    -7.3489e-04      0.799 (TRAH MIcro)
 ---------------------------------
          TRAH Step control 
 ---------------------------------
  predicted energy change =    -5.538663566966e-04
  actual energy  change   =     1.215917826300e-03
  energy change ratio     = -2.195327
  old trust radius        = 0.805300
  new trust radius        = 0.539551
  reject step?            = YES
   55       -295.076228674899     5.142923e-04                     0.540 (TRAH MAcro)  Yes
   56       -295.076228674899     3.967298e-02                     0.540 (TRAH MAcro)   No
   56     dE    -1.321490e-03     1.651876e-03    -1.3195e-03      0.039 (TRAH MIcro)
   57       -295.077551235316     1.680048e-03                     0.647 (TRAH MAcro)   No
   57     dE    -2.354307e-06     3.458626e-04    -2.3543e-06      0.002 (TRAH MIcro)
   57     dE    -2.758358e-06     3.585019e-04    -2.7583e-06      0.003 (TRAH MIcro)
   57     dE    -5.274673e-06     1.414810e-03    -5.2716e-06      0.024 (TRAH MIcro)
   57     dE    -9.390299e-06     6.401507e-04    -9.3569e-06      0.060 (TRAH MIcro)
   57     dE    -1.045170e-05     4.899336e-04    -1.0402e-05      0.069 (TRAH MIcro)
   57     dE    -1.234774e-05     8.405429e-04    -1.2256e-05      0.086 (TRAH MIcro)
   57     dE    -1.515510e-05     8.575544e-04    -1.4963e-05      0.113 (TRAH MIcro)
   57     dE    -1.834769e-05     7.831513e-04    -1.7970e-05      0.145 (TRAH MIcro)
   57     dE    -2.102544e-05     7.568353e-04    -2.0423e-05      0.172 (TRAH MIcro)
   57     dE    -2.294222e-05     4.493721e-04    -2.2136e-05      0.191 (TRAH MIcro)
   57     dE    -2.335514e-05     2.451730e-04    -2.2499e-05      0.195 (TRAH MIcro)
   57     dE    -2.369680e-05     3.942210e-04    -2.2799e-05      0.198 (TRAH MIcro)
   57     dE    -2.735949e-05     1.935570e-03    -2.5891e-05      0.238 (TRAH MIcro)
   57     dE    -3.229966e-05     7.417001e-04    -2.9719e-05      0.295 (TRAH MIcro)
   57     dE    -3.314037e-05     6.065666e-04    -3.0332e-05      0.304 (TRAH MIcro)
   57     dE    -3.517031e-05     7.904285e-04    -3.1765e-05      0.327 (TRAH MIcro)
   57     dE    -3.906475e-05     1.300193e-03    -3.4335e-05      0.371 (TRAH MIcro)
   57     dE    -5.340194e-05     2.581365e-03    -4.2142e-05      0.517 (TRAH MIcro)
   57     dE    -8.741284e-05     2.188313e-03    -1.0078e-04      0.647 (TRAH MIcro)
   57     dE    -9.658712e-05     1.242765e-03    -1.2660e-04      0.647 (TRAH MIcro)
   57     dE    -9.971317e-05     8.681018e-04    -1.3538e-04      0.647 (TRAH MIcro)
   57     dE    -1.148408e-04     3.298456e-03    -1.7789e-04      0.647 (TRAH MIcro)
   57     dE    -1.125741e-04     1.322102e-03    -2.7327e-04      0.545 (TRAH MIcro)
 ---------------------------------
          TRAH Step control 
 ---------------------------------
  predicted energy change =    -1.125741209536e-04
  actual energy  change   =     1.099878928130e-04
  energy change ratio     = -0.977026
  old trust radius        = 0.647461
  new trust radius        = 0.433799
  reject step?            = YES
   58       -295.077441247423     1.680048e-03                     0.434 (TRAH MAcro)  Yes
   59       -295.077441247423     1.443825e-02                     0.434 (TRAH MAcro)   No
   59     dE    -1.756831e-04     8.522524e-04    -1.7565e-04      0.013 (TRAH MIcro)
   60       -295.077617073242     8.508495e-04                     0.434 (TRAH MAcro)   No
   60     dE    -1.020246e-06     3.028057e-04    -1.0202e-06      0.002 (TRAH MIcro)
   60     dE    -1.617794e-06     4.835963e-04    -1.6178e-06      0.004 (TRAH MIcro)
   60     dE    -2.713876e-06     5.167061e-04    -2.7134e-06      0.013 (TRAH MIcro)
   60     dE    -3.987733e-06     6.610682e-04    -3.9854e-06      0.024 (TRAH MIcro)
   60     dE    -1.318086e-05     2.987443e-03    -1.3010e-05      0.115 (TRAH MIcro)
   60     dE    -9.115347e-05     3.058556e-03    -2.5298e-04      0.434 (TRAH MIcro)
   60     dE    -1.030901e-04     1.290109e-03    -3.6005e-04      0.414 (TRAH MIcro)
   60     dE    -1.139188e-04     1.166503e-03    -3.7606e-04      0.434 (TRAH MIcro)
   60     dE    -1.244533e-04     2.456216e-03    -4.3378e-04      0.434 (TRAH MIcro)
   60     dE    -1.437480e-04     1.361685e-03    -5.4208e-04      0.434 (TRAH MIcro)
   60     dE    -1.474772e-04     8.588548e-04    -5.6335e-04      0.434 (TRAH MIcro)
   60     dE    -1.514650e-04     1.390667e-03    -5.8636e-04      0.434 (TRAH MIcro)
   60     dE    -1.076548e-04     1.464382e-03    -7.2732e-04      0.326 (TRAH MIcro)
   60     dE    -1.249164e-04     1.057598e-03    -7.5733e-04      0.351 (TRAH MIcro)
   60     dE    -1.481446e-04     1.480303e-03    -7.8973e-04      0.382 (TRAH MIcro)
   60     dE    -1.609502e-04     5.802127e-04    -8.0467e-04      0.398 (TRAH MIcro)
   60     dE    -1.646063e-04     4.242205e-04    -8.0861e-04      0.402 (TRAH MIcro)
   60     dE    -1.713037e-04     1.291542e-03    -8.1561e-04      0.410 (TRAH MIcro)
   60     dE    -1.916729e-04     1.134459e-03    -8.3418e-04      0.434 (TRAH MIcro)
   60     dE    -1.935419e-04     4.858256e-04    -8.4668e-04      0.434 (TRAH MIcro)
   60     dE    -1.938766e-04     3.151086e-04    -8.4896e-04      0.434 (TRAH MIcro)
   60     dE    -1.942418e-04     4.163780e-04    -8.5142e-04      0.434 (TRAH MIcro)
   60     dE    -1.946989e-04     3.646617e-04    -8.5451e-04      0.434 (TRAH MIcro)
 ---------------------------------
          TRAH Step control 
 ---------------------------------
  predicted energy change =    -1.946988735340e-04
  actual energy  change   =     7.168672681246e-05
  energy change ratio     = -0.368193
  old trust radius        = 0.433799
  new trust radius        = 0.290645
  reject step?            = YES
   61       -295.077545386515     8.508495e-04                     0.291 (TRAH MAcro)  Yes
   62       -295.077545386515     1.167919e-02                     0.291 (TRAH MAcro)   No
   62     dE    -1.150370e-04     5.660981e-04    -1.1502e-04      0.010 (TRAH MIcro)
   63       -295.077660508072     5.656246e-04                     0.349 (TRAH MAcro)   No
   63     dE    -4.290302e-07     2.147452e-04    -4.2903e-07      0.001 (TRAH MIcro)
   63     dE    -7.049014e-07     3.606076e-04    -7.0489e-07      0.003 (TRAH MIcro)
   63     dE    -1.456347e-06     4.209212e-04    -1.4561e-06      0.012 (TRAH MIcro)
   63     dE    -2.255405e-06     5.455493e-04    -2.2543e-06      0.022 (TRAH MIcro)
   63     dE    -5.560394e-06     1.323736e-03    -5.5345e-06      0.068 (TRAH MIcro)
   63     dE    -8.565982e-06     4.596868e-04    -8.4627e-06      0.110 (TRAH MIcro)
   63     dE    -9.054033e-06     2.806195e-04    -8.9313e-06      0.117 (TRAH MIcro)
   63     dE    -1.004746e-05     7.740128e-04    -9.8775e-06      0.131 (TRAH MIcro)
   63     dE    -1.365614e-05     1.072391e-03    -1.3211e-05      0.184 (TRAH MIcro)
   63     dE    -1.840292e-05     8.210603e-04    -1.7307e-05      0.252 (TRAH MIcro)
   63     dE    -2.031210e-05     5.381908e-04    -1.8855e-05      0.278 (TRAH MIcro)
   63     dE    -2.134471e-05     4.803652e-04    -1.9668e-05      0.292 (TRAH MIcro)
   63     dE    -2.219373e-05     3.849344e-04    -2.0323e-05      0.303 (TRAH MIcro)
   63     dE    -2.303492e-05     6.749264e-04    -2.0960e-05      0.315 (TRAH MIcro)
   63     dE    -3.203146e-05     2.972853e-03    -8.5176e-05      0.349 (TRAH MIcro)
   63     dE    -3.862012e-05     7.801534e-04    -1.6826e-04      0.339 (TRAH MIcro)
   63     dE    -4.081497e-05     4.222386e-04    -1.7473e-04      0.349 (TRAH MIcro)
   63     dE    -4.220513e-05     1.453152e-03    -1.8910e-04      0.349 (TRAH MIcro)
   63     dE    -4.555324e-05     7.036017e-04    -2.2405e-04      0.349 (TRAH MIcro)
   63     dE    -4.728258e-05     8.897168e-04    -2.4226e-04      0.349 (TRAH MIcro)
   63     dE    -3.161066e-05     4.242253e-04    -3.1348e-04      0.243 (TRAH MIcro)
   63     dE    -3.676058e-05     5.324379e-04    -3.2456e-04      0.268 (TRAH MIcro)
   63     dE    -4.160779e-05     6.301069e-04    -3.3315e-04      0.289 (TRAH MIcro)
   64       -295.077673203016     3.098830e-03                     0.349 (TRAH MAcro)   No
   64     dE    -8.771787e-06     4.185663e-04    -8.7717e-06      0.003 (TRAH MIcro)
   64     dE    -9.447523e-06     4.428579e-04    -9.4473e-06      0.005 (TRAH MIcro)
   64     dE    -1.099255e-05     5.317515e-04    -1.0991e-05      0.013 (TRAH MIcro)
   64     dE    -1.192936e-05     4.807727e-04    -1.1925e-05      0.019 (TRAH MIcro)
   64     dE    -1.353042e-05     7.409662e-04    -1.3516e-05      0.033 (TRAH MIcro)
   64     dE    -1.558057e-05     5.262186e-04    -1.5540e-05      0.051 (TRAH MIcro)
   64     dE    -1.627891e-05     3.342557e-04    -1.6225e-05      0.058 (TRAH MIcro)
   64     dE    -1.732555e-05     7.145452e-04    -1.7246e-05      0.068 (TRAH MIcro)
   64     dE    -2.169497e-05     1.176316e-03    -2.1409e-05      0.116 (TRAH MIcro)
   64     dE    -2.711550e-05     7.415060e-04    -2.6301e-05      0.176 (TRAH MIcro)
   64     dE    -2.854238e-05     4.298391e-04    -2.7532e-05      0.192 (TRAH MIcro)
   64     dE    -3.063899e-05     1.004666e-03    -2.9293e-05      0.214 (TRAH MIcro)
   64     dE    -4.559139e-05     2.275008e-03    -5.5352e-05      0.349 (TRAH MIcro)
   64     dE    -6.258289e-05     1.816096e-03    -2.1459e-04      0.349 (TRAH MIcro)
   64     dE    -7.562538e-05     1.606125e-03    -3.3809e-04      0.349 (TRAH MIcro)
   64     dE    -8.288056e-05     7.822883e-04    -4.0691e-04      0.349 (TRAH MIcro)
   64     dE    -8.462302e-05     7.143755e-04    -4.2346e-04      0.349 (TRAH MIcro)
   64     dE    -5.024594e-05     1.071541e-03    -5.8627e-04      0.210 (TRAH MIcro)
   64     dE    -7.601632e-05     1.299294e-03    -6.3831e-04      0.278 (TRAH MIcro)
   64     dE    -8.207589e-05     3.612599e-04    -6.4728e-04      0.292 (TRAH MIcro)
   64     dE    -8.355728e-05     3.789331e-04    -6.4932e-04      0.295 (TRAH MIcro)
   64     dE    -8.725806e-05     4.641270e-04    -6.5426e-04      0.303 (TRAH MIcro)
   64     dE    -9.249801e-05     6.186769e-04    -6.6085e-04      0.314 (TRAH MIcro)
   65       -295.077689997335     5.205452e-03                     0.234 (TRAH MAcro)   No
   65     dE    -2.312426e-05     3.814694e-04    -2.3124e-05      0.005 (TRAH MIcro)
   66       -295.077713122835     3.799202e-04                     0.280 (TRAH MAcro)   No
   66     dE    -3.903139e-07     3.063014e-04    -3.9031e-07      0.002 (TRAH MIcro)
   66     dE    -9.381083e-07     4.096822e-04    -9.3808e-07      0.005 (TRAH MIcro)
   66     dE    -1.391184e-06     3.207288e-04    -1.3911e-06      0.010 (TRAH MIcro)
   66     dE    -2.459376e-06     7.834765e-04    -2.4581e-06      0.023 (TRAH MIcro)
   66     dE    -8.999173e-06     1.481501e-03    -8.8957e-06      0.108 (TRAH MIcro)
   66     dE    -1.244934e-05     5.135452e-04    -1.2169e-05      0.152 (TRAH MIcro)
   66     dE    -1.296360e-05     2.668821e-04    -1.2647e-05      0.158 (TRAH MIcro)
   66     dE    -1.357034e-05     5.180725e-04    -1.3207e-05      0.166 (TRAH MIcro)
   66     dE    -1.538745e-05     8.030443e-04    -1.4855e-05      0.189 (TRAH MIcro)
   66     dE    -1.957925e-05     1.021890e-03    -1.8472e-05      0.245 (TRAH MIcro)
   66     dE    -2.532847e-05     1.143849e-03    -6.5555e-05      0.280 (TRAH MIcro)
   66     dE    -2.844976e-05     7.043154e-04    -1.1234e-04      0.280 (TRAH MIcro)
   66     dE    -2.947611e-05     4.076888e-04    -1.2785e-04      0.280 (TRAH MIcro)
   66     dE    -2.907649e-05     6.279584e-04    -1.5793e-04      0.263 (TRAH MIcro)
   66     dE    -3.355243e-05     8.074717e-04    -1.9096e-04      0.280 (TRAH MIcro)
   66     dE    -3.392018e-05     1.739542e-04    -1.9679e-04      0.280 (TRAH MIcro)
   66     dE    -3.405490e-05     3.118546e-04    -1.9894e-04      0.280 (TRAH MIcro)
   66     dE    -3.462988e-05     5.880609e-04    -2.0820e-04      0.280 (TRAH MIcro)
   66     dE    -3.513443e-05     2.911868e-04    -2.1655e-04      0.280 (TRAH MIcro)
   66     dE    -3.543632e-05     3.667220e-04    -2.2167e-04      0.280 (TRAH MIcro)
   66     dE    -3.571329e-05     2.297604e-04    -2.2644e-04      0.280 (TRAH MIcro)
   66     dE    -3.585420e-05     1.748901e-04    -2.2888e-04      0.280 (TRAH MIcro)
   66     dE    -3.598502e-05     3.072394e-04    -2.3119e-04      0.280 (TRAH MIcro)
   67       -295.077732695667     2.977108e-03                     0.280 (TRAH MAcro)   No
   67     dE    -7.588222e-06     2.108701e-04    -7.5882e-06      0.003 (TRAH MIcro)
   68       -295.077740286056     2.113058e-04                     0.336 (TRAH MAcro)   No
   68     dE    -1.551079e-07     2.031628e-04    -1.5511e-07      0.001 (TRAH MIcro)
   68     dE    -8.037510e-07     5.905548e-04    -8.0368e-07      0.009 (TRAH MIcro)
   68     dE    -2.054832e-06     4.696484e-04    -2.0534e-06      0.027 (TRAH MIcro)
   68     dE    -2.812464e-06     4.313679e-04    -2.8084e-06      0.038 (TRAH MIcro)
   68     dE    -3.806636e-06     4.746746e-04    -3.7961e-06      0.053 (TRAH MIcro)
   68     dE    -4.259418e-06     2.219072e-04    -4.2443e-06      0.060 (TRAH MIcro)
   68     dE    -4.524114e-06     3.016722e-04    -4.5057e-06      0.064 (TRAH MIcro)
   68     dE    -5.851337e-06     8.690006e-04    -5.8079e-06      0.086 (TRAH MIcro)
   68     dE    -1.029121e-05     1.292667e-03    -1.0007e-05      0.169 (TRAH MIcro)
   68     dE    -1.505898e-05     6.718048e-04    -1.4148e-05      0.254 (TRAH MIcro)
   68     dE    -1.944554e-05     1.537819e-03    -1.7582e-05      0.326 (TRAH MIcro)
   68     dE    -2.843568e-05     1.785865e-03    -1.3671e-04      0.305 (TRAH MIcro)
   68     dE    -3.927170e-05     9.532468e-04    -2.0157e-04      0.336 (TRAH MIcro)
   68     dE    -4.162649e-05     6.897411e-04    -2.2438e-04      0.336 (TRAH MIcro)
   68     dE    -4.373651e-05     6.599901e-04    -2.4620e-04      0.336 (TRAH MIcro)
   68     dE    -3.144404e-05     3.533666e-04    -2.9579e-04      0.254 (TRAH MIcro)
   68     dE    -3.341158e-05     6.933643e-04    -3.0208e-04      0.263 (TRAH MIcro)
   68     dE    -4.145050e-05     1.167061e-03    -3.2374e-04      0.294 (TRAH MIcro)
   68     dE    -4.412441e-05     1.913777e-04    -3.2981e-04      0.304 (TRAH MIcro)
   68     dE    -4.439775e-05     1.427282e-04    -3.3040e-04      0.305 (TRAH MIcro)
   68     dE    -4.484068e-05     3.019050e-04    -3.3135e-04      0.306 (TRAH MIcro)
   68     dE    -4.617218e-05     3.291308e-04    -3.3408e-04      0.311 (TRAH MIcro)
   68     dE    -4.784985e-05     4.338046e-04    -3.3726e-04      0.317 (TRAH MIcro)
   69       -295.077756469657     3.031652e-03                     0.336 (TRAH MAcro)   No
   69     dE    -8.068545e-06     2.935058e-04    -8.0685e-06      0.003 (TRAH MIcro)
   70       -295.077764540092     2.938599e-04                     0.404 (TRAH MAcro)   No
   70     dE    -2.402053e-07     2.228421e-04    -2.4021e-07      0.001 (TRAH MIcro)
   70     dE    -7.185193e-07     3.272574e-04    -7.1850e-07      0.005 (TRAH MIcro)
   70     dE    -1.070794e-06     2.949643e-04    -1.0707e-06      0.009 (TRAH MIcro)
   70     dE    -1.903307e-06     6.375307e-04    -1.9024e-06      0.021 (TRAH MIcro)
   70     dE    -4.525247e-06     6.644403e-04    -4.5084e-06      0.061 (TRAH MIcro)
   70     dE    -5.321563e-06     2.659831e-04    -5.2931e-06      0.073 (TRAH MIcro)
   70     dE    -5.528144e-06     2.157501e-04    -5.4960e-06      0.077 (TRAH MIcro)
   70     dE    -6.037618e-06     5.341878e-04    -5.9947e-06      0.085 (TRAH MIcro)
   70     dE    -9.905476e-06     1.696584e-03    -9.6756e-06      0.154 (TRAH MIcro)
   70     dE    -4.983826e-05     2.441474e-03    -1.8432e-04      0.404 (TRAH MIcro)
   70     dE    -5.036679e-05     1.747476e-03    -3.5393e-04      0.317 (TRAH MIcro)
   70     dE    -8.234712e-05     1.255321e-03    -4.1317e-04      0.397 (TRAH MIcro)
   70     dE    -8.810228e-05     8.487437e-04    -4.3474e-04      0.404 (TRAH MIcro)
   70     dE    -9.403107e-05     1.648256e-03    -4.7360e-04      0.404 (TRAH MIcro)
   70     dE    -1.033049e-04     9.769989e-04    -5.3473e-04      0.404 (TRAH MIcro)
   70     dE    -1.014441e-04     4.358025e-04    -5.4470e-04      0.397 (TRAH MIcro)
   70     dE    -1.067424e-04     1.483976e-03    -5.5752e-04      0.404 (TRAH MIcro)
   70     dE    -4.551645e-05     1.430898e-03    -7.0251e-04      0.228 (TRAH MIcro)
   70     dE    -6.885891e-05     1.124190e-03    -7.5570e-04      0.280 (TRAH MIcro)
   70     dE    -8.373948e-05     9.567703e-04    -7.7933e-04      0.307 (TRAH MIcro)
   70     dE    -9.871739e-05     7.142004e-04    -7.9869e-04      0.333 (TRAH MIcro)
   70     dE    -1.077702e-04     6.296854e-04    -8.0894e-04      0.347 (TRAH MIcro)
   70     dE    -1.210503e-04     1.176673e-03    -8.2233e-04      0.366 (TRAH MIcro)
 ---------------------------------
          TRAH Step control 
 ---------------------------------
  predicted energy change =    -1.210502931090e-04
  actual energy  change   =     2.262351938498e-05
  energy change ratio     = -0.186894
  old trust radius        = 0.403797
  new trust radius        = 0.270544
  reject step?            = YES
   71       -295.077741916572     2.938599e-04                     0.271 (TRAH MAcro)  Yes
   72       -295.077741916572     6.389315e-03                     0.271 (TRAH MAcro)   No
   72     dE    -3.478932e-05     5.297052e-04    -3.4788e-05      0.006 (TRAH MIcro)
   73       -295.077776714169     5.275578e-04                     0.325 (TRAH MAcro)   No
   73     dE    -4.793581e-07     2.635179e-04    -4.7936e-07      0.001 (TRAH MIcro)
   73     dE    -9.282519e-07     3.516503e-04    -9.2824e-07      0.004 (TRAH MIcro)
   73     dE    -1.196239e-06     2.046497e-04    -1.1962e-06      0.006 (TRAH MIcro)
   73     dE    -1.446605e-06     3.254055e-04    -1.4465e-06      0.009 (TRAH MIcro)
   73     dE    -2.528987e-06     7.186177e-04    -2.5272e-06      0.027 (TRAH MIcro)
   73     dE    -3.656860e-06     3.786229e-04    -3.6491e-06      0.046 (TRAH MIcro)
   73     dE    -4.000043e-06     2.323708e-04    -3.9892e-06      0.052 (TRAH MIcro)
   73     dE    -4.296416e-06     3.469614e-04    -4.2823e-06      0.057 (TRAH MIcro)
   73     dE    -5.220798e-06     6.700394e-04    -5.1918e-06      0.075 (TRAH MIcro)
   73     dE    -6.215780e-06     2.566749e-04    -6.1607e-06      0.095 (TRAH MIcro)
   73     dE    -6.387477e-06     2.021653e-04    -6.3266e-06      0.098 (TRAH MIcro)
   73     dE    -6.626313e-06     3.010992e-04    -6.5567e-06      0.103 (TRAH MIcro)
   73     dE    -6.917557e-06     2.675475e-04    -6.8361e-06      0.109 (TRAH MIcro)
   73     dE    -7.402698e-06     4.723794e-04    -7.2978e-06      0.120 (TRAH MIcro)
   73     dE    -9.511129e-06     8.474391e-04    -9.2431e-06      0.170 (TRAH MIcro)
   73     dE    -1.018886e-05     2.522824e-04    -9.8450e-06      0.187 (TRAH MIcro)
   73     dE    -1.050986e-05     4.190605e-04    -1.0126e-05      0.195 (TRAH MIcro)
   73     dE    -1.198383e-05     1.223764e-03    -1.1377e-05      0.231 (TRAH MIcro)
   73     dE    -1.619342e-05     9.270802e-04    -1.7251e-05      0.325 (TRAH MIcro)
   73     dE    -1.749589e-05     4.528067e-04    -3.1848e-05      0.325 (TRAH MIcro)
   73     dE    -1.795200e-05     3.273823e-04    -3.6970e-05      0.325 (TRAH MIcro)
   73     dE    -1.817547e-05     2.060636e-04    -3.9487e-05      0.325 (TRAH MIcro)
   73     dE    -1.824806e-05     1.198867e-04    -4.0310e-05      0.325 (TRAH MIcro)
 ---------------------------------
          TRAH Step control 
 ---------------------------------
  predicted energy change =    -1.824806001759e-05
  actual energy  change   =     1.826211359912e-07
  energy change ratio     = -0.010008
  old trust radius        = 0.324653
  new trust radius        = 0.217517
  reject step?            = YES
   74       -295.077776531548     5.275578e-04                     0.218 (TRAH MAcro)  Yes
   75       -295.077776531548     3.608217e-03                     0.218 (TRAH MAcro)   No
   75     dE    -1.123010e-05     2.390721e-04    -1.1230e-05      0.003 (TRAH MIcro)
   76       -295.077787763502     2.380138e-04                     0.261 (TRAH MAcro)   No
   76     dE    -2.742230e-07     3.253711e-04    -2.7422e-07      0.002 (TRAH MIcro)
   76     dE    -1.707946e-06     9.523123e-04    -1.7075e-06      0.017 (TRAH MIcro)
   76     dE    -5.227120e-06     7.028986e-04    -5.2117e-06      0.054 (TRAH MIcro)
   76     dE    -6.713306e-06     4.925565e-04    -6.6799e-06      0.071 (TRAH MIcro)
   76     dE    -7.930070e-06     5.033230e-04    -7.8741e-06      0.084 (TRAH MIcro)
   76     dE    -8.477950e-06     2.798895e-04    -8.4091e-06      0.091 (TRAH MIcro)
   76     dE    -8.831555e-06     3.599659e-04    -8.7532e-06      0.095 (TRAH MIcro)
   76     dE    -1.076131e-05     1.156996e-03    -1.0611e-05      0.119 (TRAH MIcro)
   76     dE    -1.703030e-05     1.294080e-03    -1.6336e-05      0.206 (TRAH MIcro)
   76     dE    -2.187654e-05     7.180235e-04    -3.3771e-05      0.261 (TRAH MIcro)
   76     dE    -2.400342e-05     8.761676e-04    -6.9821e-05      0.261 (TRAH MIcro)
   76     dE    -3.083672e-05     1.883947e-03    -1.8708e-04      0.261 (TRAH MIcro)
   76     dE    -3.781132e-05     1.013926e-03    -3.7086e-04      0.246 (TRAH MIcro)
   76     dE    -4.329351e-05     7.023903e-04    -4.0457e-04      0.261 (TRAH MIcro)
   76     dE    -4.541166e-05     6.814080e-04    -4.4174e-04      0.261 (TRAH MIcro)
   76     dE    -4.606310e-05     3.372866e-04    -4.5321e-04      0.261 (TRAH MIcro)
   76     dE    -4.649859e-05     4.585001e-04    -4.6089e-04      0.261 (TRAH MIcro)
   76     dE    -4.958320e-05     2.067213e-03    -5.1651e-04      0.261 (TRAH MIcro)
   76     dE    -2.438485e-05     2.304363e-04    -6.9829e-04      0.148 (TRAH MIcro)
   76     dE    -2.529167e-05     2.530591e-04    -7.0289e-04      0.152 (TRAH MIcro)
   76     dE    -2.865385e-05     6.788095e-04    -7.1764e-04      0.164 (TRAH MIcro)
   76     dE    -4.117339e-05     5.827387e-04    -7.5485e-04      0.204 (TRAH MIcro)
   76     dE    -4.635657e-05     3.085241e-04    -7.6609e-04      0.218 (TRAH MIcro)
   77       -295.077791366245     2.200908e-03                     0.175 (TRAH MAcro)   No
   77     dE    -4.275764e-06     1.947044e-04    -4.2757e-06      0.002 (TRAH MIcro)
   78       -295.077795640039     1.946887e-04                     0.210 (TRAH MAcro)   No
   78     dE    -1.413140e-07     1.994954e-04    -1.4131e-07      0.001 (TRAH MIcro)
   78     dE    -5.733584e-07     3.392556e-04    -5.7334e-07      0.006 (TRAH MIcro)
   78     dE    -9.350829e-07     3.387020e-04    -9.3496e-07      0.012 (TRAH MIcro)
   78     dE    -1.797971e-06     6.669581e-04    -1.7968e-06      0.026 (TRAH MIcro)
   78     dE    -3.677038e-06     4.973924e-04    -3.6646e-06      0.058 (TRAH MIcro)
   78     dE    -4.023455e-06     1.929851e-04    -4.0069e-06      0.064 (TRAH MIcro)
   78     dE    -4.298897e-06     3.936666e-04    -4.2784e-06      0.069 (TRAH MIcro)
   78     dE    -5.777602e-06     8.230516e-04    -5.7236e-06      0.097 (TRAH MIcro)
   78     dE    -8.463358e-06     7.624604e-04    -8.2759e-06      0.151 (TRAH MIcro)
   78     dE    -9.802978e-06     4.886440e-04    -9.5048e-06      0.177 (TRAH MIcro)
   78     dE    -1.159226e-05     9.153540e-04    -1.3982e-05      0.210 (TRAH MIcro)
   78     dE    -1.486003e-05     1.100240e-03    -9.7485e-05      0.210 (TRAH MIcro)
   78     dE    -1.615810e-05     7.961204e-04    -2.1429e-04      0.184 (TRAH MIcro)
   78     dE    -2.198444e-05     9.661345e-04    -2.8463e-04      0.210 (TRAH MIcro)
   78     dE    -2.372671e-05     3.534518e-04    -3.3119e-04      0.210 (TRAH MIcro)
   78     dE    -2.408796e-05     4.173293e-04    -3.4089e-04      0.210 (TRAH MIcro)
   78     dE    -2.535493e-05     9.991178e-04    -3.7520e-04      0.210 (TRAH MIcro)
   78     dE    -1.597573e-05     2.247416e-04    -4.8221e-04      0.142 (TRAH MIcro)
   78     dE    -1.616767e-05     8.836748e-05    -4.8379e-04      0.143 (TRAH MIcro)
   78     dE    -1.623733e-05     9.470556e-05    -4.8434e-04      0.144 (TRAH MIcro)
   78     dE    -1.635444e-05     8.035393e-05    -4.8523e-04      0.144 (TRAH MIcro)
   78     dE    -1.644138e-05     8.964027e-05    -4.8591e-04      0.145 (TRAH MIcro)
   78     dE    -1.669821e-05     2.000362e-04    -4.8780e-04      0.146 (TRAH MIcro)
   79       -295.077805550308     1.223540e-03                     0.210 (TRAH MAcro)   No
   79     dE    -1.304079e-06     1.103648e-04    -1.3041e-06      0.001 (TRAH MIcro)
   80       -295.077806855086     1.110007e-04                     0.252 (TRAH MAcro)   No
   80     dE    -7.843200e-08     1.903932e-04    -7.8432e-08      0.001 (TRAH MIcro)
   80     dE    -4.786896e-07     4.842580e-04    -4.7865e-07      0.009 (TRAH MIcro)
   80     dE    -1.314565e-06     4.295733e-04    -1.3137e-06      0.026 (TRAH MIcro)
   80     dE    -2.477792e-06     6.147265e-04    -2.4713e-06      0.051 (TRAH MIcro)
   80     dE    -4.161890e-06     5.744003e-04    -4.1300e-06      0.088 (TRAH MIcro)
   80     dE    -5.012415e-06     3.203888e-04    -4.9566e-06      0.106 (TRAH MIcro)
   80     dE    -5.534757e-06     4.168330e-04    -5.4596e-06      0.117 (TRAH MIcro)
   80     dE    -1.292844e-05     2.969162e-03    -2.7591e-05      0.252 (TRAH MIcro)
   80     dE    -2.342510e-05     1.337567e-03    -5.2290e-04      0.179 (TRAH MIcro)
   80     dE    -3.743213e-05     6.580759e-04    -6.0466e-04      0.221 (TRAH MIcro)
   80     dE    -4.877477e-05     1.396637e-03    -6.5259e-04      0.249 (TRAH MIcro)
   80     dE    -5.409245e-05     1.017097e-03    -7.2413e-04      0.252 (TRAH MIcro)
   80     dE    -5.732916e-05     1.105272e-03    -7.7961e-04      0.252 (TRAH MIcro)
   80     dE    -6.132952e-05     1.051010e-03    -8.4844e-04      0.252 (TRAH MIcro)
   80     dE    -6.271058e-05     3.841569e-04    -8.7229e-04      0.252 (TRAH MIcro)
   80     dE    -6.296350e-05     3.482660e-04    -8.7668e-04      0.252 (TRAH MIcro)
   80     dE    -6.357251e-05     6.674270e-04    -8.8729e-04      0.252 (TRAH MIcro)
   80     dE    -6.481725e-05     7.112075e-04    -9.0919e-04      0.252 (TRAH MIcro)
   80     dE    -6.526272e-05     1.875318e-04    -9.1712e-04      0.252 (TRAH MIcro)
   80     dE    -6.540252e-05     2.591653e-04    -9.1962e-04      0.252 (TRAH MIcro)
   80     dE    -6.593489e-05     5.367656e-04    -9.2927e-04      0.252 (TRAH MIcro)
   80     dE    -6.641316e-05     2.427617e-04    -9.3803e-04      0.252 (TRAH MIcro)
   80     dE    -1.987330e-05     1.116167e-04    -1.0416e-03      0.124 (TRAH MIcro)
   81       -295.077812662929     1.039111e-03                     0.252 (TRAH MAcro)   No
   81     dE    -9.703885e-07     8.904583e-05    -9.7039e-07      0.001 (TRAH MIcro)
   82       -295.077813633506     8.970699e-05                           (NR   MAcro)
   82     dE    -6.751571e-08     1.788091e-04                           (NR   MIcro)
   82     dE    -4.175778e-07     3.876816e-04                           (NR   MIcro)
   82     dE    -8.571714e-07     3.105592e-04                           (NR   MIcro)
   82     dE    -1.468565e-06     4.812068e-04                           (NR   MIcro)
   82     dE    -2.298125e-06     2.645192e-04                           (NR   MIcro)
   82     dE    -2.396620e-06     8.887257e-05                           (NR   MIcro)
   82     dE    -2.441813e-06     1.318879e-04                           (NR   MIcro)
   82     dE    -2.697219e-06     3.806088e-04                           (NR   MIcro)
   82     dE    -3.427869e-06     4.528686e-04                           (NR   MIcro)
   82     dE    -4.037481e-06     2.853458e-04                           (NR   MIcro)
   82     dE    -4.538402e-06     4.490332e-04                           (NR   MIcro)
   82     dE    -5.426713e-06     5.794318e-04                           (NR   MIcro)
   82     dE    -6.894507e-06     6.563537e-04                           (NR   MIcro)
   82     dE    -1.036579e-05     1.418112e-03                           (NR   MIcro)
   82     dE    -1.531185e-05     8.405605e-04                           (NR   MIcro)
   82     dE    -1.603429e-05     4.421536e-04                           (NR   MIcro)
   82     dE    -1.966279e-05     3.045941e-03                           (NR   MIcro)
   82     dE    -5.361908e-05     4.134223e-03                           (NR   MIcro)
   82     dE    -2.462464e-04     1.653963e-02                           (NR   MIcro)
   82     dE     1.388559e-04     8.070064e-03                           (NR   MIcro)
   82     dE     4.463315e-05     2.440361e-03                           (NR   MIcro)
   82     dE     3.057518e-05     1.796922e-03                           (NR   MIcro)
   82     dE     1.105876e-05     2.542542e-03                           (NR   MIcro)
   82     dE     4.210297e-06     6.440690e-04                           (NR   MIcro)
   83       -295.077790858256     3.156218e-03                     0.302 (TRAH MAcro)   No
   83     dE    -8.440742e-06     3.325028e-04    -8.4407e-06      0.003 (TRAH MIcro)
   83     dE    -8.603177e-06     1.263077e-04    -8.6031e-06      0.003 (TRAH MIcro)
   84       -295.077799462309     1.258249e-04                     0.363 (TRAH MAcro)   No
   84     dE    -1.022162e-07     2.108749e-04    -1.0222e-07      0.001 (TRAH MIcro)
   84     dE    -1.282752e-06     7.857183e-04    -1.2822e-06      0.021 (TRAH MIcro)
   84     dE    -3.301772e-06     5.075987e-04    -3.2919e-06      0.055 (TRAH MIcro)
   84     dE    -3.919693e-06     3.662807e-04    -3.9030e-06      0.065 (TRAH MIcro)
   84     dE    -4.513588e-06     4.465199e-04    -4.4879e-06      0.076 (TRAH MIcro)
   84     dE    -5.665953e-06     6.568389e-04    -5.6142e-06      0.096 (TRAH MIcro)
   84     dE    -7.740870e-06     1.130403e-03    -7.6050e-06      0.134 (TRAH MIcro)
   84     dE    -3.416259e-05     4.786855e-03    -1.2005e-04      0.363 (TRAH MIcro)
   84     dE    -4.768709e-05     1.014683e-03    -3.4859e-04      0.309 (TRAH MIcro)
   84     dE    -5.575461e-05     7.822459e-04    -3.6865e-04      0.331 (TRAH MIcro)
   84     dE    -7.244444e-05     2.484618e-03    -4.2762e-04      0.363 (TRAH MIcro)
   84     dE    -9.311887e-05     1.873525e-03    -5.9667e-04      0.363 (TRAH MIcro)
   84     dE    -4.618385e-05     5.830310e-04    -7.1173e-04      0.228 (TRAH MIcro)
   84     dE    -5.156549e-05     7.987876e-04    -7.3142e-04      0.240 (TRAH MIcro)
   84     dE    -5.421596e-05     2.707616e-04    -7.4023e-04      0.246 (TRAH MIcro)
   84     dE    -5.547437e-05     4.055300e-04    -7.4421e-04      0.248 (TRAH MIcro)
   84     dE    -5.961961e-05     8.677580e-04    -7.5647e-04      0.257 (TRAH MIcro)
   84     dE    -6.729475e-05     6.414423e-04    -7.7582e-04      0.272 (TRAH MIcro)
   84     dE    -7.028903e-05     2.813134e-04    -7.8241e-04      0.277 (TRAH MIcro)
   84     dE    -7.313785e-05     4.845431e-04    -7.8820e-04      0.283 (TRAH MIcro)
   84     dE    -8.215964e-05     8.278804e-04    -8.0429e-04      0.299 (TRAH MIcro)
   84     dE    -8.961064e-05     3.335061e-04    -8.1544e-04      0.311 (TRAH MIcro)
   84     dE    -9.084019e-05     1.666813e-04    -8.1711e-04      0.313 (TRAH MIcro)
 ---------------------------------
          TRAH Step control 
 ---------------------------------
  predicted energy change =    -9.084018917367e-05
  actual energy  change   =     2.218161853307e-05
  energy change ratio     = -0.244183
  old trust radius        = 0.362639
  new trust radius        = 0.242968
  reject step?            = YES
   85       -295.077777280691     1.258249e-04                     0.243 (TRAH MAcro)  Yes
   86       -295.077777280691     6.514217e-03                     0.243 (TRAH MAcro)   No
   86     dE    -3.582750e-05     3.173146e-04    -3.5826e-05      0.006 (TRAH MIcro)
   87       -295.077813118225     3.147908e-04                     0.292 (TRAH MAcro)   No
   87     dE    -1.280232e-07     1.102724e-04    -1.2802e-07      0.001 (TRAH MIcro)
   87     dE    -2.032824e-07     1.899972e-04    -2.0328e-07      0.002 (TRAH MIcro)
   87     dE    -4.455447e-07     2.536353e-04    -4.4552e-07      0.007 (TRAH MIcro)
   87     dE    -7.014123e-07     2.773772e-04    -7.0129e-07      0.013 (TRAH MIcro)
   87     dE    -1.621233e-06     6.787302e-04    -1.6190e-06      0.037 (TRAH MIcro)
   87     dE    -2.394864e-06     1.975406e-04    -2.3869e-06      0.058 (TRAH MIcro)
   87     dE    -2.465678e-06     9.417529e-05    -2.4570e-06      0.059 (TRAH MIcro)
   87     dE    -2.566703e-06     2.573640e-04    -2.5568e-06      0.062 (TRAH MIcro)
   87     dE    -3.197253e-06     4.729143e-04    -3.1765e-06      0.081 (TRAH MIcro)
   87     dE    -3.686146e-06     3.051187e-04    -3.6520e-06      0.097 (TRAH MIcro)
   87     dE    -4.079607e-06     3.639615e-04    -4.0310e-06      0.110 (TRAH MIcro)
   87     dE    -4.514250e-06     3.331999e-04    -4.4453e-06      0.125 (TRAH MIcro)
   87     dE    -5.120227e-06     4.220235e-04    -5.0140e-06      0.146 (TRAH MIcro)
   87     dE    -6.021634e-06     7.506084e-04    -5.8388e-06      0.177 (TRAH MIcro)
   87     dE    -9.878697e-06     1.492329e-03    -1.4131e-05      0.292 (TRAH MIcro)
   87     dE    -1.156837e-05     3.539700e-04    -3.6271e-05      0.292 (TRAH MIcro)
   87     dE    -1.183363e-05     2.868968e-04    -3.9754e-05      0.292 (TRAH MIcro)
   87     dE    -1.280601e-05     1.112947e-03    -5.2580e-05      0.292 (TRAH MIcro)
   87     dE    -1.395773e-05     3.405812e-04    -7.0466e-05      0.289 (TRAH MIcro)
   87     dE    -1.438634e-05     2.706682e-04    -7.3675e-05      0.292 (TRAH MIcro)
   87     dE    -1.465633e-05     2.848571e-04    -7.7318e-05      0.292 (TRAH MIcro)
   87     dE    -1.503680e-05     2.585493e-04    -8.2481e-05      0.292 (TRAH MIcro)
   87     dE    -1.548738e-05     4.980780e-04    -8.8659e-05      0.292 (TRAH MIcro)
   88       -295.077816331688     2.523027e-03                     0.195 (TRAH MAcro)   No
   88     dE    -5.616774e-06     2.839314e-04    -5.6167e-06      0.003 (TRAH MIcro)
   88     dE    -5.786133e-06     1.677673e-04    -5.7861e-06      0.003 (TRAH MIcro)
   89       -295.077822119610     1.677889e-04                     0.234 (TRAH MAcro)   No
   89     dE    -1.025308e-07     1.673472e-04    -1.0253e-07      0.001 (TRAH MIcro)
   89     dE    -4.165437e-07     2.459349e-04    -4.1653e-07      0.005 (TRAH MIcro)
   89     dE    -6.572444e-07     2.711477e-04    -6.5719e-07      0.009 (TRAH MIcro)
   89     dE    -1.176709e-06     4.981588e-04    -1.1762e-06      0.020 (TRAH MIcro)
   89     dE    -1.828922e-06     1.974257e-04    -1.8269e-06      0.033 (TRAH MIcro)
   89     dE    -1.928824e-06     1.512915e-04    -1.9264e-06      0.035 (TRAH MIcro)
   89     dE    -2.224272e-06     3.247132e-04    -2.2203e-06      0.042 (TRAH MIcro)
   89     dE    -2.607025e-06     2.755257e-04    -2.6002e-06      0.051 (TRAH MIcro)
   89     dE    -2.809024e-06     1.316897e-04    -2.8001e-06      0.057 (TRAH MIcro)
   89     dE    -2.867134e-06     1.139461e-04    -2.8575e-06      0.058 (TRAH MIcro)
   89     dE    -2.932758e-06     1.434765e-04    -2.9223e-06      0.060 (TRAH MIcro)
   89     dE    -3.019187e-06     1.305454e-04    -3.0075e-06      0.062 (TRAH MIcro)
   89     dE    -3.232501e-06     3.504141e-04    -3.2173e-06      0.069 (TRAH MIcro)
   89     dE    -4.132059e-06     4.477804e-04    -4.0899e-06      0.102 (TRAH MIcro)
   89     dE    -4.425975e-06     1.391625e-04    -4.3700e-06      0.113 (TRAH MIcro)
   89     dE    -4.495998e-06     1.304189e-04    -4.4363e-06      0.116 (TRAH MIcro)
   89     dE    -4.759979e-06     3.664939e-04    -4.6847e-06      0.127 (TRAH MIcro)
   89     dE    -5.568405e-06     3.913533e-04    -5.4275e-06      0.161 (TRAH MIcro)
   89     dE    -5.893265e-06     2.137800e-04    -5.7179e-06      0.175 (TRAH MIcro)
   89     dE    -6.175666e-06     3.718230e-04    -5.9664e-06      0.187 (TRAH MIcro)
   89     dE    -6.356738e-06     1.538302e-04    -6.1237e-06      0.195 (TRAH MIcro)
   89     dE    -6.519025e-06     3.251446e-04    -6.2632e-06      0.202 (TRAH MIcro)
   89     dE    -7.491412e-06     9.762857e-04    -1.1848e-05      0.234 (TRAH MIcro)
   90       -295.077822880240     1.902328e-03                     0.157 (TRAH MAcro)   No
   90     dE    -3.053349e-06     3.350250e-04    -3.0533e-06      0.002 (TRAH MIcro)
   90     dE    -3.253694e-06     1.795515e-04    -3.2537e-06      0.003 (TRAH MIcro)
   91       -295.077826134621     1.795061e-04                     0.188 (TRAH MAcro)   No
   91     dE    -1.097646e-07     1.789403e-04    -1.0976e-07      0.001 (TRAH MIcro)
   91     dE    -5.530077e-07     4.678644e-04    -5.5298e-07      0.007 (TRAH MIcro)
   91     dE    -1.282716e-06     3.855681e-04    -1.2823e-06      0.019 (TRAH MIcro)
   91     dE    -2.202436e-06     6.187350e-04    -2.1998e-06      0.035 (TRAH MIcro)
   91     dE    -3.608637e-06     4.380386e-04    -3.5960e-06      0.059 (TRAH MIcro)
   91     dE    -3.888811e-06     2.078224e-04    -3.8729e-06      0.064 (TRAH MIcro)
   91     dE    -4.043838e-06     2.176149e-04    -4.0258e-06      0.067 (TRAH MIcro)
   91     dE    -4.462347e-06     5.705677e-04    -4.4375e-06      0.075 (TRAH MIcro)
   91     dE    -5.308245e-06     3.856493e-04    -5.2637e-06      0.092 (TRAH MIcro)
   91     dE    -5.558652e-06     2.067724e-04    -5.5065e-06      0.097 (TRAH MIcro)
   91     dE    -5.981898e-06     4.999543e-04    -5.9146e-06      0.107 (TRAH MIcro)
   91     dE    -6.982811e-06     6.026674e-04    -6.8666e-06      0.130 (TRAH MIcro)
   91     dE    -8.528826e-06     1.068147e-03    -8.2947e-06      0.168 (TRAH MIcro)
   91     dE    -1.199274e-05     6.519523e-04    -9.9903e-05      0.188 (TRAH MIcro)
   91     dE    -1.278011e-05     3.005898e-04    -1.2744e-04      0.188 (TRAH MIcro)
   91     dE    -1.304492e-05     3.019884e-04    -1.3589e-04      0.188 (TRAH MIcro)
   91     dE    -1.274969e-05     6.209054e-04    -1.7909e-04      0.172 (TRAH MIcro)
   91     dE    -1.680395e-05     1.213355e-03    -2.6962e-04      0.188 (TRAH MIcro)
   91     dE    -1.109651e-05     1.859831e-04    -3.9263e-04      0.124 (TRAH MIcro)
   91     dE    -1.160445e-05     2.466468e-04    -3.9689e-04      0.128 (TRAH MIcro)
   91     dE    -1.283196e-05     2.951392e-04    -4.0610e-04      0.137 (TRAH MIcro)
   91     dE    -1.494798e-05     3.809986e-04    -4.1926e-04      0.151 (TRAH MIcro)
   91     dE    -2.185521e-05     9.824256e-04    -4.5299e-04      0.188 (TRAH MIcro)
   92       -295.077827222779     1.602308e-03                     0.126 (TRAH MAcro)   No
   92     dE    -2.725180e-06     4.162337e-04    -2.7252e-06      0.003 (TRAH MIcro)
   92     dE    -3.169499e-06     3.135687e-04    -3.1695e-06      0.003 (TRAH MIcro)
   92     dE    -3.528047e-06     2.208727e-04    -3.5280e-06      0.005 (TRAH MIcro)
   92     dE    -3.605962e-06     1.181951e-04    -3.6058e-06      0.006 (TRAH MIcro)
   93       -295.077830836518     1.187764e-04                     0.152 (TRAH MAcro)   No
   93     dE    -5.043028e-08     1.134737e-04    -5.0430e-08      0.001 (TRAH MIcro)
   93     dE    -3.078435e-07     3.215272e-04    -3.0783e-07      0.006 (TRAH MIcro)
   93     dE    -5.929631e-07     2.638869e-04    -5.9287e-07      0.013 (TRAH MIcro)
   93     dE    -1.008929e-06     4.228319e-04    -1.0084e-06      0.023 (TRAH MIcro)
   93     dE    -1.599318e-06     3.237112e-04    -1.5970e-06      0.038 (TRAH MIcro)
   93     dE    -1.741472e-06     1.227311e-04    -1.7384e-06      0.042 (TRAH MIcro)
   93     dE    -1.803053e-06     1.553332e-04    -1.7996e-06      0.044 (TRAH MIcro)
   93     dE    -1.920603e-06     2.835610e-04    -1.9164e-06      0.047 (TRAH MIcro)
   93     dE    -2.216044e-06     4.023385e-04    -2.2092e-06      0.056 (TRAH MIcro)
   93     dE    -2.310337e-06     1.556351e-04    -2.3024e-06      0.059 (TRAH MIcro)
   93     dE    -2.456854e-06     2.499250e-04    -2.4469e-06      0.064 (TRAH MIcro)
   93     dE    -2.732454e-06     3.362326e-04    -2.7177e-06      0.074 (TRAH MIcro)
   93     dE    -3.240856e-06     4.657852e-04    -3.2127e-06      0.094 (TRAH MIcro)
   93     dE    -5.796704e-06     1.174428e-03    -6.5277e-05      0.152 (TRAH MIcro)
   93     dE    -7.347297e-06     2.925387e-04    -1.4495e-04      0.152 (TRAH MIcro)
   93     dE    -7.632115e-06     2.630543e-04    -1.5952e-04      0.152 (TRAH MIcro)
   93     dE    -6.311727e-06     5.035032e-04    -2.4024e-04      0.116 (TRAH MIcro)
   93     dE    -1.051838e-05     5.243184e-04    -3.0833e-04      0.152 (TRAH MIcro)
   93     dE    -1.098209e-05     2.451068e-04    -3.3231e-04      0.152 (TRAH MIcro)
   93     dE    -1.114529e-05     1.692726e-04    -3.4077e-04      0.152 (TRAH MIcro)
   93     dE    -1.142230e-05     3.225959e-04    -3.5514e-04      0.152 (TRAH MIcro)
   93     dE    -1.162037e-05     2.541848e-04    -3.7028e-04      0.151 (TRAH MIcro)
   93     dE    -1.216688e-05     5.462364e-04    -3.9425e-04      0.152 (TRAH MIcro)
   94       -295.077834173134     1.097337e-03                     0.152 (TRAH MAcro)   No
   94     dE    -1.085332e-06     2.107409e-04    -1.0853e-06      0.001 (TRAH MIcro)
   94     dE    -1.203737e-06     1.728574e-04    -1.2037e-06      0.002 (TRAH MIcro)
   94     dE    -1.356214e-06     1.576387e-04    -1.3562e-06      0.003 (TRAH MIcro)
   94     dE    -1.425738e-06     1.585861e-04    -1.4257e-06      0.005 (TRAH MIcro)
   94     dE    -1.598904e-06     3.091735e-04    -1.5988e-06      0.009 (TRAH MIcro)
   94     dE    -2.082144e-06     3.635568e-04    -2.0810e-06      0.023 (TRAH MIcro)
   94     dE    -2.334479e-06     1.577789e-04    -2.3323e-06      0.030 (TRAH MIcro)
   94     dE    -2.391277e-06     9.448407e-05    -2.3888e-06      0.032 (TRAH MIcro)
   95       -295.077837158265     1.197690e-04                     0.182 (TRAH MAcro)   No
   95     dE    -6.205439e-08     1.494471e-04    -6.2054e-08      0.001 (TRAH MIcro)
   95     dE    -2.445554e-07     2.929244e-04    -2.4455e-07      0.005 (TRAH MIcro)
   95     dE    -5.085975e-07     1.810574e-04    -5.0853e-07      0.011 (TRAH MIcro)
   95     dE    -5.831438e-07     1.111636e-04    -5.8304e-07      0.013 (TRAH MIcro)
   95     dE    -6.507544e-07     1.529880e-04    -6.5061e-07      0.015 (TRAH MIcro)
   95     dE    -7.847217e-07     1.928635e-04    -7.8445e-07      0.019 (TRAH MIcro)
   95     dE    -9.269536e-07     1.936001e-04    -9.2644e-07      0.023 (TRAH MIcro)
   95     dE    -1.192029e-06     3.509783e-04    -1.1907e-06      0.033 (TRAH MIcro)
   95     dE    -1.481068e-06     1.850562e-04    -1.4782e-06      0.044 (TRAH MIcro)
   95     dE    -1.542461e-06     7.127730e-05    -1.5391e-06      0.047 (TRAH MIcro)
   95     dE    -1.635176e-06     2.792883e-04    -1.6310e-06      0.050 (TRAH MIcro)
   95     dE    -2.359681e-06     6.684982e-04    -2.3433e-06      0.084 (TRAH MIcro)
   95     dE    -7.429588e-06     1.071702e-03    -1.0591e-04      0.182 (TRAH MIcro)
   95     dE    -9.097704e-06     5.608556e-04    -1.6137e-04      0.182 (TRAH MIcro)
   95     dE    -9.178113e-06     8.049745e-04    -2.4416e-04      0.157 (TRAH MIcro)
   95     dE    -1.320115e-05     8.269706e-04    -2.9752e-04      0.182 (TRAH MIcro)
   95     dE    -1.574039e-05     1.035369e-03    -3.8170e-04      0.182 (TRAH MIcro)
   95     dE    -1.265423e-05     1.093070e-03    -5.8090e-04      0.135 (TRAH MIcro)
   95     dE    -1.790494e-05     2.851957e-04    -6.2104e-04      0.159 (TRAH MIcro)
   95     dE    -1.908129e-05     2.543544e-04    -6.2846e-04      0.164 (TRAH MIcro)
   95     dE    -2.120398e-05     6.617325e-04    -6.4075e-04      0.172 (TRAH MIcro)
   95     dE    -2.707831e-05     9.163978e-04    -7.5566e-04      0.182 (TRAH MIcro)
   95     dE    -2.908415e-05     6.284182e-04    -8.2202e-04      0.182 (TRAH MIcro)
 ---------------------------------
          TRAH Step control 
 ---------------------------------
  predicted energy change =    -2.908414832667e-05
  actual energy  change   =     2.512278911126e-06
  energy change ratio     = -0.086380
  old trust radius        = 0.181836
  new trust radius        = 0.121830
  reject step?            = YES
   96       -295.077834645986     1.197690e-04                     0.122 (TRAH MAcro)  Yes
   97       -295.077834645986     2.222101e-03                     0.122 (TRAH MAcro)   No
   97     dE    -4.571131e-06     3.772063e-04    -4.5711e-06      0.002 (TRAH MIcro)
   97     dE    -4.920475e-06     2.772433e-04    -4.9204e-06      0.003 (TRAH MIcro)
   97     dE    -5.273483e-06     1.496410e-04    -5.2734e-06      0.005 (TRAH MIcro)
   98       -295.077839921089     1.501706e-04                     0.146 (TRAH MAcro)   No
   98     dE    -3.498792e-08     8.896324e-05    -3.4988e-08      0.000 (TRAH MIcro)
   98     dE    -1.039276e-07     2.283219e-04    -1.0393e-07      0.002 (TRAH MIcro)
   98     dE    -5.607059e-07     4.155802e-04    -5.6054e-07      0.017 (TRAH MIcro)
   98     dE    -8.289630e-07     1.720212e-04    -8.2839e-07      0.026 (TRAH MIcro)
   98     dE    -9.192341e-07     1.571897e-04    -9.1844e-07      0.029 (TRAH MIcro)
   98     dE    -9.839279e-07     9.708206e-05    -9.8294e-07      0.032 (TRAH MIcro)
   98     dE    -1.009081e-06     6.843867e-05    -1.0080e-06      0.033 (TRAH MIcro)
   98     dE    -1.040266e-06     1.413357e-04    -1.0391e-06      0.034 (TRAH MIcro)
   98     dE    -1.130903e-06     1.736391e-04    -1.1293e-06      0.037 (TRAH MIcro)
   98     dE    -1.202847e-06     9.683011e-05    -1.2009e-06      0.040 (TRAH MIcro)
   98     dE    -1.225613e-06     9.600925e-05    -1.2235e-06      0.042 (TRAH MIcro)
   98     dE    -1.280801e-06     1.738702e-04    -1.2783e-06      0.044 (TRAH MIcro)
   98     dE    -1.499580e-06     3.202364e-04    -1.4948e-06      0.057 (TRAH MIcro)
   98     dE    -1.620072e-06     1.061187e-04    -1.6134e-06      0.064 (TRAH MIcro)
   98     dE    -1.664452e-06     1.471939e-04    -1.6569e-06      0.067 (TRAH MIcro)
   98     dE    -1.745018e-06     1.886974e-04    -1.7358e-06      0.073 (TRAH MIcro)
   98     dE    -1.856939e-06     2.200110e-04    -1.8450e-06      0.080 (TRAH MIcro)
   98     dE    -2.179483e-06     6.050188e-04    -2.1562e-06      0.104 (TRAH MIcro)
   98     dE    -4.012332e-06     4.317133e-04    -7.3237e-05      0.146 (TRAH MIcro)
   98     dE    -4.293792e-06     1.842865e-04    -8.8765e-05      0.146 (TRAH MIcro)
   98     dE    -4.383527e-06     1.727250e-04    -9.3712e-05      0.146 (TRAH MIcro)
   98     dE    -3.530723e-06     2.885759e-04    -1.4422e-04      0.108 (TRAH MIcro)
   98     dE    -4.597972e-06     2.716233e-04    -1.5624e-04      0.129 (TRAH MIcro)
   99       -295.077841681950     6.338593e-04                     0.146 (TRAH MAcro)   No
   99     dE    -4.324808e-07     1.474087e-04    -4.3248e-07      0.001 (TRAH MIcro)
   99     dE    -4.985872e-07     1.333632e-04    -4.9859e-07      0.001 (TRAH MIcro)
   99     dE    -5.904374e-07     1.169709e-04    -5.9043e-07      0.003 (TRAH MIcro)
   99     dE    -6.503834e-07     1.393105e-04    -6.5037e-07      0.004 (TRAH MIcro)
   99     dE    -7.741527e-07     2.220589e-04    -7.7410e-07      0.008 (TRAH MIcro)
   99     dE    -1.185356e-06     3.941277e-04    -1.1848e-06      0.022 (TRAH MIcro)
   99     dE    -1.385323e-06     1.190710e-04    -1.3841e-06      0.029 (TRAH MIcro)
   99     dE    -1.412817e-06     6.249830e-05    -1.4115e-06      0.030 (TRAH MIcro)
  100       -295.077843655160     8.799583e-05                           (NR   MAcro)
  100     dE    -3.307717e-08     1.154935e-04                           (NR   MIcro)
  100     dE    -1.458397e-07     2.596821e-04                           (NR   MIcro)
  100     dE    -4.153954e-07     1.730454e-04                           (NR   MIcro)
  100     dE    -5.022210e-07     1.407511e-04                           (NR   MIcro)
  100     dE    -5.859420e-07     1.520872e-04                           (NR   MIcro)
  100     dE    -6.501262e-07     1.121590e-04                           (NR   MIcro)
  100     dE    -7.161862e-07     1.480127e-04                           (NR   MIcro)
  100     dE    -8.536725e-07     2.258301e-04                           (NR   MIcro)
  100     dE    -9.660715e-07     8.852459e-05                           (NR   MIcro)
  100     dE    -9.812184e-07     5.174738e-05                           (NR   MIcro)
  100     dE    -1.032454e-06     2.266559e-04                           (NR   MIcro)
  100     dE    -1.173304e-06     1.854790e-04                           (NR   MIcro)
  100     dE    -1.284470e-06     1.640836e-04                           (NR   MIcro)
  100     dE    -1.335238e-06     1.698399e-04                           (NR   MIcro)
  100     dE    -1.464487e-06     2.432539e-04                           (NR   MIcro)
  100     dE    -1.892894e-06     6.030603e-04                           (NR   MIcro)
  100     dE    -1.097204e-07     9.838635e-04                           (NR   MIcro)
  100     dE    -8.495478e-07     2.045457e-04                           (NR   MIcro)
  100     dE    -8.774761e-07     3.820054e-05                           (NR   MIcro)
  100     dE    -8.842088e-07     4.725271e-05                           (NR   MIcro)
  100     dE    -9.070215e-07     1.226229e-04                           (NR   MIcro)
  100     dE    -9.582286e-07     7.779343e-05                           (NR   MIcro)
  100     dE    -9.735319e-07     5.757638e-05                           (NR   MIcro)
  100     dE    -9.883325e-07     5.296669e-05                           (NR   MIcro)
  101       -295.077845343503     8.825991e-05                           (NR   MAcro)
  101     dE    -1.945733e-08     6.937104e-05                           (NR   MIcro)
  101     dE    -7.224007e-08     1.610954e-04                           (NR   MIcro)
  101     dE    -2.968585e-07     2.894268e-04                           (NR   MIcro)
  101     dE    -5.376160e-07     1.879414e-04                           (NR   MIcro)
  101     dE    -6.372218e-07     1.414611e-04                           (NR   MIcro)
  101     dE    -7.130815e-07     1.272848e-04                           (NR   MIcro)
  101     dE    -7.484181e-07     7.385896e-05                           (NR   MIcro)
  101     dE    -7.875060e-07     1.464025e-04                           (NR   MIcro)
  101     dE    -1.064887e-06     3.698294e-04                           (NR   MIcro)
  101     dE    -1.381917e-06     2.128413e-04                           (NR   MIcro)
  101     dE    -1.502697e-06     1.688462e-04                           (NR   MIcro)
  101     dE    -1.821033e-06     5.892292e-04                           (NR   MIcro)
  101     dE    -4.448876e-06     1.640503e-03                           (NR   MIcro)
  101     dE     1.127037e-06     1.423998e-03                           (NR   MIcro)
  101     dE    -2.977953e-07     2.893187e-04                           (NR   MIcro)
  101     dE    -4.639067e-07     1.597979e-04                           (NR   MIcro)
  101     dE    -5.260759e-07     2.132418e-04                           (NR   MIcro)
  101     dE    -6.757198e-07     2.324559e-04                           (NR   MIcro)
  101     dE    -7.684629e-07     1.085930e-04                           (NR   MIcro)
  101     dE    -7.855577e-07     4.389659e-05                           (NR   MIcro)
  101     dE    -7.995764e-07     8.749096e-05                           (NR   MIcro)
  101     dE    -8.598200e-07     1.291219e-04                           (NR   MIcro)
  101     dE    -9.026614e-07     7.042178e-05                           (NR   MIcro)
  101     dE    -9.155998e-07     5.304104e-05                           (NR   MIcro)
  102       -295.077846934836     1.004624e-04                     0.175 (TRAH MAcro)   No
  102     dE    -2.024873e-08     5.578261e-05    -2.0249e-08      0.000 (TRAH MIcro)
  102     dE    -4.402438e-08     1.050873e-04    -4.4024e-08      0.001 (TRAH MIcro)
  102     dE    -1.171117e-07     1.137052e-04    -1.1711e-07      0.005 (TRAH MIcro)
  102     dE    -2.170809e-07     1.922425e-04    -2.1706e-07      0.010 (TRAH MIcro)
  102     dE    -3.944141e-07     2.136177e-04    -3.9427e-07      0.019 (TRAH MIcro)
  102     dE    -5.154988e-07     1.056430e-04    -5.1517e-07      0.025 (TRAH MIcro)
  102     dE    -5.400193e-07     6.149345e-05    -5.3963e-07      0.027 (TRAH MIcro)
  102     dE    -5.750725e-07     1.473117e-04    -5.7460e-07      0.029 (TRAH MIcro)
  102     dE    -1.474295e-06     9.142121e-04    -1.4634e-06      0.086 (TRAH MIcro)
  102     dE    -6.200274e-06     6.883547e-04    -1.2069e-04      0.173 (TRAH MIcro)
  102     dE    -6.416060e-06     4.234721e-04    -1.7417e-04      0.155 (TRAH MIcro)
  102     dE    -8.505915e-06     5.230164e-04    -1.9564e-04      0.175 (TRAH MIcro)
  102     dE    -9.714229e-06     5.173218e-04    -2.3702e-04      0.175 (TRAH MIcro)
  102     dE    -1.150949e-05     1.367328e-03    -2.9878e-04      0.175 (TRAH MIcro)
  102     dE    -1.082532e-05     7.417215e-04    -4.5917e-04      0.141 (TRAH MIcro)
  102     dE    -1.802221e-05     7.706728e-04    -5.2510e-04      0.175 (TRAH MIcro)
  102     dE    -1.945568e-05     8.012835e-04    -5.7498e-04      0.175 (TRAH MIcro)
  102     dE    -6.994483e-06     9.991028e-04    -8.1861e-04      0.087 (TRAH MIcro)
  102     dE    -1.477903e-05     3.475689e-04    -9.1837e-04      0.123 (TRAH MIcro)
  102     dE    -1.636769e-05     2.117391e-04    -9.3211e-04      0.129 (TRAH MIcro)
  102     dE    -1.744920e-05     2.648470e-04    -9.4072e-04      0.133 (TRAH MIcro)
  102     dE    -1.876287e-05     1.887868e-04    -9.5073e-04      0.137 (TRAH MIcro)
  102     dE    -1.997282e-05     2.770549e-04    -9.5916e-04      0.141 (TRAH MIcro)
 ---------------------------------
          TRAH Step control 
 ---------------------------------
  predicted energy change =    -1.997281826723e-05
  actual energy  change   =     2.297265098150e-06
  energy change ratio     = -0.115020
  old trust radius        = 0.175436
  new trust radius        = 0.117542
  reject step?            = YES
  103       -295.077844637570     1.004624e-04                     0.118 (TRAH MAcro)  Yes
  104       -295.077844637571     1.214638e-03                     0.118 (TRAH MAcro)   No
  104     dE    -1.331854e-06     1.716178e-04    -1.3319e-06      0.001 (TRAH MIcro)
  104     dE    -1.396665e-06     1.064943e-04    -1.3967e-06      0.001 (TRAH MIcro)
  105       -295.077846032912     1.067273e-04                     0.118 (TRAH MAcro)   No
  105     dE    -3.735931e-08     9.833371e-05    -3.7359e-08      0.000 (TRAH MIcro)
  105     dE    -1.115925e-07     1.231217e-04    -1.1159e-07      0.002 (TRAH MIcro)
  105     dE    -1.674702e-07     1.228539e-04    -1.6747e-07      0.004 (TRAH MIcro)
  105     dE    -3.174448e-07     3.068152e-04    -3.1742e-07      0.009 (TRAH MIcro)
  105     dE    -8.222661e-07     1.677476e-04    -8.2157e-07      0.029 (TRAH MIcro)
  105     dE    -8.949292e-07     1.340054e-04    -8.9401e-07      0.032 (TRAH MIcro)
  105     dE    -1.043716e-06     2.840850e-04    -1.0422e-06      0.038 (TRAH MIcro)
  105     dE    -1.425178e-06     2.868140e-04    -1.4210e-06      0.054 (TRAH MIcro)
  105     dE    -1.634066e-06     1.600381e-04    -1.6275e-06      0.063 (TRAH MIcro)
  105     dE    -1.735780e-06     1.607397e-04    -1.7278e-06      0.068 (TRAH MIcro)
  105     dE    -1.870005e-06     1.806063e-04    -1.8599e-06      0.074 (TRAH MIcro)
  105     dE    -1.990778e-06     1.752771e-04    -1.9783e-06      0.079 (TRAH MIcro)
  105     dE    -3.157881e-06     1.287587e-03    -3.2515e-05      0.118 (TRAH MIcro)
  105     dE    -8.869213e-06     6.301700e-04    -5.1188e-04      0.118 (TRAH MIcro)
  105     dE    -9.409353e-06     1.866982e-04    -5.5600e-04      0.118 (TRAH MIcro)
  105     dE    -9.643477e-06     4.051807e-04    -5.7502e-04      0.118 (TRAH MIcro)
  105     dE    -1.050576e-05     5.940475e-04    -6.4532e-04      0.118 (TRAH MIcro)
  105     dE    -3.048368e-06     2.444808e-04    -8.6102e-04      0.051 (TRAH MIcro)
  105     dE    -3.877954e-06     1.655563e-04    -8.9049e-04      0.058 (TRAH MIcro)
  105     dE    -5.045292e-06     2.736756e-04    -9.2150e-04      0.067 (TRAH MIcro)
  105     dE    -5.689479e-06     1.269543e-04    -9.3509e-04      0.072 (TRAH MIcro)
  105     dE    -6.305159e-06     2.189549e-04    -9.4652e-04      0.075 (TRAH MIcro)
  105     dE    -9.368017e-06     6.917876e-04    -9.9042e-04      0.092 (TRAH MIcro)
 ---------------------------------
          TRAH Step control 
 ---------------------------------
  predicted energy change =    -9.368017106442e-06
  actual energy  change   =     2.713746880545e-07
  energy change ratio     = -0.028968
  old trust radius        = 0.117542
  new trust radius        = 0.078753
  reject step?            = YES
  106       -295.077845761537     1.067273e-04                     0.079 (TRAH MAcro)  Yes
  107       -295.077845761537     8.925688e-04                     0.079 (TRAH MAcro)   No
  107     dE    -5.139200e-07     1.668584e-04    -5.1392e-07      0.001 (TRAH MIcro)
  107     dE    -5.519500e-07     8.582512e-05    -5.5195e-07      0.001 (TRAH MIcro)
  108       -295.077846313280     8.587598e-05                           (NR   MAcro)
  108     dE    -2.145301e-08     7.597580e-05                           (NR   MIcro)
  108     dE    -1.235963e-07     2.527704e-04                           (NR   MIcro)
  108     dE    -3.094050e-07     2.115781e-04                           (NR   MIcro)
  108     dE    -5.010209e-07     2.814775e-04                           (NR   MIcro)
  108     dE    -8.491064e-07     2.923570e-04                           (NR   MIcro)
  108     dE    -9.243644e-07     1.066113e-04                           (NR   MIcro)
  108     dE    -1.006098e-06     2.605334e-04                           (NR   MIcro)
  108     dE    -1.597822e-06     7.640958e-04                           (NR   MIcro)
  108     dE    -5.449324e-06     1.473064e-03                           (NR   MIcro)
  108     dE    -1.327277e-05     1.650457e-03                           (NR   MIcro)
  108     dE    -1.319377e-04     2.241096e-02                           (NR   MIcro)
  108     dE     5.892981e-06     1.861228e-03                           (NR   MIcro)
  108     dE     1.884471e-06     7.953327e-04                           (NR   MIcro)
  108     dE     2.192917e-07     5.236483e-04                           (NR   MIcro)
  108     dE    -1.968308e-07     2.132296e-04                           (NR   MIcro)
  108     dE    -2.747435e-07     1.479722e-04                           (NR   MIcro)
  108     dE    -4.472336e-07     3.386440e-04                           (NR   MIcro)
  108     dE    -7.055526e-07     1.801396e-04                           (NR   MIcro)
  108     dE    -7.487890e-07     7.313420e-05                           (NR   MIcro)
  108     dE    -7.761568e-07     1.136177e-04                           (NR   MIcro)
  108     dE    -8.469571e-07     1.872665e-04                           (NR   MIcro)
  108     dE    -9.683810e-07     1.725759e-04                           (NR   MIcro)
  108     dE    -1.108228e-06     2.550922e-04                           (NR   MIcro)
  108     dE    -1.493633e-06     1.727541e-04                           (NR   MIcro)
  109       -295.077848019682     2.486741e-04                     0.095 (TRAH MAcro)   No
  109     dE    -5.315871e-08     6.064640e-05    -5.3159e-08      0.000 (TRAH MIcro)
  109     dE    -7.541370e-08     1.149078e-04    -7.5414e-08      0.001 (TRAH MIcro)
  109     dE    -3.351109e-07     3.849431e-04    -3.3507e-07      0.011 (TRAH MIcro)
  109     dE    -5.011075e-07     1.187343e-04    -5.0095e-07      0.018 (TRAH MIcro)
  109     dE    -5.402359e-07     1.110152e-04    -5.4004e-07      0.019 (TRAH MIcro)
  109     dE    -5.906369e-07     1.104791e-04    -5.9037e-07      0.021 (TRAH MIcro)
  109     dE    -6.440038e-07     1.323570e-04    -6.4364e-07      0.024 (TRAH MIcro)
  109     dE    -8.510012e-07     3.978341e-04    -8.5003e-07      0.034 (TRAH MIcro)
  109     dE    -2.901189e-06     7.858812e-04    -3.5528e-04      0.067 (TRAH MIcro)
  109     dE    -6.579421e-06     5.102228e-04    -5.6268e-04      0.095 (TRAH MIcro)
  109     dE    -7.141250e-06     4.976202e-04    -6.3395e-04      0.094 (TRAH MIcro)
  109     dE    -3.094204e-06     2.970478e-04    -8.8401e-04      0.050 (TRAH MIcro)
  109     dE    -4.490370e-06     2.679200e-04    -9.6692e-04      0.061 (TRAH MIcro)
  109     dE    -4.767476e-06     7.859406e-05    -9.8015e-04      0.062 (TRAH MIcro)
  109     dE    -4.907084e-06     1.281243e-04    -9.8651e-04      0.063 (TRAH MIcro)
  109     dE    -5.177316e-06     1.569804e-04    -9.9806e-04      0.065 (TRAH MIcro)
  109     dE    -5.448593e-06     1.288805e-04    -1.0086e-03      0.067 (TRAH MIcro)
  109     dE    -6.143321e-06     3.784481e-04    -1.0319e-03      0.071 (TRAH MIcro)
  109     dE    -7.167140e-06     7.927795e-05    -1.0593e-03      0.076 (TRAH MIcro)
  109     dE    -7.246895e-06     4.733492e-05    -1.0612e-03      0.077 (TRAH MIcro)
  109     dE    -7.318771e-06     6.483185e-05    -1.0629e-03      0.077 (TRAH MIcro)
  109     dE    -7.605979e-06     1.512186e-04    -1.0690e-03      0.078 (TRAH MIcro)
  109     dE    -7.888385e-06     6.180658e-05    -1.0745e-03      0.080 (TRAH MIcro)
  110       -295.077848504658     4.390874e-04                     0.063 (TRAH MAcro)   No
  110     dE    -1.838297e-07     4.891380e-05    -1.8383e-07      0.000 (TRAH MIcro)
  110     dE    -1.984484e-07     7.966816e-05    -1.9845e-07      0.001 (TRAH MIcro)
  110     dE    -2.570389e-07     1.570137e-04    -2.5704e-07      0.003 (TRAH MIcro)
  110     dE    -3.410059e-07     1.429650e-04    -3.4099e-07      0.007 (TRAH MIcro)
  110     dE    -4.986004e-07     2.260998e-04    -4.9848e-07      0.016 (TRAH MIcro)
  110     dE    -6.574663e-07     1.343021e-04    -6.5708e-07      0.024 (TRAH MIcro)
  110     dE    -7.024108e-07     7.860519e-05    -7.0191e-07      0.027 (TRAH MIcro)
  110     dE    -7.400592e-07     1.290405e-04    -7.3945e-07      0.029 (TRAH MIcro)
  110     dE    -1.062025e-06     4.848744e-04    -1.0596e-06      0.048 (TRAH MIcro)
  110     dE    -1.767610e-06     2.802071e-04    -2.8306e-04      0.051 (TRAH MIcro)
  110     dE    -2.268909e-06     1.449483e-04    -3.1309e-04      0.060 (TRAH MIcro)
  110     dE    -2.536986e-06     2.106803e-04    -3.4294e-04      0.063 (TRAH MIcro)
  110     dE    -2.661623e-06     1.640947e-04    -3.7825e-04      0.063 (TRAH MIcro)
  110     dE    -2.837999e-06     3.082976e-04    -4.2873e-04      0.063 (TRAH MIcro)
  110     dE    -1.710786e-06     2.245724e-04    -7.3491e-04      0.037 (TRAH MIcro)
  110     dE    -2.195306e-06     1.140771e-04    -7.7428e-04      0.043 (TRAH MIcro)
  110     dE    -2.313289e-06     1.089950e-04    -7.8214e-04      0.045 (TRAH MIcro)
  110     dE    -2.645349e-06     2.173016e-04    -8.0178e-04      0.048 (TRAH MIcro)
  110     dE    -3.945321e-06     3.778399e-04    -8.5653e-04      0.060 (TRAH MIcro)
  110     dE    -4.370543e-06     8.946313e-05    -8.8421e-04      0.063 (TRAH MIcro)
  110     dE    -4.416766e-06     1.648963e-04    -8.9817e-04      0.063 (TRAH MIcro)
  110     dE    -4.488044e-06     1.434808e-04    -9.2750e-04      0.063 (TRAH MIcro)
  110     dE    -4.585801e-06     1.476619e-04    -9.4912e-04      0.063 (TRAH MIcro)
  111       -295.077848912643     2.953208e-04                     0.042 (TRAH MAcro)   No
  111     dE    -9.695419e-08     8.510257e-05    -9.6954e-08      0.000 (TRAH MIcro)
  111     dE    -1.200522e-07     8.030860e-05    -1.2005e-07      0.001 (TRAH MIcro)
  111     dE    -1.496050e-07     6.132123e-05    -1.4960e-07      0.002 (TRAH MIcro)
  111     dE    -1.625088e-07     6.550099e-05    -1.6251e-07      0.002 (TRAH MIcro)
  111     dE    -2.316184e-07     1.838447e-04    -2.3161e-07      0.006 (TRAH MIcro)
  111     dE    -3.132758e-07     1.076930e-04    -3.1323e-07      0.011 (TRAH MIcro)
  111     dE    -3.473000e-07     8.471698e-05    -3.4724e-07      0.014 (TRAH MIcro)
  111     dE    -4.126756e-07     1.817948e-04    -4.1254e-07      0.018 (TRAH MIcro)
  111     dE    -6.861267e-07     3.833031e-04    -6.8514e-07      0.038 (TRAH MIcro)
  111     dE    -1.059982e-06     1.515916e-04    -1.9678e-04      0.042 (TRAH MIcro)
  111     dE    -1.149535e-06     1.490052e-04    -2.4484e-04      0.042 (TRAH MIcro)
  111     dE    -1.247272e-06     1.653216e-04    -3.0293e-04      0.042 (TRAH MIcro)
  111     dE    -1.353027e-06     1.667887e-04    -3.6866e-04      0.042 (TRAH MIcro)
  111     dE    -1.355841e-06     2.986221e-04    -5.9588e-04      0.036 (TRAH MIcro)
  111     dE    -2.098059e-06     2.302935e-04    -8.5607e-04      0.042 (TRAH MIcro)
  111     dE    -2.164149e-06     6.903670e-05    -8.9963e-04      0.042 (TRAH MIcro)
  111     dE    -2.177313e-06     5.952535e-05    -9.0833e-04      0.042 (TRAH MIcro)
  111     dE    -6.497891e-07     6.481322e-05    -1.2686e-03      0.016 (TRAH MIcro)
  111     dE    -6.856484e-07     3.211805e-05    -1.2799e-03      0.017 (TRAH MIcro)
  111     dE    -7.027188e-07     2.460632e-05    -1.2844e-03      0.017 (TRAH MIcro)
  112       -295.077849365338     4.978264e-05                           (NR   MAcro)
  112     dE    -7.478054e-09     4.536790e-05                           (NR   MIcro)
  112     dE    -2.483550e-08     9.953806e-05                           (NR   MIcro)
  112     dE    -9.274509e-08     1.198471e-04                           (NR   MIcro)
  112     dE    -1.598105e-07     1.662396e-04                           (NR   MIcro)
  112     dE    -2.705843e-07     1.715392e-04                           (NR   MIcro)
  112     dE    -3.131082e-07     4.903544e-05                           (NR   MIcro)
  112     dE    -3.254610e-07     6.893812e-05                           (NR   MIcro)
  112     dE    -3.738449e-07     1.562402e-04                           (NR   MIcro)
  112     dE    -6.489275e-07     3.697492e-04                           (NR   MIcro)
  112     dE    -1.270510e-06     4.038029e-04                           (NR   MIcro)
  112     dE     3.587325e-06     3.005862e-03                           (NR   MIcro)
  112     dE     3.973084e-07     3.367894e-04                           (NR   MIcro)
  112     dE     9.146792e-08     2.884930e-04                           (NR   MIcro)
  112     dE    -7.060354e-08     1.825019e-04                           (NR   MIcro)
  112     dE    -1.063097e-07     5.594999e-05                           (NR   MIcro)
  112     dE    -1.168645e-07     6.197917e-05                           (NR   MIcro)
  112     dE    -1.457428e-07     1.451303e-04                           (NR   MIcro)
  112     dE    -2.306144e-07     1.893697e-04                           (NR   MIcro)
  112     dE    -2.486823e-07     2.854952e-05                           (NR   MIcro)
  112     dE    -2.517078e-07     3.260766e-05                           (NR   MIcro)
  112     dE    -2.571324e-07     4.416268e-05                           (NR   MIcro)
  112     dE    -2.666652e-07     5.680196e-05                           (NR   MIcro)
  112     dE    -2.960171e-07     1.398497e-04                           (NR   MIcro)
  112     dE     3.407731e-07     9.417802e-04                           (NR   MIcro)
  113       -295.077845574295     1.033730e-03                     0.042 (TRAH MAcro)   No
  113     dE    -9.506997e-07     2.620252e-04    -9.5070e-07      0.002 (TRAH MIcro)
  113     dE    -1.109464e-06     1.659214e-04    -1.1095e-06      0.002 (TRAH MIcro)
  113     dE    -1.201348e-06     2.120996e-04    -1.2013e-06      0.003 (TRAH MIcro)
  113     dE    -1.402778e-06     2.740109e-04    -1.4027e-06      0.007 (TRAH MIcro)
  113     dE    -1.620183e-06     2.417998e-04    -1.6200e-06      0.012 (TRAH MIcro)
  113     dE    -1.834006e-06     2.658507e-04    -1.8335e-06      0.017 (TRAH MIcro)
  113     dE    -2.032622e-06     1.924595e-04    -2.0316e-06      0.022 (TRAH MIcro)
  113     dE    -2.072335e-06     7.859316e-05    -2.0712e-06      0.023 (TRAH MIcro)
  114       -295.077847591872     8.454766e-05                           (NR   MAcro)
  114     dE    -2.481689e-08     1.016839e-04                           (NR   MIcro)
  114     dE    -1.554671e-07     3.344618e-04                           (NR   MIcro)
  114     dE    -3.672900e-07     2.063967e-04                           (NR   MIcro)
  114     dE    -4.660441e-07     1.581299e-04                           (NR   MIcro)
  114     dE    -5.661465e-07     1.854753e-04                           (NR   MIcro)
  114     dE    -6.084166e-07     8.338768e-05                           (NR   MIcro)
  114     dE    -6.508417e-07     1.605467e-04                           (NR   MIcro)
  114     dE    -8.878236e-07     4.855648e-04                           (NR   MIcro)
  114     dE    -1.650086e-06     5.240423e-04                           (NR   MIcro)
  114     dE    -1.946310e-06     1.451870e-04                           (NR   MIcro)
  114     dE    -2.003394e-06     1.334116e-04                           (NR   MIcro)
  114     dE    -2.100837e-06     2.154906e-04                           (NR   MIcro)
  114     dE    -2.320857e-06     2.876665e-04                           (NR   MIcro)
  114     dE    -2.848359e-06     4.941374e-04                           (NR   MIcro)
  114     dE    -1.214552e-05     4.326247e-03                           (NR   MIcro)
  114     dE     8.434129e-06     1.341478e-03                           (NR   MIcro)
  114     dE     3.580751e-06     1.094620e-03                           (NR   MIcro)
  114     dE    -5.870589e-08     7.061928e-04                           (NR   MIcro)
  114     dE    -4.818907e-07     1.120404e-04                           (NR   MIcro)
  114     dE    -5.334188e-07     1.266132e-04                           (NR   MIcro)
  114     dE    -6.757401e-07     1.922871e-04                           (NR   MIcro)
  114     dE    -8.294092e-07     1.672039e-04                           (NR   MIcro)
  114     dE    -9.544365e-07     1.899901e-04                           (NR   MIcro)
  114     dE    -1.128240e-06     1.389870e-04                           (NR   MIcro)
  115       -295.077848795730     1.889957e-04                     0.051 (TRAH MAcro)   No
  115     dE    -3.880573e-08     5.052786e-05    -3.8806e-08      0.000 (TRAH MIcro)
  115     dE    -4.710851e-08     4.436986e-05    -4.7108e-08      0.000 (TRAH MIcro)
  115     dE    -6.417648e-08     9.266239e-05    -6.4176e-08      0.001 (TRAH MIcro)
  115     dE    -1.387179e-07     1.757824e-04    -1.3871e-07      0.006 (TRAH MIcro)
  115     dE    -3.167408e-07     2.153636e-04    -3.1663e-07      0.019 (TRAH MIcro)
  115     dE    -6.102231e-07     3.547001e-04    -6.0925e-07      0.040 (TRAH MIcro)
  115     dE    -1.133260e-06     2.152745e-04    -1.4646e-04      0.051 (TRAH MIcro)
  115     dE    -1.139314e-06     7.130782e-05    -1.9397e-04      0.047 (TRAH MIcro)
  115     dE    -1.218727e-06     1.583139e-04    -2.0108e-04      0.049 (TRAH MIcro)
  115     dE    -1.620537e-06     2.303572e-04    -3.4688e-04      0.051 (TRAH MIcro)
  115     dE    -1.120659e-06     6.753231e-05    -5.1660e-04      0.035 (TRAH MIcro)
  115     dE    -1.159602e-06     4.684047e-05    -5.2288e-04      0.035 (TRAH MIcro)
  115     dE    -1.206870e-06     7.176340e-05    -5.3012e-04      0.036 (TRAH MIcro)
  115     dE    -1.268326e-06     6.009547e-05    -5.3884e-04      0.037 (TRAH MIcro)
  115     dE    -1.353833e-06     1.012622e-04    -5.4974e-04      0.039 (TRAH MIcro)
  115     dE    -1.490730e-06     8.435203e-05    -5.6492e-04      0.041 (TRAH MIcro)
  115     dE    -1.538870e-06     4.142253e-05    -5.6970e-04      0.042 (TRAH MIcro)
  115     dE    -1.572107e-06     7.567458e-05    -5.7281e-04      0.042 (TRAH MIcro)
  115     dE    -1.701024e-06     1.054750e-04    -5.8372e-04      0.044 (TRAH MIcro)
  115     dE    -1.875935e-06     8.501059e-05    -5.9620e-04      0.047 (TRAH MIcro)
  115     dE    -1.914919e-06     3.210476e-05    -5.9868e-04      0.047 (TRAH MIcro)
  115     dE    -1.961264e-06     8.867808e-05    -6.0149e-04      0.048 (TRAH MIcro)
  115     dE    -2.138881e-06     1.219296e-04    -6.1109e-04      0.050 (TRAH MIcro)
  116       -295.077849637235     1.522805e-04                     0.051 (TRAH MAcro)   No
  116     dE    -2.934877e-08     5.683730e-05    -2.9349e-08      0.000 (TRAH MIcro)
  116     dE    -4.239850e-08     6.641108e-05    -4.2398e-08      0.001 (TRAH MIcro)
  116     dE    -6.010463e-08     6.452996e-05    -6.0105e-08      0.001 (TRAH MIcro)
  116     dE    -7.413722e-08     7.222506e-05    -7.4137e-08      0.002 (TRAH MIcro)
  116     dE    -1.165992e-07     1.758612e-04    -1.1660e-07      0.005 (TRAH MIcro)
  116     dE    -2.191130e-07     1.619292e-04    -2.1907e-07      0.013 (TRAH MIcro)
  116     dE    -2.465667e-07     5.431537e-05    -2.4651e-07      0.015 (TRAH MIcro)
  116     dE    -2.649311e-07     1.166498e-04    -2.6486e-07      0.017 (TRAH MIcro)
  116     dE    -4.214097e-07     2.876457e-04    -4.2102e-07      0.030 (TRAH MIcro)
  116     dE    -5.953947e-07     1.611279e-04    -5.9415e-07      0.046 (TRAH MIcro)
  116     dE    -6.909135e-07     1.744435e-04    -1.6975e-05      0.051 (TRAH MIcro)
  116     dE    -8.237766e-07     2.066529e-04    -7.3364e-05      0.051 (TRAH MIcro)
  116     dE    -9.176540e-07     1.828399e-04    -1.5796e-04      0.047 (TRAH MIcro)
  116     dE    -1.183032e-06     3.772847e-04    -2.2780e-04      0.051 (TRAH MIcro)
  116     dE    -9.402282e-07     1.174007e-04    -4.2317e-04      0.035 (TRAH MIcro)
  116     dE    -1.032068e-06     7.782889e-05    -4.3594e-04      0.037 (TRAH MIcro)
  116     dE    -1.090065e-06     9.560955e-05    -4.4331e-04      0.039 (TRAH MIcro)
  116     dE    -1.589346e-06     2.779670e-04    -4.9152e-04      0.048 (TRAH MIcro)
  116     dE    -2.009187e-06     1.942824e-04    -6.0352e-04      0.051 (TRAH MIcro)
  116     dE    -2.067572e-06     7.510186e-05    -6.3058e-04      0.051 (TRAH MIcro)
  116     dE    -2.094486e-06     1.045040e-04    -6.4313e-04      0.051 (TRAH MIcro)
  116     dE    -2.056585e-06     7.293301e-05    -6.6254e-04      0.050 (TRAH MIcro)
  116     dE    -2.158227e-06     1.128337e-04    -6.7294e-04      0.051 (TRAH MIcro)
  117       -295.077850069474     1.548065e-04                     0.034 (TRAH MAcro)   No
  117     dE    -3.280931e-08     5.727519e-05    -3.2809e-08      0.000 (TRAH MIcro)
  117     dE    -4.960413e-08     7.431507e-05    -4.9604e-08      0.001 (TRAH MIcro)
  117     dE    -6.952417e-08     5.511750e-05    -6.9524e-08      0.001 (TRAH MIcro)
  117     dE    -8.286784e-08     6.815677e-05    -8.2867e-08      0.002 (TRAH MIcro)
  117     dE    -1.657315e-07     2.068153e-04    -1.6572e-07      0.008 (TRAH MIcro)
  117     dE    -2.632762e-07     9.569957e-05    -2.6322e-07      0.015 (TRAH MIcro)
  117     dE    -2.842163e-07     5.106985e-05    -2.8414e-07      0.016 (TRAH MIcro)
  117     dE    -2.986882e-07     7.249784e-05    -2.9860e-07      0.017 (TRAH MIcro)
  117     dE    -3.592640e-07     2.088739e-04    -3.5909e-07      0.022 (TRAH MIcro)
  117     dE    -6.414690e-07     2.012343e-04    -1.4195e-04      0.034 (TRAH MIcro)
  117     dE    -6.345232e-07     1.274120e-04    -3.8084e-04      0.027 (TRAH MIcro)
  117     dE    -8.478656e-07     1.483969e-04    -4.2554e-04      0.032 (TRAH MIcro)
  117     dE    -9.805119e-07     1.174093e-04    -4.8610e-04      0.034 (TRAH MIcro)
  117     dE    -1.069932e-06     1.830821e-04    -5.7564e-04      0.034 (TRAH MIcro)
  117     dE    -6.224656e-07     9.807762e-05    -9.8485e-04      0.020 (TRAH MIcro)
  117     dE    -6.912169e-07     3.943559e-05    -1.0059e-03      0.021 (TRAH MIcro)
  117     dE    -7.312191e-07     5.861144e-05    -1.0169e-03      0.022 (TRAH MIcro)
  117     dE    -1.073264e-06     2.191643e-04    -1.0862e-03      0.027 (TRAH MIcro)
  117     dE    -1.446891e-06     7.493948e-05    -1.1362e-03      0.032 (TRAH MIcro)
  117     dE    -1.562145e-06     6.936524e-05    -1.1486e-03      0.033 (TRAH MIcro)
  117     dE    -1.633186e-06     6.014356e-05    -1.1574e-03      0.034 (TRAH MIcro)
  117     dE    -1.643862e-06     5.489053e-05    -1.1686e-03      0.034 (TRAH MIcro)
  117     dE    -1.651139e-06     6.426629e-05    -1.1762e-03      0.034 (TRAH MIcro)
  118       -295.077850342721     1.320786e-04                     0.023 (TRAH MAcro)   No
  118     dE    -2.120128e-08     3.904475e-05    -2.1201e-08      0.000 (TRAH MIcro)
  118     dE    -2.901510e-08     5.642954e-05    -2.9015e-08      0.001 (TRAH MIcro)
  118     dE    -5.704024e-08     8.459987e-05    -5.7040e-08      0.002 (TRAH MIcro)
  118     dE    -8.361001e-08     1.112890e-04    -8.3609e-08      0.004 (TRAH MIcro)
  118     dE    -1.517966e-07     1.880712e-04    -1.5178e-07      0.009 (TRAH MIcro)
  118     dE    -2.194804e-07     6.615952e-05    -2.1943e-07      0.015 (TRAH MIcro)
  118     dE    -2.302136e-07     4.050911e-05    -2.3016e-07      0.015 (TRAH MIcro)
  118     dE    -2.416565e-07     7.457016e-05    -2.4159e-07      0.016 (TRAH MIcro)
  118     dE    -3.302198e-07     1.840022e-04    -3.6364e-05      0.023 (TRAH MIcro)
  118     dE    -3.665228e-07     5.619679e-05    -1.2026e-04      0.023 (TRAH MIcro)
  118     dE    -3.855505e-07     9.847296e-05    -1.6508e-04      0.023 (TRAH MIcro)
  118     dE    -4.079935e-07     1.045643e-04    -2.8561e-04      0.022 (TRAH MIcro)
  118     dE    -4.620127e-07     1.040709e-04    -3.5342e-04      0.023 (TRAH MIcro)
  118     dE    -5.130929e-07     1.744217e-04    -4.8433e-04      0.023 (TRAH MIcro)
  118     dE    -3.703289e-07     4.054761e-05    -7.5390e-04      0.016 (TRAH MIcro)
  118     dE    -3.850877e-07     3.148208e-05    -7.6136e-04      0.016 (TRAH MIcro)
  118     dE    -4.111437e-07     7.759454e-05    -7.7339e-04      0.017 (TRAH MIcro)
  118     dE    -6.648690e-07     1.587231e-04    -8.8002e-04      0.023 (TRAH MIcro)
  118     dE    -7.150885e-07     7.800989e-05    -1.0089e-03      0.023 (TRAH MIcro)
  118     dE    -7.236807e-07     2.984170e-05    -1.0304e-03      0.023 (TRAH MIcro)
  118     dE    -7.301167e-07     6.310631e-05    -1.0468e-03      0.023 (TRAH MIcro)
  118     dE    -1.839553e-07     7.327087e-06    -1.6408e-03      0.007 (TRAH MIcro)
  119       -295.077850515180     1.930258e-05                           (NR   MAcro)
  119     dE    -1.102289e-08     8.679392e-05                           (NR   MIcro)
  119     dE    -8.118017e-08     1.750486e-04                           (NR   MIcro)
  119     dE    -1.752642e-07     8.675270e-05                           (NR   MIcro)
  119     dE    -2.011091e-07     7.496405e-05                           (NR   MIcro)
  119     dE    -2.205829e-07     5.541616e-05                           (NR   MIcro)
  119     dE    -2.283730e-07     3.078201e-05                           (NR   MIcro)
  119     dE    -2.471029e-07     8.672119e-05                           (NR   MIcro)
  119     dE    -3.131950e-07     1.602989e-04                           (NR   MIcro)
  119     dE    -5.014849e-07     1.649817e-04                           (NR   MIcro)
  119     dE    -5.625778e-07     1.244985e-04                           (NR   MIcro)
  119     dE    -1.025233e-06     6.617811e-04                           (NR   MIcro)
  119     dE     1.161337e-06     8.576706e-04                           (NR   MIcro)
  119     dE     2.500689e-07     2.703363e-04                           (NR   MIcro)
  119     dE     4.373515e-08     2.474321e-04                           (NR   MIcro)
  119     dE    -4.437232e-08     1.018007e-04                           (NR   MIcro)
  119     dE    -1.008677e-07     1.738590e-04                           (NR   MIcro)
  119     dE    -2.129373e-07     1.644079e-04                           (NR   MIcro)
  119     dE    -2.449711e-07     5.784366e-05                           (NR   MIcro)
  119     dE    -2.483866e-07     2.515647e-05                           (NR   MIcro)
  119     dE    -2.518817e-07     3.813123e-05                           (NR   MIcro)
  119     dE    -2.682012e-07     1.165786e-04                           (NR   MIcro)
  119     dE    -3.210064e-07     1.605914e-04                           (NR   MIcro)
  119     dE    -7.174807e-07     7.614582e-04                           (NR   MIcro)
  119     dE     3.032951e-08     2.400092e-04                           (NR   MIcro)
  120       -295.077849862597     2.504553e-04                     0.027 (TRAH MAcro)   No
  120     dE    -6.136640e-08     9.908278e-05    -6.1366e-08      0.001 (TRAH MIcro)
  120     dE    -8.840384e-08     9.400303e-05    -8.8404e-08      0.001 (TRAH MIcro)
  120     dE    -1.751274e-07     3.105794e-04    -1.7512e-07      0.004 (TRAH MIcro)
  120     dE    -3.221694e-07     1.349139e-04    -3.2214e-07      0.010 (TRAH MIcro)
  120     dE    -3.558086e-07     7.397153e-05    -3.5576e-07      0.011 (TRAH MIcro)
  120     dE    -3.676416e-07     6.779900e-05    -3.6759e-07      0.012 (TRAH MIcro)
  120     dE    -3.878005e-07     8.729508e-05    -3.8774e-07      0.013 (TRAH MIcro)
  120     dE    -4.122698e-07     1.051533e-04    -4.1219e-07      0.014 (TRAH MIcro)
  120     dE    -5.152735e-07     2.612625e-04    -5.1506e-07      0.020 (TRAH MIcro)
  120     dE    -8.195211e-07     2.123297e-04    -3.5076e-04      0.027 (TRAH MIcro)
  120     dE    -7.706799e-07     4.158456e-05    -5.0907e-04      0.023 (TRAH MIcro)
  120     dE    -7.797848e-07     2.614388e-05    -5.1133e-04      0.024 (TRAH MIcro)
  120     dE    -7.980069e-07     7.349954e-05    -5.1571e-04      0.024 (TRAH MIcro)
  120     dE    -8.400837e-07     4.971188e-05    -5.2500e-04      0.025 (TRAH MIcro)
  120     dE    -8.679866e-07     5.451075e-05    -5.3059e-04      0.026 (TRAH MIcro)
  120     dE    -9.120478e-07     6.878148e-05    -5.3859e-04      0.027 (TRAH MIcro)
  120     dE    -9.354610e-07     4.582126e-05    -5.5501e-04      0.027 (TRAH MIcro)
  120     dE    -9.467424e-07     7.613428e-05    -5.7798e-04      0.027 (TRAH MIcro)
  120     dE    -9.930091e-07     1.057839e-04    -6.7773e-04      0.027 (TRAH MIcro)
  120     dE    -1.011098e-06     3.724309e-05    -7.1777e-04      0.027 (TRAH MIcro)
  120     dE    -9.695711e-07     1.401361e-05    -7.3695e-04      0.026 (TRAH MIcro)
  121       -295.077850525061     4.322267e-05                           (NR   MAcro)
  121     dE    -5.497116e-09     3.587452e-05                           (NR   MIcro)
  121     dE    -2.986441e-08     1.218267e-04                           (NR   MIcro)
  121     dE    -1.337158e-07     1.499819e-04                           (NR   MIcro)
  121     dE    -1.750176e-07     6.474555e-05                           (NR   MIcro)
  121     dE    -2.045672e-07     9.691886e-05                           (NR   MIcro)
  121     dE    -2.401934e-07     6.280159e-05                           (NR   MIcro)
  121     dE    -2.833129e-07     1.477559e-04                           (NR   MIcro)
  121     dE    -4.880812e-07     2.600033e-04                           (NR   MIcro)
  121     dE    -8.855217e-07     2.470542e-04                           (NR   MIcro)
  121     dE    -1.020396e-06     1.190366e-04                           (NR   MIcro)
  121     dE    -1.251073e-06     3.997413e-04                           (NR   MIcro)
  121     dE    -5.978223e-06     2.648830e-03                           (NR   MIcro)
  121     dE     2.302403e-06     8.477533e-04                           (NR   MIcro)
  121     dE     7.691947e-07     5.471269e-04                           (NR   MIcro)
  121     dE     2.902603e-07     2.289246e-04                           (NR   MIcro)
  121     dE     7.695702e-08     2.657371e-04                           (NR   MIcro)
  121     dE    -1.663541e-07     2.987591e-04                           (NR   MIcro)
  121     dE    -2.706560e-07     1.474170e-04                           (NR   MIcro)
  121     dE    -2.863473e-07     4.767225e-05                           (NR   MIcro)
  121     dE    -2.914652e-07     4.044246e-05                           (NR   MIcro)
  121     dE    -3.117797e-07     1.666438e-04                           (NR   MIcro)
  121     dE    -1.041686e-06     8.713045e-04                           (NR   MIcro)
  121     dE     4.157560e-07     5.253079e-04                           (NR   MIcro)
  121     dE     3.320446e-08     1.955364e-04                           (NR   MIcro)
  122       -295.077850073776     2.067088e-04                     0.027 (TRAH MAcro)   No
  122     dE    -3.868409e-08     5.464220e-05    -3.8684e-08      0.000 (TRAH MIcro)
  122     dE    -5.035445e-08     6.337345e-05    -5.0354e-08      0.001 (TRAH MIcro)
  122     dE    -7.756228e-08     1.215087e-04    -7.7562e-08      0.002 (TRAH MIcro)
  122     dE    -1.201245e-07     1.070411e-04    -1.2012e-07      0.004 (TRAH MIcro)
  122     dE    -1.979811e-07     2.224850e-04    -1.9796e-07      0.009 (TRAH MIcro)
  122     dE    -4.528328e-07     3.025712e-04    -4.5253e-07      0.026 (TRAH MIcro)
  122     dE    -5.687804e-07     1.096600e-04    -1.3004e-04      0.027 (TRAH MIcro)
  122     dE    -5.864905e-07     6.228097e-05    -1.5316e-04      0.027 (TRAH MIcro)
  122     dE    -6.109546e-07     1.212112e-04    -1.8800e-04      0.027 (TRAH MIcro)
  122     dE    -6.911930e-07     2.449387e-04    -4.3196e-04      0.025 (TRAH MIcro)
  122     dE    -8.169329e-07     8.997696e-05    -5.2028e-04      0.027 (TRAH MIcro)
  122     dE    -8.330349e-07     6.325518e-05    -5.4866e-04      0.027 (TRAH MIcro)
  122     dE    -8.461319e-07     6.893535e-05    -5.7157e-04      0.027 (TRAH MIcro)
  122     dE    -8.533959e-07     2.940726e-05    -5.8432e-04      0.027 (TRAH MIcro)
  122     dE    -8.596800e-07     5.497669e-05    -5.9560e-04      0.027 (TRAH MIcro)
  122     dE    -8.755311e-07     6.169808e-05    -6.2534e-04      0.027 (TRAH MIcro)
  122     dE    -8.747661e-07     2.487142e-05    -6.4073e-04      0.027 (TRAH MIcro)
  122     dE    -8.827655e-07     2.683729e-05    -6.4226e-04      0.027 (TRAH MIcro)
  122     dE    -8.938513e-07     6.128114e-05    -6.6208e-04      0.027 (TRAH MIcro)
  122     dE    -9.046915e-07     4.125137e-05    -6.8578e-04      0.027 (TRAH MIcro)
  122     dE    -9.088226e-07     2.591594e-05    -6.9505e-04      0.027 (TRAH MIcro)
  122     dE    -9.127011e-07     2.724320e-05    -7.0408e-04      0.027 (TRAH MIcro)
  122     dE    -4.925293e-07     8.212933e-06    -1.0196e-03      0.015 (TRAH MIcro)
  123       -295.077850477709     2.389459e-05                           (NR   MAcro)
  123     dE    -6.242624e-09     5.841848e-05                           (NR   MIcro)
  123     dE    -5.843575e-08     1.808492e-04                           (NR   MIcro)
  123     dE    -3.120701e-07     2.217960e-04                           (NR   MIcro)
  123     dE    -4.603596e-07     1.741890e-04                           (NR   MIcro)
  123     dE    -6.276589e-07     2.170863e-04                           (NR   MIcro)
  123     dE    -7.623388e-07     1.163466e-04                           (NR   MIcro)
  123     dE    -9.465949e-07     2.778966e-04                           (NR   MIcro)
  123     dE    -2.073504e-06     9.091125e-04                           (NR   MIcro)
  123     dE     2.737390e-06     8.041488e-04                           (NR   MIcro)
  123     dE     1.917041e-06     2.631389e-04                           (NR   MIcro)
  123     dE     1.272661e-06     4.624982e-04                           (NR   MIcro)
  123     dE     6.076307e-07     3.071564e-04                           (NR   MIcro)
  123     dE     4.066920e-07     1.463830e-04                           (NR   MIcro)
  123     dE     3.180750e-07     1.781030e-04                           (NR   MIcro)
  123     dE     2.450986e-07     1.048459e-04                           (NR   MIcro)
  123     dE     1.980373e-07     1.304860e-04                           (NR   MIcro)
  123     dE     8.149890e-08     2.390793e-04                           (NR   MIcro)
  123     dE    -4.853379e-08     1.494138e-04                           (NR   MIcro)
  123     dE    -7.494125e-08     7.114255e-05                           (NR   MIcro)
  123     dE    -9.177351e-08     7.401927e-05                           (NR   MIcro)
  123     dE    -1.783014e-07     3.435575e-04                           (NR   MIcro)
  123     dE    -5.156863e-07     2.667276e-04                           (NR   MIcro)
  123     dE    -7.707097e-07     3.129780e-04                           (NR   MIcro)
  123     dE    -1.378147e-06     4.689624e-04                           (NR   MIcro)
  124       -295.077847453836     8.760368e-04                     0.033 (TRAH MAcro)   No
  124     dE    -7.386327e-07     1.914378e-04    -7.3863e-07      0.001 (TRAH MIcro)
  124     dE    -9.149891e-07     2.797485e-04    -9.1498e-07      0.003 (TRAH MIcro)
  124     dE    -2.106016e-06     9.472344e-04    -2.1053e-06      0.019 (TRAH MIcro)
  124     dE    -3.666401e-06     4.388797e-04    -5.5949e-04      0.033 (TRAH MIcro)
  124     dE    -3.921922e-06     1.962860e-04    -8.3493e-04      0.033 (TRAH MIcro)
  124     dE    -3.978210e-06     1.088872e-04    -8.7267e-04      0.033 (TRAH MIcro)
  124     dE    -4.004164e-06     6.608170e-05    -9.0080e-04      0.033 (TRAH MIcro)
  125       -295.077851152033     9.416308e-05                           (NR   MAcro)
  125     dE    -2.103967e-08     6.523501e-05                           (NR   MIcro)
  125     dE    -6.373330e-08     1.745157e-04                           (NR   MIcro)
  125     dE    -4.056532e-07     3.725871e-04                           (NR   MIcro)
  125     dE    -6.795042e-07     1.524277e-04                           (NR   MIcro)
  125     dE    -7.422351e-07     9.024092e-05                           (NR   MIcro)
  125     dE    -7.808781e-07     1.173647e-04                           (NR   MIcro)
  125     dE    -9.482736e-07     3.155814e-04                           (NR   MIcro)
  125     dE    -1.330541e-06     2.960770e-04                           (NR   MIcro)
  125     dE    -2.225218e-06     7.792756e-04                           (NR   MIcro)
  125     dE     1.115290e-05     3.322191e-03                           (NR   MIcro)
  125     dE     2.176199e-06     8.221478e-04                           (NR   MIcro)
  125     dE     3.506200e-07     5.242007e-04                           (NR   MIcro)
  125     dE    -8.526525e-08     1.500472e-04                           (NR   MIcro)
  125     dE    -1.143376e-07     5.306490e-05                           (NR   MIcro)
  125     dE    -1.348906e-07     1.273247e-04                           (NR   MIcro)
  125     dE    -2.181459e-07     2.037655e-04                           (NR   MIcro)
  125     dE    -3.246714e-07     2.065387e-04                           (NR   MIcro)
  125     dE    -5.875294e-07     5.041360e-04                           (NR   MIcro)
  125     dE    -1.044601e-06     2.962322e-04                           (NR   MIcro)
  125     dE    -1.230960e-06     2.025839e-04                           (NR   MIcro)
  125     dE    -1.383355e-06     3.264202e-04                           (NR   MIcro)
  125     dE    -6.019449e-06     4.168441e-03                           (NR   MIcro)
  125     dE     1.411898e-06     3.916721e-04                           (NR   MIcro)
  125     dE     1.134782e-06     1.736501e-04                           (NR   MIcro)
  126       -295.077845711207     4.787699e-04                     0.039 (TRAH MAcro)   No
  126     dE    -2.633667e-07     1.261609e-04    -2.6337e-07      0.001 (TRAH MIcro)
  126     dE    -3.669344e-07     2.262927e-04    -3.6693e-07      0.002 (TRAH MIcro)
  126     dE    -1.075943e-06     3.945770e-04    -1.0757e-06      0.015 (TRAH MIcro)
  126     dE    -1.397611e-06     2.285097e-04    -1.3970e-06      0.021 (TRAH MIcro)
  126     dE    -1.756614e-06     3.447483e-04    -1.7552e-06      0.028 (TRAH MIcro)
  126     dE    -1.973400e-06     1.334910e-04    -1.9713e-06      0.032 (TRAH MIcro)
  126     dE    -2.053387e-06     1.533166e-04    -2.0510e-06      0.034 (TRAH MIcro)
  126     dE    -2.388435e-06     4.370545e-04    -8.2097e-05      0.039 (TRAH MIcro)
  126     dE    -2.864988e-06     2.814892e-04    -5.6129e-04      0.038 (TRAH MIcro)
  126     dE    -3.029889e-06     7.975703e-05    -6.4079e-04      0.039 (TRAH MIcro)
  126     dE    -3.039923e-06     3.390100e-05    -6.4984e-04      0.039 (TRAH MIcro)
  127       -295.077848638270     7.285376e-05                           (NR   MAcro)
  127     dE    -2.571639e-08     9.767195e-05                           (NR   MIcro)
  127     dE    -1.164173e-07     2.469309e-04                           (NR   MIcro)
  127     dE    -6.290236e-07     3.119265e-04                           (NR   MIcro)
  127     dE    -1.006971e-06     2.944338e-04                           (NR   MIcro)
  127     dE    -1.456521e-06     3.149427e-04                           (NR   MIcro)
  127     dE    -1.799343e-06     2.268717e-04                           (NR   MIcro)
  127     dE    -2.002988e-06     2.225920e-04                           (NR   MIcro)
  127     dE    -2.822490e-06     7.110785e-04                           (NR   MIcro)
  127     dE    -6.738426e-06     1.076127e-03                           (NR   MIcro)
  127     dE    -9.409033e-06     4.475661e-04                           (NR   MIcro)
  127     dE    -1.100712e-05     8.546415e-04                           (NR   MIcro)
  127     dE    -1.653400e-05     1.604229e-03                           (NR   MIcro)
  127     dE    -6.398156e-05     7.043193e-03                           (NR   MIcro)
  127     dE     2.158234e-05     3.155868e-03                           (NR   MIcro)
  127     dE     6.151482e-06     1.064059e-03                           (NR   MIcro)
  127     dE     3.655333e-06     7.129746e-04                           (NR   MIcro)
  127     dE     1.763262e-06     8.299926e-04                           (NR   MIcro)
  127     dE    -1.957983e-06     1.028756e-03                           (NR   MIcro)
  127     dE    -2.458232e-06     1.861677e-04                           (NR   MIcro)
  127     dE    -2.533549e-06     1.506837e-04                           (NR   MIcro)
  127     dE    -2.832312e-06     7.106178e-04                           (NR   MIcro)
  127     dE    -6.040708e-06     1.077887e-03                           (NR   MIcro)
  127     dE    -1.356648e-05     2.219441e-03                           (NR   MIcro)
  127     dE     2.874951e-05     3.947901e-03                           (NR   MIcro)
  128       -295.074403256605     6.049490e-02                     0.047 (TRAH MAcro)   No
  128     dE    -2.955483e-03     7.090217e-03    -2.3096e-01      0.047 (TRAH MIcro)
  128     dE    -3.066221e-03     1.965557e-03    -1.0979e-01      0.047 (TRAH MIcro)
  129       -295.077470345262     5.578962e-03                     0.057 (TRAH MAcro)   No
  129     dE    -3.754991e-05     1.305639e-03    -3.7545e-05      0.011 (TRAH MIcro)
  129     dE    -4.403264e-05     1.448245e-03    -4.4020e-05      0.017 (TRAH MIcro)
  129     dE    -6.788111e-05     2.072680e-03    -9.8709e-04      0.057 (TRAH MIcro)
  129     dE    -7.434552e-05     8.806111e-04    -4.6964e-03      0.054 (TRAH MIcro)
  129     dE    -7.862010e-05     6.032137e-04    -5.5821e-03      0.057 (TRAH MIcro)
  129     dE    -7.951737e-05     2.674705e-04    -6.1251e-03      0.057 (TRAH MIcro)
  130       -295.077549647046     4.726427e-04                     0.068 (TRAH MAcro)   No
  130     dE    -6.861183e-06     2.116313e-03    -6.8589e-06      0.018 (TRAH MIcro)
  130     dE    -3.131373e-05     2.394561e-03    -1.8034e-03      0.067 (TRAH MIcro)
  130     dE    -3.966174e-05     6.754053e-04    -3.4711e-03      0.068 (TRAH MIcro)
  130     dE    -4.014808e-05     1.689008e-04    -3.5825e-03      0.068 (TRAH MIcro)
  130     dE    -4.027279e-05     1.781714e-04    -3.6212e-03      0.068 (TRAH MIcro)
  130     dE    -4.008190e-05     2.251907e-04    -3.7280e-03      0.068 (TRAH MIcro)
  130     dE    -4.065271e-05     1.927132e-04    -3.7476e-03      0.068 (TRAH MIcro)
  130     dE    -4.076364e-05     1.846038e-04    -3.7957e-03      0.068 (TRAH MIcro)
  130     dE    -4.083205e-05     1.084139e-04    -3.8323e-03      0.068 (TRAH MIcro)
  130     dE    -4.085078e-05     3.849624e-05    -3.8426e-03      0.068 (TRAH MIcro)
  131       -295.077589872702     3.385409e-04                     0.082 (TRAH MAcro)   No
  131     dE    -6.477237e-06     2.264656e-03    -6.4734e-06      0.024 (TRAH MIcro)
  131     dE    -3.249585e-05     1.045929e-03    -1.7355e-03      0.082 (TRAH MIcro)
  131     dE    -3.392029e-05     2.228792e-04    -1.9514e-03      0.082 (TRAH MIcro)
  131     dE    -3.412815e-05     2.866825e-04    -1.9842e-03      0.082 (TRAH MIcro)
  131     dE    -3.472552e-05     4.563946e-04    -2.0981e-03      0.082 (TRAH MIcro)
  131     dE    -3.569588e-05     3.478415e-04    -2.3391e-03      0.082 (TRAH MIcro)
  131     dE    -3.589353e-05     1.514515e-04    -2.3948e-03      0.082 (TRAH MIcro)
  131     dE    -3.596433e-05     1.329366e-04    -2.4155e-03      0.082 (TRAH MIcro)
  131     dE    -3.600499e-05     5.382657e-05    -2.4281e-03      0.082 (TRAH MIcro)
  131     dE    -3.601175e-05     3.663783e-05    -2.4304e-03      0.082 (TRAH MIcro)
  131     dE    -3.602245e-05     7.324578e-05    -2.4340e-03      0.082 (TRAH MIcro)
  131     dE    -3.604241e-05     6.543950e-05    -2.4414e-03      0.082 (TRAH MIcro)
  131     dE    -3.604897e-05     2.546683e-05    -2.4438e-03      0.082 (TRAH MIcro)
  132       -295.077624661423     3.152990e-04                     0.098 (TRAH MAcro)   No
  132     dE    -2.415408e-06     1.350234e-03    -2.4151e-06      0.011 (TRAH MIcro)
  132     dE    -2.645422e-05     1.680446e-03    -8.2762e-04      0.098 (TRAH MIcro)
  132     dE    -2.831805e-05     3.160583e-04    -1.3300e-03      0.092 (TRAH MIcro)
  132     dE    -2.884733e-05     3.017295e-04    -1.3435e-03      0.093 (TRAH MIcro)
  132     dE    -3.022107e-05     4.883009e-04    -1.3749e-03      0.095 (TRAH MIcro)
  132     dE    -3.212703e-05     4.426516e-04    -1.4730e-03      0.098 (TRAH MIcro)
  132     dE    -3.298703e-05     4.111616e-04    -1.6095e-03      0.098 (TRAH MIcro)
  132     dE    -3.344833e-05     2.668985e-04    -1.6883e-03      0.098 (TRAH MIcro)
  132     dE    -3.357683e-05     1.025954e-04    -1.7110e-03      0.098 (TRAH MIcro)
  132     dE    -3.360014e-05     6.045710e-05    -1.7152e-03      0.098 (TRAH MIcro)
  132     dE    -3.364094e-05     1.488927e-04    -1.7230e-03      0.098 (TRAH MIcro)
  132     dE    -3.376416e-05     1.484422e-04    -1.7489e-03      0.098 (TRAH MIcro)
  132     dE    -3.380021e-05     6.761581e-05    -1.7574e-03      0.098 (TRAH MIcro)
  132     dE    -3.381229e-05     5.724571e-05    -1.7601e-03      0.098 (TRAH MIcro)
  132     dE    -3.382782e-05     6.778393e-05    -1.7642e-03      0.098 (TRAH MIcro)
  132     dE    -3.382620e-05     4.635263e-05    -1.7680e-03      0.098 (TRAH MIcro)
  132     dE    -3.385023e-05     7.500180e-05    -1.7704e-03      0.098 (TRAH MIcro)
  132     dE    -3.386149e-05     4.830043e-05    -1.7737e-03      0.098 (TRAH MIcro)
  132     dE    -3.386361e-05     2.205559e-05    -1.7745e-03      0.098 (TRAH MIcro)
  133       -295.077655407684     3.507283e-04                     0.118 (TRAH MAcro)   No
  133     dE    -1.092369e-06     8.089232e-04    -1.0923e-06      0.005 (TRAH MIcro)
  133     dE    -2.421415e-05     2.160088e-03    -4.6490e-04      0.118 (TRAH MIcro)
  133     dE    -2.937127e-05     5.054971e-04    -8.4201e-04      0.118 (TRAH MIcro)
  133     dE    -2.978610e-05     2.563821e-04    -8.7246e-04      0.118 (TRAH MIcro)
  133     dE    -3.042881e-05     5.159887e-04    -9.2216e-04      0.118 (TRAH MIcro)
  133     dE    -2.879347e-05     4.371362e-04    -1.1995e-03      0.105 (TRAH MIcro)
  133     dE    -3.063352e-05     3.919942e-04    -1.2271e-03      0.110 (TRAH MIcro)
  133     dE    -3.251856e-05     3.579230e-04    -1.2514e-03      0.114 (TRAH MIcro)
  133     dE    -3.337394e-05     1.409997e-04    -1.2613e-03      0.116 (TRAH MIcro)
  133     dE    -3.359375e-05     1.278059e-04    -1.2637e-03      0.117 (TRAH MIcro)
  133     dE    -3.407956e-05     3.384015e-04    -1.2796e-03      0.118 (TRAH MIcro)
  133     dE    -3.441360e-05     1.894547e-04    -1.3231e-03      0.118 (TRAH MIcro)
  133     dE    -3.447745e-05     9.917773e-05    -1.3319e-03      0.118 (TRAH MIcro)
  133     dE    -3.452583e-05     1.445771e-04    -1.3386e-03      0.118 (TRAH MIcro)
  133     dE    -3.462237e-05     1.748142e-04    -1.3528e-03      0.118 (TRAH MIcro)
  133     dE    -3.469943e-05     1.162045e-04    -1.3650e-03      0.118 (TRAH MIcro)
  133     dE    -3.474232e-05     1.383480e-04    -1.3720e-03      0.118 (TRAH MIcro)
  133     dE    -3.477568e-05     8.792796e-05    -1.3775e-03      0.118 (TRAH MIcro)
  133     dE    -3.478738e-05     5.823268e-05    -1.3795e-03      0.118 (TRAH MIcro)
  133     dE    -3.480302e-05     1.065893e-04    -1.3823e-03      0.118 (TRAH MIcro)
  133     dE    -3.483477e-05     1.136073e-04    -1.3882e-03      0.118 (TRAH MIcro)
  133     dE    -3.484800e-05     2.028595e-05    -1.3908e-03      0.118 (TRAH MIcro)
  134       -295.077684433124     4.930074e-04                     0.141 (TRAH MAcro)   No
  134     dE    -7.155434e-07     4.585718e-04    -7.1554e-07      0.003 (TRAH MIcro)
  134     dE    -1.322056e-05     2.729545e-03    -1.3095e-05      0.098 (TRAH MIcro)
  134     dE    -2.782470e-05     9.276909e-04    -4.6182e-04      0.141 (TRAH MIcro)
  134     dE    -2.883584e-05     2.308300e-04    -5.1324e-04      0.141 (TRAH MIcro)
  134     dE    -2.920149e-05     3.598880e-04    -5.3214e-04      0.141 (TRAH MIcro)
  134     dE    -3.038497e-05     5.581923e-04    -5.9754e-04      0.141 (TRAH MIcro)
  134     dE    -3.148042e-05     4.725792e-04    -6.6492e-04      0.141 (TRAH MIcro)
  134     dE    -3.251083e-05     5.284018e-04    -7.3391e-04      0.141 (TRAH MIcro)
  134     dE    -3.279437e-05     2.780097e-04    -8.0714e-04      0.139 (TRAH MIcro)
  134     dE    -3.327990e-05     1.515519e-04    -8.1113e-04      0.140 (TRAH MIcro)
  134     dE    -3.367400e-05     2.708737e-04    -8.1792e-04      0.141 (TRAH MIcro)
  134     dE    -2.759965e-05     3.719489e-04    -1.0702e-03      0.114 (TRAH MIcro)
  134     dE    -2.886322e-05     2.068779e-04    -1.0812e-03      0.117 (TRAH MIcro)
  134     dE    -2.919500e-05     8.782254e-05    -1.0838e-03      0.118 (TRAH MIcro)
  134     dE    -2.935557e-05     1.023793e-04    -1.0849e-03      0.119 (TRAH MIcro)
  134     dE    -2.960375e-05     1.067576e-04    -1.0867e-03      0.120 (TRAH MIcro)
  134     dE    -2.983021e-05     1.632554e-04    -1.0883e-03      0.120 (TRAH MIcro)
  134     dE    -3.057591e-05     2.809204e-04    -1.0928e-03      0.123 (TRAH MIcro)
  134     dE    -3.145069e-05     1.316652e-04    -1.0972e-03      0.126 (TRAH MIcro)
  134     dE    -3.154070e-05     2.770900e-05    -1.0976e-03      0.126 (TRAH MIcro)
  135       -295.077710681154     5.974174e-04                     0.170 (TRAH MAcro)   No
  135     dE    -6.536803e-07     3.234995e-04    -6.5368e-07      0.002 (TRAH MIcro)
  135     dE    -6.578535e-06     1.996021e-03    -6.5606e-06      0.052 (TRAH MIcro)
  135     dE    -2.355494e-05     1.506297e-03    -1.2004e-04      0.170 (TRAH MIcro)
  135     dE    -2.588678e-05     2.781123e-04    -2.0228e-04      0.170 (TRAH MIcro)
  135     dE    -2.617105e-05     2.578239e-04    -2.1236e-04      0.170 (TRAH MIcro)
  135     dE    -2.689803e-05     4.787384e-04    -2.3892e-04      0.170 (TRAH MIcro)
  135     dE    -2.778823e-05     4.361082e-04    -2.7379e-04      0.170 (TRAH MIcro)
  135     dE    -2.898824e-05     6.518987e-04    -3.2508e-04      0.170 (TRAH MIcro)
  135     dE    -2.965847e-05     4.467153e-04    -4.3685e-04      0.162 (TRAH MIcro)
  135     dE    -3.067943e-05     2.237941e-04    -4.4288e-04      0.166 (TRAH MIcro)
  135     dE    -3.134007e-05     2.869517e-04    -4.4656e-04      0.169 (TRAH MIcro)
  135     dE    -3.223207e-05     5.102296e-04    -4.8545e-04      0.170 (TRAH MIcro)
  135     dE    -3.276153e-05     2.747185e-04    -5.1514e-04      0.170 (TRAH MIcro)
  135     dE    -3.290597e-05     1.319423e-04    -5.2334e-04      0.170 (TRAH MIcro)
  135     dE    -3.301083e-05     2.283994e-04    -5.2945e-04      0.170 (TRAH MIcro)
  135     dE    -3.339274e-05     3.672449e-04    -5.5258e-04      0.170 (TRAH MIcro)
  135     dE    -3.360580e-05     2.268910e-04    -5.6598e-04      0.170 (TRAH MIcro)
  135     dE    -3.363981e-05     3.734575e-04    -5.8623e-04      0.169 (TRAH MIcro)
  135     dE    -3.405227e-05     1.784088e-04    -5.9562e-04      0.170 (TRAH MIcro)
  135     dE    -3.412230e-05     1.364782e-04    -6.0044e-04      0.170 (TRAH MIcro)
  135     dE    -3.432491e-05     5.248226e-04    -6.1463e-04      0.170 (TRAH MIcro)
  135     dE    -2.224736e-05     7.743490e-05    -9.0176e-04      0.108 (TRAH MIcro)
  135     dE    -2.230420e-05     3.088966e-05    -9.0209e-04      0.109 (TRAH MIcro)
  136       -295.077732604988     3.955949e-04                     0.204 (TRAH MAcro)   No
  136     dE    -4.838181e-07     4.027934e-04    -4.8382e-07      0.002 (TRAH MIcro)
  136     dE    -6.789684e-06     1.994414e-03    -6.7649e-06      0.060 (TRAH MIcro)
  136     dE    -2.108800e-05     1.479899e-03    -2.0369e-05      0.188 (TRAH MIcro)
  136     dE    -2.367625e-05     3.110489e-04    -3.9512e-05      0.204 (TRAH MIcro)
  136     dE    -2.412001e-05     3.344850e-04    -5.0440e-05      0.204 (TRAH MIcro)
  136     dE    -2.509897e-05     5.820040e-04    -7.4977e-05      0.204 (TRAH MIcro)
  136     dE    -2.694061e-05     6.860282e-04    -1.2428e-04      0.204 (TRAH MIcro)
  136     dE    -2.932819e-05     9.104682e-04    -1.9419e-04      0.204 (TRAH MIcro)
  136     dE    -3.335095e-05     9.077043e-04    -3.2386e-04      0.204 (TRAH MIcro)
  136     dE    -3.108768e-05     2.871759e-04    -4.1901e-04      0.181 (TRAH MIcro)
  136     dE    -3.146237e-05     9.518306e-05    -4.2083e-04      0.182 (TRAH MIcro)
  136     dE    -3.170324e-05     2.436507e-04    -4.2196e-04      0.183 (TRAH MIcro)
  136     dE    -3.277109e-05     4.268019e-04    -4.2661e-04      0.188 (TRAH MIcro)
  136     dE    -3.415844e-05     2.684960e-04    -4.3196e-04      0.194 (TRAH MIcro)
  136     dE    -3.510606e-05     2.973927e-04    -4.3524e-04      0.198 (TRAH MIcro)
  136     dE    -3.658821e-05     3.193908e-04    -4.4111e-04      0.204 (TRAH MIcro)
  136     dE    -3.677835e-05     2.855055e-04    -4.4923e-04      0.204 (TRAH MIcro)
  136     dE    -3.744404e-05     9.316193e-04    -4.7859e-04      0.204 (TRAH MIcro)
  136     dE    -3.858939e-05     3.938176e-04    -5.3066e-04      0.204 (TRAH MIcro)
  136     dE    -3.880752e-05     1.512783e-04    -5.4056e-04      0.204 (TRAH MIcro)
  136     dE    -3.783265e-05     2.726570e-04    -5.5287e-04      0.199 (TRAH MIcro)
  136     dE    -2.036751e-05     9.848668e-05    -8.2018e-04      0.109 (TRAH MIcro)
  136     dE    -2.047633e-05     4.113513e-05    -8.2083e-04      0.110 (TRAH MIcro)
  137       -295.077752751535     3.963809e-04                     0.245 (TRAH MAcro)   No
  137     dE    -4.158018e-07     3.431973e-04    -4.1580e-07      0.002 (TRAH MIcro)
  137     dE    -3.577909e-06     1.498719e-03    -3.5740e-06      0.033 (TRAH MIcro)
  137     dE    -2.001000e-05     1.763728e-03    -1.9303e-05      0.191 (TRAH MIcro)
  137     dE    -2.456883e-05     5.009547e-04    -2.3314e-05      0.232 (TRAH MIcro)
  137     dE    -2.566530e-05     4.947251e-04    -2.4250e-05      0.242 (TRAH MIcro)
  137     dE    -2.753936e-05     7.501580e-04    -5.0971e-05      0.245 (TRAH MIcro)
  137     dE    -3.038372e-05     8.477437e-04    -1.0158e-04      0.245 (TRAH MIcro)
  137     dE    -3.395589e-05     1.011708e-03    -1.6863e-04      0.245 (TRAH MIcro)
  137     dE    -3.941733e-05     1.075554e-03    -2.7807e-04      0.245 (TRAH MIcro)
  137     dE    -4.175457e-05     4.678493e-04    -3.2679e-04      0.245 (TRAH MIcro)
  137     dE    -4.196563e-05     2.532165e-04    -3.3874e-04      0.243 (TRAH MIcro)
  137     dE    -4.318924e-05     7.445394e-04    -3.5740e-04      0.245 (TRAH MIcro)
  137     dE    -3.885997e-05     5.196249e-04    -4.4815e-04      0.212 (TRAH MIcro)
  137     dE    -3.996616e-05     1.771778e-04    -4.5207e-04      0.216 (TRAH MIcro)
  137     dE    -4.032189e-05     1.755466e-04    -4.5329e-04      0.218 (TRAH MIcro)
  137     dE    -4.105204e-05     2.830354e-04    -4.5568e-04      0.220 (TRAH MIcro)
  137     dE    -4.160516e-05     2.050685e-04    -4.5743e-04      0.222 (TRAH MIcro)
  137     dE    -4.284271e-05     5.234256e-04    -4.6108e-04      0.227 (TRAH MIcro)
  137     dE    -4.449358e-05     3.046191e-04    -4.6543e-04      0.232 (TRAH MIcro)
  137     dE    -4.528289e-05     2.145423e-04    -4.6735e-04      0.235 (TRAH MIcro)
  137     dE    -4.662256e-05     5.920893e-04    -4.7039e-04      0.240 (TRAH MIcro)
  137     dE    -4.966558e-05     6.591061e-04    -5.2925e-04      0.244 (TRAH MIcro)
  137     dE    -5.072511e-05     3.348853e-04    -5.5468e-04      0.245 (TRAH MIcro)
  138       -295.077779302405     2.527946e-03                     0.245 (TRAH MAcro)   No
  138     dE    -5.476919e-06     2.143744e-04    -5.4769e-06      0.002 (TRAH MIcro)
  139       -295.077784781203     2.149933e-04                     0.293 (TRAH MAcro)   No
  139     dE    -2.506372e-07     3.316006e-04    -2.5064e-07      0.002 (TRAH MIcro)
  139     dE    -1.883655e-06     1.074320e-03    -1.8830e-06      0.019 (TRAH MIcro)
  139     dE    -6.141522e-06     1.026097e-03    -6.1149e-06      0.066 (TRAH MIcro)
  139     dE    -1.214185e-05     1.467691e-03    -1.1934e-05      0.132 (TRAH MIcro)
  139     dE    -2.547934e-05     1.865943e-03    -2.3763e-05      0.269 (TRAH MIcro)
  139     dE    -3.087062e-05     6.595801e-04    -5.8504e-05      0.293 (TRAH MIcro)
  139     dE    -3.202373e-05     4.725480e-04    -7.2188e-05      0.293 (TRAH MIcro)
  139     dE    -3.433313e-05     1.261142e-03    -1.0034e-04      0.293 (TRAH MIcro)
  139     dE    -4.010739e-05     1.593522e-03    -2.0791e-04      0.279 (TRAH MIcro)
  139     dE    -4.691752e-05     6.756222e-04    -2.6354e-04      0.293 (TRAH MIcro)
  139     dE    -4.772243e-05     4.124464e-04    -2.7458e-04      0.293 (TRAH MIcro)
  139     dE    -4.844300e-05     5.653287e-04    -2.8455e-04      0.293 (TRAH MIcro)
  139     dE    -4.950570e-05     5.431340e-04    -2.9954e-04      0.293 (TRAH MIcro)
  139     dE    -5.068326e-05     8.670096e-04    -3.1741e-04      0.293 (TRAH MIcro)
  139     dE    -5.228609e-05     7.302408e-04    -3.4052e-04      0.293 (TRAH MIcro)
  139     dE    -5.243991e-05     2.250411e-04    -3.4977e-04      0.292 (TRAH MIcro)
  139     dE    -5.287942e-05     2.037499e-04    -3.5069e-04      0.293 (TRAH MIcro)
  139     dE    -5.335782e-05     6.032243e-04    -3.5714e-04      0.293 (TRAH MIcro)
  139     dE    -4.098375e-05     1.776186e-04    -4.3171e-04      0.231 (TRAH MIcro)
  139     dE    -4.123522e-05     1.369204e-04    -4.3244e-04      0.232 (TRAH MIcro)
  139     dE    -4.163057e-05     1.892923e-04    -4.3353e-04      0.233 (TRAH MIcro)
  139     dE    -4.215512e-05     2.080572e-04    -4.3488e-04      0.235 (TRAH MIcro)
  139     dE    -4.294445e-05     2.540566e-04    -4.3678e-04      0.238 (TRAH MIcro)
  140       -295.077806330629     3.098476e-03                     0.293 (TRAH MAcro)   No
  140     dE    -8.202396e-06     1.874051e-04    -8.2023e-06      0.003 (TRAH MIcro)
  141       -295.077814535387     1.863542e-04                     0.352 (TRAH MAcro)   No
  141     dE    -1.886589e-07     2.759354e-04    -1.8866e-07      0.002 (TRAH MIcro)
  141     dE    -6.475124e-07     4.024903e-04    -6.4748e-07      0.007 (TRAH MIcro)
  141     dE    -1.219440e-06     3.819191e-04    -1.2192e-06      0.015 (TRAH MIcro)
  141     dE    -2.449568e-06     7.293593e-04    -2.4466e-06      0.035 (TRAH MIcro)
  141     dE    -5.257257e-06     6.458934e-04    -5.2240e-06      0.080 (TRAH MIcro)
  141     dE    -5.907419e-06     2.469719e-04    -5.8597e-06      0.090 (TRAH MIcro)
  141     dE    -6.247023e-06     3.541471e-04    -6.1903e-06      0.096 (TRAH MIcro)
  141     dE    -7.454808e-06     6.245905e-04    -7.3561e-06      0.116 (TRAH MIcro)
  141     dE    -8.342864e-06     3.514945e-04    -8.2017e-06      0.131 (TRAH MIcro)
  141     dE    -8.657836e-06     2.069015e-04    -8.4990e-06      0.137 (TRAH MIcro)
  141     dE    -8.988836e-06     3.991685e-04    -8.8098e-06      0.143 (TRAH MIcro)
  141     dE    -9.646756e-06     4.163796e-04    -9.4217e-06      0.155 (TRAH MIcro)
  141     dE    -1.064876e-05     6.729898e-04    -1.0337e-05      0.174 (TRAH MIcro)
  141     dE    -1.683969e-05     1.973078e-03    -1.5487e-05      0.295 (TRAH MIcro)
  141     dE    -2.706958e-05     8.312458e-04    -8.5094e-05      0.352 (TRAH MIcro)
  141     dE    -2.798888e-05     6.286470e-04    -9.3739e-05      0.352 (TRAH MIcro)
  141     dE    -2.968854e-05     1.139238e-03    -1.0977e-04      0.352 (TRAH MIcro)
  141     dE    -2.772822e-05     2.373150e-03    -2.5878e-04      0.256 (TRAH MIcro)
  141     dE    -5.430237e-05     1.240091e-03    -3.4428e-04      0.352 (TRAH MIcro)
  141     dE    -5.730734e-05     1.060940e-03    -3.7908e-04      0.350 (TRAH MIcro)
  141     dE    -1.913337e-05     5.047729e-04    -4.9137e-04      0.161 (TRAH MIcro)
  141     dE    -2.263777e-05     3.437303e-04    -5.0484e-04      0.179 (TRAH MIcro)
  141     dE    -3.518702e-05     1.196655e-03    -5.3811e-04      0.229 (TRAH MIcro)
 ---------------------------------
          TRAH Step control 
 ---------------------------------
  predicted energy change =    -3.518701999057e-05
  actual energy  change   =     1.639210722715e-06
  energy change ratio     = -0.046586
  old trust radius        = 0.352085
  new trust radius        = 0.235897
  reject step?            = YES
  142       -295.077812896176     1.863542e-04                     0.236 (TRAH MAcro)  Yes
  143       -295.077812896176     2.749404e-03                     0.236 (TRAH MAcro)   No
  143     dE    -6.639609e-06     5.539893e-04    -6.6395e-06      0.003 (TRAH MIcro)
  143     dE    -7.193493e-06     2.457658e-04    -7.1934e-06      0.003 (TRAH MIcro)
  144       -295.077820088840     2.460671e-04                     0.283 (TRAH MAcro)   No
  144     dE    -2.833291e-07     3.143482e-04    -2.8333e-07      0.002 (TRAH MIcro)
  144     dE    -9.830227e-07     4.922850e-04    -9.8296e-07      0.008 (TRAH MIcro)
  144     dE    -1.767353e-06     4.470260e-04    -1.7668e-06      0.017 (TRAH MIcro)
  144     dE    -3.308616e-06     7.854727e-04    -3.3042e-06      0.036 (TRAH MIcro)
  144     dE    -4.949213e-06     3.940806e-04    -4.9328e-06      0.058 (TRAH MIcro)
  144     dE    -5.197127e-06     2.230043e-04    -5.1778e-06      0.061 (TRAH MIcro)
  144     dE    -5.425263e-06     3.055556e-04    -5.4030e-06      0.064 (TRAH MIcro)
  144     dE    -6.367279e-06     8.513374e-04    -6.3286e-06      0.078 (TRAH MIcro)
  144     dE    -8.222265e-06     5.269533e-04    -8.1244e-06      0.110 (TRAH MIcro)
  144     dE    -8.666423e-06     2.336553e-04    -8.5480e-06      0.118 (TRAH MIcro)
  144     dE    -8.904721e-06     2.681290e-04    -8.7741e-06      0.122 (TRAH MIcro)
  144     dE    -9.110570e-06     2.085584e-04    -8.9686e-06      0.126 (TRAH MIcro)
  144     dE    -9.328413e-06     4.282926e-04    -9.1737e-06      0.130 (TRAH MIcro)
  144     dE    -1.091253e-05     6.707222e-04    -1.0632e-05      0.163 (TRAH MIcro)
  144     dE    -1.198183e-05     3.656380e-04    -1.1580e-05      0.186 (TRAH MIcro)
  144     dE    -1.256126e-05     4.561917e-04    -1.2081e-05      0.199 (TRAH MIcro)
  144     dE    -1.403670e-05     7.958528e-04    -1.3315e-05      0.233 (TRAH MIcro)
  144     dE    -1.904623e-05     1.235029e-03    -5.8473e-05      0.283 (TRAH MIcro)
  144     dE    -2.003173e-05     3.266262e-04    -7.3918e-05      0.283 (TRAH MIcro)
  144     dE    -2.040372e-05     4.576669e-04    -7.9749e-05      0.283 (TRAH MIcro)
  144     dE    -2.074897e-05     2.251665e-04    -8.5171e-05      0.283 (TRAH MIcro)
  144     dE    -2.094647e-05     2.314620e-04    -8.8290e-05      0.283 (TRAH MIcro)
  144     dE    -2.013074e-05     6.367764e-04    -1.1112e-04      0.258 (TRAH MIcro)
  145       -295.077831148047     2.247653e-03                     0.283 (TRAH MAcro)   No
  145     dE    -4.237839e-06     2.993764e-04    -4.2378e-06      0.002 (TRAH MIcro)
  145     dE    -4.374704e-06     1.043240e-04    -4.3747e-06      0.002 (TRAH MIcro)
  146       -295.077835524532     1.043093e-04                     0.340 (TRAH MAcro)   No
  146     dE    -6.476942e-08     1.585662e-04    -6.4769e-08      0.001 (TRAH MIcro)
  146     dE    -2.374044e-07     2.218518e-04    -2.3740e-07      0.004 (TRAH MIcro)
  146     dE    -4.289265e-07     2.721652e-04    -4.2889e-07      0.009 (TRAH MIcro)
  146     dE    -8.618131e-07     3.951710e-04    -8.6146e-07      0.020 (TRAH MIcro)
  146     dE    -1.414075e-06     3.164354e-04    -1.4123e-06      0.035 (TRAH MIcro)
  146     dE    -1.596740e-06     1.640186e-04    -1.5942e-06      0.040 (TRAH MIcro)
  146     dE    -1.691060e-06     1.822343e-04    -1.6880e-06      0.043 (TRAH MIcro)
  146     dE    -2.016839e-06     4.971509e-04    -2.0113e-06      0.052 (TRAH MIcro)
  146     dE    -2.328290e-06     1.485427e-04    -2.3194e-06      0.062 (TRAH MIcro)
  146     dE    -2.403164e-06     1.569187e-04    -2.3932e-06      0.064 (TRAH MIcro)
  146     dE    -2.595310e-06     3.181602e-04    -2.5824e-06      0.071 (TRAH MIcro)
  146     dE    -3.082722e-06     4.361039e-04    -3.0591e-06      0.088 (TRAH MIcro)
  146     dE    -6.210770e-06     1.943611e-03    -5.9585e-06      0.206 (TRAH MIcro)
  146     dE    -1.756583e-05     1.431862e-03    -3.3858e-04      0.197 (TRAH MIcro)
  146     dE    -2.532241e-05     6.070717e-04    -3.7423e-04      0.234 (TRAH MIcro)
  146     dE    -2.706487e-05     3.544539e-04    -3.8089e-04      0.241 (TRAH MIcro)
  146     dE    -3.018161e-05     8.374574e-04    -3.9180e-04      0.253 (TRAH MIcro)
  146     dE    -4.377184e-05     1.347224e-03    -4.2880e-04      0.299 (TRAH MIcro)
  146     dE    -5.839928e-05     7.675655e-04    -4.5725e-04      0.339 (TRAH MIcro)
  146     dE    -6.031453e-05     6.132045e-04    -4.7310e-04      0.340 (TRAH MIcro)
  146     dE    -6.164441e-05     5.729930e-04    -4.8500e-04      0.340 (TRAH MIcro)
  146     dE    -6.235191e-05     3.262007e-04    -4.9163e-04      0.340 (TRAH MIcro)
  146     dE    -6.334977e-05     7.588755e-04    -5.0100e-04      0.340 (TRAH MIcro)
 ---------------------------------
          TRAH Step control 
 ---------------------------------
  predicted energy change =    -6.334976561336e-05
  actual energy  change   =     4.602723902281e-05
  energy change ratio     = -0.726557
  old trust radius        = 0.339692
  new trust radius        = 0.227594
  reject step?            = YES
  147       -295.077789497293     1.043093e-04                     0.228 (TRAH MAcro)  Yes
  148       -295.077789497293     6.813047e-03                     0.228 (TRAH MAcro)   No
  148     dE    -3.938591e-05     6.023498e-04    -3.9384e-05      0.006 (TRAH MIcro)
  149       -295.077828903929     6.022165e-04                     0.273 (TRAH MAcro)   No
  149     dE    -5.053983e-07     2.025039e-04    -5.0540e-07      0.001 (TRAH MIcro)
  149     dE    -9.744184e-07     4.627157e-04    -9.7440e-07      0.005 (TRAH MIcro)
  149     dE    -2.001452e-06     4.714767e-04    -2.0010e-06      0.015 (TRAH MIcro)
  149     dE    -2.829473e-06     5.092027e-04    -2.8277e-06      0.025 (TRAH MIcro)
  149     dE    -4.408691e-06     7.348421e-04    -4.3997e-06      0.045 (TRAH MIcro)
  149     dE    -5.265831e-06     2.904175e-04    -5.2492e-06      0.056 (TRAH MIcro)
  149     dE    -5.477502e-06     1.896987e-04    -5.4585e-06      0.059 (TRAH MIcro)
  149     dE    -5.667383e-06     2.935826e-04    -5.6460e-06      0.062 (TRAH MIcro)
  149     dE    -6.430624e-06     6.820443e-04    -6.3963e-06      0.073 (TRAH MIcro)
  149     dE    -7.559740e-06     2.883516e-04    -7.4948e-06      0.093 (TRAH MIcro)
  149     dE    -7.717328e-06     1.583373e-04    -7.6468e-06      0.096 (TRAH MIcro)
  149     dE    -7.854790e-06     2.156547e-04    -7.7791e-06      0.099 (TRAH MIcro)
  149     dE    -8.016274e-06     1.735020e-04    -7.9341e-06      0.102 (TRAH MIcro)
  149     dE    -8.155382e-06     2.279275e-04    -8.0672e-06      0.105 (TRAH MIcro)
  149     dE    -8.718372e-06     5.194629e-04    -8.6007e-06      0.117 (TRAH MIcro)
  149     dE    -9.077425e-06     2.159090e-04    -8.9365e-06      0.126 (TRAH MIcro)
  149     dE    -9.298423e-06     3.952500e-04    -9.1414e-06      0.131 (TRAH MIcro)
  149     dE    -1.064333e-05     1.213200e-03    -1.0353e-05      0.167 (TRAH MIcro)
  149     dE    -1.559047e-05     1.205236e-03    -3.3258e-05      0.273 (TRAH MIcro)
  149     dE    -1.759226e-05     5.335345e-04    -6.6410e-05      0.273 (TRAH MIcro)
  149     dE    -1.826884e-05     4.870456e-04    -7.7558e-05      0.273 (TRAH MIcro)
  149     dE    -1.760534e-05     3.402445e-04    -1.0037e-04      0.246 (TRAH MIcro)
  149     dE    -1.880012e-05     4.789378e-04    -1.0298e-04      0.260 (TRAH MIcro)
  150       -295.077831301236     2.375434e-03                     0.183 (TRAH MAcro)   No
  150     dE    -4.922543e-06     2.772633e-04    -4.9225e-06      0.002 (TRAH MIcro)
  150     dE    -5.098063e-06     1.860206e-04    -5.0980e-06      0.003 (TRAH MIcro)
  151       -295.077836400420     1.861033e-04                     0.220 (TRAH MAcro)   No
  151     dE    -1.061418e-07     1.614672e-04    -1.0614e-07      0.001 (TRAH MIcro)
  151     dE    -3.448056e-07     1.931764e-04    -3.4480e-07      0.004 (TRAH MIcro)
  151     dE    -5.000516e-07     2.231434e-04    -5.0003e-07      0.007 (TRAH MIcro)
  151     dE    -9.088775e-07     4.530472e-04    -9.0866e-07      0.016 (TRAH MIcro)
  151     dE    -1.469467e-06     1.419832e-04    -1.4683e-06      0.029 (TRAH MIcro)
  151     dE    -1.524626e-06     1.090599e-04    -1.5233e-06      0.030 (TRAH MIcro)
  151     dE    -1.651466e-06     2.314219e-04    -1.6497e-06      0.033 (TRAH MIcro)
  151     dE    -1.848652e-06     1.689784e-04    -1.8459e-06      0.038 (TRAH MIcro)
  151     dE    -1.924210e-06     1.023629e-04    -1.9210e-06      0.041 (TRAH MIcro)
  151     dE    -1.963584e-06     8.921289e-05    -1.9602e-06      0.042 (TRAH MIcro)
  151     dE    -1.999076e-06     8.568166e-05    -1.9954e-06      0.043 (TRAH MIcro)
  151     dE    -2.026152e-06     7.950992e-05    -2.0223e-06      0.044 (TRAH MIcro)
  151     dE    -2.142148e-06     3.095205e-04    -2.1372e-06      0.048 (TRAH MIcro)
  151     dE    -2.481258e-06     2.203597e-04    -2.4713e-06      0.064 (TRAH MIcro)
  151     dE    -2.564804e-06     7.960655e-05    -2.5530e-06      0.068 (TRAH MIcro)
  151     dE    -2.647465e-06     2.635457e-04    -2.6337e-06      0.072 (TRAH MIcro)
  151     dE    -3.024664e-06     3.683649e-04    -2.9983e-06      0.094 (TRAH MIcro)
  151     dE    -4.241006e-06     7.731857e-04    -4.1247e-06      0.168 (TRAH MIcro)
  151     dE    -5.795780e-06     5.746528e-04    -2.0945e-05      0.220 (TRAH MIcro)
  151     dE    -7.269126e-06     7.253739e-04    -5.5363e-05      0.220 (TRAH MIcro)
  151     dE    -7.643690e-06     2.744629e-04    -6.4100e-05      0.220 (TRAH MIcro)
  151     dE    -7.904903e-06     3.360177e-04    -7.0196e-05      0.220 (TRAH MIcro)
  151     dE    -8.863276e-06     1.236868e-03    -1.0221e-04      0.212 (TRAH MIcro)
 ---------------------------------
          TRAH Step control 
 ---------------------------------
  predicted energy change =    -8.863276349358e-06
  actual energy  change   =     4.967640109044e-06
  energy change ratio     = -0.560474
  old trust radius        = 0.219582
  new trust radius        = 0.147120
  reject step?            = YES
  152       -295.077831432780     1.861033e-04                     0.147 (TRAH MAcro)  Yes
  153       -295.077831432780     2.007186e-03                     0.147 (TRAH MAcro)   No
  153     dE    -3.107793e-06     3.398014e-04    -3.1078e-06      0.002 (TRAH MIcro)
  153     dE    -3.282665e-06     1.620320e-04    -3.2826e-06      0.002 (TRAH MIcro)
  154       -295.077834716592     1.622016e-04                     0.177 (TRAH MAcro)   No
  154     dE    -1.126171e-07     2.146819e-04    -1.1262e-07      0.001 (TRAH MIcro)
  154     dE    -7.703327e-07     6.985108e-04    -7.7024e-07      0.011 (TRAH MIcro)
  154     dE    -1.978408e-06     5.405640e-04    -1.9766e-06      0.031 (TRAH MIcro)
  154     dE    -2.749529e-06     5.098148e-04    -2.7443e-06      0.044 (TRAH MIcro)
  154     dE    -3.268849e-06     4.049453e-04    -3.2599e-06      0.052 (TRAH MIcro)
  154     dE    -3.500436e-06     2.339035e-04    -3.4893e-06      0.056 (TRAH MIcro)
  154     dE    -3.598258e-06     1.974984e-04    -3.5861e-06      0.058 (TRAH MIcro)
  154     dE    -3.847321e-06     4.857816e-04    -3.8321e-06      0.063 (TRAH MIcro)
  154     dE    -4.354887e-06     2.059662e-04    -4.3313e-06      0.074 (TRAH MIcro)
  154     dE    -4.410722e-06     8.915809e-05    -4.3861e-06      0.075 (TRAH MIcro)
  154     dE    -4.486743e-06     2.565681e-04    -4.4605e-06      0.077 (TRAH MIcro)
  154     dE    -4.674275e-06     1.918130e-04    -4.6435e-06      0.081 (TRAH MIcro)
  154     dE    -4.827222e-06     2.374937e-04    -4.7922e-06      0.086 (TRAH MIcro)
  154     dE    -5.038075e-06     2.480244e-04    -4.9961e-06      0.092 (TRAH MIcro)
  154     dE    -5.192606e-06     1.853553e-04    -5.1448e-06      0.096 (TRAH MIcro)
  154     dE    -5.308894e-06     2.082531e-04    -5.2562e-06      0.100 (TRAH MIcro)
  154     dE    -5.924831e-06     7.700936e-04    -5.8384e-06      0.122 (TRAH MIcro)
  154     dE    -8.875082e-06     7.816258e-04    -7.2351e-05      0.177 (TRAH MIcro)
  154     dE    -9.564999e-06     1.952725e-04    -1.0114e-04      0.177 (TRAH MIcro)
  154     dE    -9.694183e-06     1.670443e-04    -1.0649e-04      0.177 (TRAH MIcro)
  154     dE    -8.750807e-06     1.780105e-04    -1.3678e-04      0.150 (TRAH MIcro)
  154     dE    -9.343223e-06     2.542999e-04    -1.4001e-04      0.158 (TRAH MIcro)
  154     dE    -1.033266e-05     4.509729e-04    -1.4481e-04      0.172 (TRAH MIcro)
  155       -295.077836442725     1.055159e-03                     0.118 (TRAH MAcro)   No
  155     dE    -1.120643e-06     2.879678e-04    -1.1206e-06      0.002 (TRAH MIcro)
  155     dE    -1.332242e-06     2.142797e-04    -1.3322e-06      0.002 (TRAH MIcro)
  155     dE    -1.604720e-06     1.862738e-04    -1.6047e-06      0.005 (TRAH MIcro)
  155     dE    -1.735776e-06     1.923228e-04    -1.7357e-06      0.007 (TRAH MIcro)
  155     dE    -2.153894e-06     4.382142e-04    -2.1534e-06      0.015 (TRAH MIcro)
  155     dE    -2.855997e-06     3.712306e-04    -2.8535e-06      0.030 (TRAH MIcro)
  155     dE    -3.138527e-06     1.612005e-04    -3.1345e-06      0.036 (TRAH MIcro)
  155     dE    -3.185823e-06     9.492461e-05    -3.1815e-06      0.037 (TRAH MIcro)
  156       -295.077840152826     1.262820e-04                     0.142 (TRAH MAcro)   No
  156     dE    -6.516177e-08     1.799093e-04    -6.5162e-08      0.001 (TRAH MIcro)
  156     dE    -2.811689e-07     3.553360e-04    -2.8116e-07      0.006 (TRAH MIcro)
  156     dE    -7.773918e-07     3.009447e-04    -7.7713e-07      0.018 (TRAH MIcro)
  156     dE    -9.461575e-07     1.660881e-04    -9.4567e-07      0.023 (TRAH MIcro)
  156     dE    -1.045957e-06     1.555092e-04    -1.0453e-06      0.025 (TRAH MIcro)
  156     dE    -1.105102e-06     1.101706e-04    -1.1043e-06      0.027 (TRAH MIcro)
  156     dE    -1.142989e-06     1.032168e-04    -1.1421e-06      0.028 (TRAH MIcro)
  156     dE    -1.241808e-06     2.863605e-04    -1.2406e-06      0.031 (TRAH MIcro)
  156     dE    -1.524109e-06     2.149616e-04    -1.5215e-06      0.041 (TRAH MIcro)
  156     dE    -1.599654e-06     7.492406e-05    -1.5965e-06      0.044 (TRAH MIcro)
  156     dE    -1.625127e-06     1.031493e-04    -1.6218e-06      0.045 (TRAH MIcro)
  156     dE    -1.694712e-06     1.720966e-04    -1.6907e-06      0.048 (TRAH MIcro)
  156     dE    -1.916252e-06     2.954680e-04    -1.9096e-06      0.059 (TRAH MIcro)
  156     dE    -2.202282e-06     3.025101e-04    -2.1901e-06      0.075 (TRAH MIcro)
  156     dE    -3.965084e-06     1.150304e-03    -3.8504e-05      0.142 (TRAH MIcro)
  156     dE    -4.246560e-06     4.135035e-04    -1.7967e-04      0.104 (TRAH MIcro)
  156     dE    -7.308167e-06     9.328290e-04    -2.2963e-04      0.142 (TRAH MIcro)
  156     dE    -9.970921e-06     1.187106e-03    -5.2374e-04      0.124 (TRAH MIcro)
  156     dE    -1.396333e-05     3.665821e-04    -5.9848e-04      0.142 (TRAH MIcro)
  156     dE    -1.436567e-05     3.348346e-04    -6.2034e-04      0.142 (TRAH MIcro)
  156     dE    -1.555530e-05     1.076104e-03    -6.8480e-04      0.142 (TRAH MIcro)
  156     dE    -5.289633e-06     3.072405e-04    -1.0166e-03      0.065 (TRAH MIcro)
  156     dE    -7.089914e-06     1.267846e-04    -1.0409e-03      0.076 (TRAH MIcro)
  157       -295.077841201452     4.081828e-04                     0.095 (TRAH MAcro)   No
  157     dE    -1.865796e-07     9.152952e-05    -1.8658e-07      0.001 (TRAH MIcro)
  157     dE    -2.282542e-07     1.244213e-04    -2.2825e-07      0.001 (TRAH MIcro)
  157     dE    -3.885845e-07     1.727478e-04    -3.8857e-07      0.005 (TRAH MIcro)
  157     dE    -5.245652e-07     2.188059e-04    -5.2452e-07      0.009 (TRAH MIcro)
  157     dE    -8.804145e-07     3.675067e-04    -8.8006e-07      0.020 (TRAH MIcro)
  157     dE    -1.250560e-06     1.820591e-04    -1.2493e-06      0.032 (TRAH MIcro)
  157     dE    -1.300375e-06     5.502598e-05    -1.2989e-06      0.034 (TRAH MIcro)
  157     dE    -1.311302e-06     5.835903e-05    -1.3098e-06      0.034 (TRAH MIcro)
  157     dE    -1.361560e-06     1.827035e-04    -1.3598e-06      0.036 (TRAH MIcro)
  157     dE    -1.546185e-06     2.151632e-04    -1.5432e-06      0.044 (TRAH MIcro)
  157     dE    -1.676138e-06     1.346370e-04    -1.6719e-06      0.050 (TRAH MIcro)
  157     dE    -1.766906e-06     1.674877e-04    -1.7616e-06      0.055 (TRAH MIcro)
  157     dE    -1.884001e-06     1.785067e-04    -1.8768e-06      0.062 (TRAH MIcro)
  157     dE    -2.078816e-06     3.272627e-04    -2.0677e-06      0.073 (TRAH MIcro)
  157     dE    -3.206388e-06     6.840750e-04    -1.1018e-04      0.095 (TRAH MIcro)
  157     dE    -2.813237e-06     2.741092e-04    -3.9556e-04      0.059 (TRAH MIcro)
  157     dE    -3.097286e-06     8.051397e-05    -4.0467e-04      0.063 (TRAH MIcro)
  157     dE    -3.232290e-06     1.202218e-04    -4.0864e-04      0.065 (TRAH MIcro)
  157     dE    -4.034421e-06     4.769665e-04    -4.2844e-04      0.076 (TRAH MIcro)
  157     dE    -5.983078e-06     4.014519e-04    -4.8109e-04      0.095 (TRAH MIcro)
  157     dE    -6.181117e-06     2.741043e-04    -5.0732e-04      0.095 (TRAH MIcro)
  157     dE    -6.422544e-06     2.237788e-04    -5.3928e-04      0.095 (TRAH MIcro)
  157     dE    -6.594811e-06     2.450711e-04    -5.6213e-04      0.095 (TRAH MIcro)
  158       -295.077842138089     5.386833e-04                     0.064 (TRAH MAcro)   No
  158     dE    -2.975511e-07     1.389877e-04    -2.9755e-07      0.001 (TRAH MIcro)
  158     dE    -3.750778e-07     1.679609e-04    -3.7508e-07      0.002 (TRAH MIcro)
  158     dE    -5.670308e-07     1.927241e-04    -5.6702e-07      0.005 (TRAH MIcro)
  158     dE    -6.715052e-07     1.699618e-04    -6.7147e-07      0.007 (TRAH MIcro)
  158     dE    -8.240459e-07     2.339475e-04    -8.2394e-07      0.011 (TRAH MIcro)
  158     dE    -9.494271e-07     1.464397e-04    -9.4923e-07      0.014 (TRAH MIcro)
  158     dE    -9.994390e-07     9.377117e-05    -9.9919e-07      0.016 (TRAH MIcro)
  158     dE    -1.073150e-06     2.333492e-04    -1.0728e-06      0.018 (TRAH MIcro)
  158     dE    -1.365065e-06     2.815013e-04    -1.3639e-06      0.029 (TRAH MIcro)
  158     dE    -1.541054e-06     1.394121e-04    -1.5391e-06      0.036 (TRAH MIcro)
  158     dE    -1.574036e-06     8.138100e-05    -1.5719e-06      0.037 (TRAH MIcro)
  158     dE    -1.605040e-06     1.073844e-04    -1.6027e-06      0.038 (TRAH MIcro)
  158     dE    -1.666613e-06     1.476301e-04    -1.6638e-06      0.041 (TRAH MIcro)
  158     dE    -1.884234e-06     5.128554e-04    -1.8792e-06      0.052 (TRAH MIcro)
  158     dE    -3.787740e-06     6.802272e-04    -5.3549e-04      0.064 (TRAH MIcro)
  158     dE    -1.606810e-06     6.068043e-05    -1.0536e-03      0.024 (TRAH MIcro)
  158     dE    -1.640265e-06     2.991861e-05    -1.0574e-03      0.024 (TRAH MIcro)
  159       -295.077843653015     6.117166e-05                           (NR   MAcro)
  159     dE    -3.952838e-08     1.545644e-04                           (NR   MIcro)
  159     dE    -2.582939e-07     3.512001e-04                           (NR   MIcro)
  159     dE    -6.918315e-07     1.989071e-04                           (NR   MIcro)
  159     dE    -7.480702e-07     6.901128e-05                           (NR   MIcro)
  159     dE    -7.801006e-07     9.976747e-05                           (NR   MIcro)
  159     dE    -8.078352e-07     6.282046e-05                           (NR   MIcro)
  159     dE    -8.295815e-07     9.707784e-05                           (NR   MIcro)
  159     dE    -9.076192e-07     1.217510e-04                           (NR   MIcro)
  159     dE    -9.638167e-07     8.944244e-05                           (NR   MIcro)
  159     dE    -9.865661e-07     5.602659e-05                           (NR   MIcro)
  159     dE    -1.059110e-06     2.431072e-04                           (NR   MIcro)
  159     dE    -2.254809e-06     1.069992e-03                           (NR   MIcro)
  159     dE     7.995757e-07     7.441487e-04                           (NR   MIcro)
  159     dE    -8.660484e-08     3.317869e-04                           (NR   MIcro)
  159     dE    -4.861610e-07     2.783543e-04                           (NR   MIcro)
  159     dE    -6.256463e-07     1.805892e-04                           (NR   MIcro)
  159     dE    -7.134255e-07     1.689773e-04                           (NR   MIcro)
  159     dE    -7.811431e-07     1.060321e-04                           (NR   MIcro)
  159     dE    -7.881959e-07     4.142066e-05                           (NR   MIcro)
  159     dE    -8.005904e-07     9.466279e-05                           (NR   MIcro)
  159     dE    -8.546975e-07     1.614633e-04                           (NR   MIcro)
  159     dE    -9.040628e-07     8.319273e-05                           (NR   MIcro)
  159     dE    -9.132798e-07     4.016865e-05                           (NR   MIcro)
  159     dE    -9.175543e-07     2.422849e-05                           (NR   MIcro)
  160       -295.077845360806     7.857081e-05                           (NR   MAcro)
  160     dE    -2.388496e-08     8.902588e-05                           (NR   MIcro)
  160     dE    -1.350311e-07     2.544724e-04                           (NR   MIcro)
  160     dE    -5.929057e-07     2.473108e-04                           (NR   MIcro)
  160     dE    -7.203894e-07     1.167175e-04                           (NR   MIcro)
  160     dE    -7.624094e-07     8.808964e-05                           (NR   MIcro)
  160     dE    -7.912680e-07     6.270331e-05                           (NR   MIcro)
  160     dE    -8.062043e-07     5.257343e-05                           (NR   MIcro)
  160     dE    -8.247517e-07     9.457354e-05                           (NR   MIcro)
  160     dE    -1.357676e-06     9.951404e-04                           (NR   MIcro)
  160     dE    -2.657411e-07     1.555450e-04                           (NR   MIcro)
  160     dE    -3.172560e-07     7.958670e-05                           (NR   MIcro)
  160     dE    -3.555713e-07     1.182721e-04                           (NR   MIcro)
  160     dE    -4.518561e-07     1.731026e-04                           (NR   MIcro)
  160     dE    -5.708166e-07     1.912526e-04                           (NR   MIcro)
  160     dE    -7.035915e-07     1.783717e-04                           (NR   MIcro)
  160     dE    -8.108097e-07     1.323156e-04                           (NR   MIcro)
  160     dE    -8.281594e-07     4.289716e-05                           (NR   MIcro)
  160     dE    -8.479720e-07     1.432415e-04                           (NR   MIcro)
  160     dE    -8.992724e-07     1.016879e-04                           (NR   MIcro)
  160     dE    -9.176246e-07     5.810792e-05                           (NR   MIcro)
  160     dE    -9.230611e-07     3.533749e-05                           (NR   MIcro)
  160     dE    -9.300416e-07     4.729197e-05                           (NR   MIcro)
  160     dE    -9.371549e-07     4.446035e-05                           (NR   MIcro)
  160     dE    -9.461362e-07     6.688671e-05                           (NR   MIcro)
  161       -295.077847071807     1.158390e-04                     0.076 (TRAH MAcro)   No
  161     dE    -2.402737e-08     7.313904e-05    -2.4027e-08      0.000 (TRAH MIcro)
  161     dE    -6.970876e-08     1.484079e-04    -6.9708e-08      0.002 (TRAH MIcro)
  161     dE    -1.850217e-07     1.787316e-04    -1.8501e-07      0.007 (TRAH MIcro)
  161     dE    -3.304093e-07     2.449349e-04    -3.3035e-07      0.014 (TRAH MIcro)
  161     dE    -5.889691e-07     2.487150e-04    -5.8858e-07      0.026 (TRAH MIcro)
  161     dE    -7.220635e-07     1.187307e-04    -7.2134e-07      0.032 (TRAH MIcro)
  161     dE    -7.456206e-07     5.360837e-05    -7.4481e-07      0.033 (TRAH MIcro)
  161     dE    -7.661918e-07     1.158220e-04    -7.6531e-07      0.034 (TRAH MIcro)
  161     dE    -9.036744e-07     2.708516e-04    -9.0215e-07      0.041 (TRAH MIcro)
  161     dE    -1.204971e-06     2.826675e-04    -1.2008e-06      0.059 (TRAH MIcro)
  161     dE    -1.635774e-06     4.857770e-04    -3.4466e-05      0.076 (TRAH MIcro)
  161     dE    -2.037972e-06     3.962348e-04    -2.8148e-04      0.060 (TRAH MIcro)
  161     dE    -3.612552e-06     5.333433e-04    -4.3372e-04      0.076 (TRAH MIcro)
  161     dE    -2.037548e-06     2.956352e-04    -6.8108e-04      0.045 (TRAH MIcro)
  161     dE    -3.624188e-06     3.276925e-04    -7.6505e-04      0.061 (TRAH MIcro)
  161     dE    -4.218182e-06     1.367429e-04    -7.8704e-04      0.066 (TRAH MIcro)
  161     dE    -4.493686e-06     1.559231e-04    -7.9626e-04      0.068 (TRAH MIcro)
  161     dE    -5.722502e-06     6.743113e-04    -8.4382e-04      0.076 (TRAH MIcro)
  161     dE    -6.527761e-06     3.203929e-04    -1.0381e-03      0.075 (TRAH MIcro)
  161     dE    -8.089911e-07     2.088377e-05    -1.3009e-03      0.019 (TRAH MIcro)
  161     dE    -8.174274e-07     1.391064e-05    -1.3025e-03      0.019 (TRAH MIcro)
  161     dE    -8.227641e-07     1.017190e-05    -1.3035e-03      0.020 (TRAH MIcro)
  162       -295.077847661853     4.779766e-05                           (NR   MAcro)
  162     dE    -1.893004e-08     9.285243e-05                           (NR   MIcro)
  162     dE    -2.299841e-07     3.377508e-04                           (NR   MIcro)
  162     dE    -6.059809e-07     2.096974e-04                           (NR   MIcro)
  162     dE    -6.575853e-07     4.252735e-05                           (NR   MIcro)
  162     dE    -6.654838e-07     4.914619e-05                           (NR   MIcro)
  162     dE    -6.850500e-07     8.610512e-05                           (NR   MIcro)
  162     dE    -7.480547e-07     1.761346e-04                           (NR   MIcro)
  162     dE    -1.006623e-06     2.964357e-04                           (NR   MIcro)
  162     dE     1.935694e-07     5.753585e-04                           (NR   MIcro)
  162     dE    -1.262027e-07     1.388312e-04                           (NR   MIcro)
  162     dE    -1.822006e-07     1.028454e-04                           (NR   MIcro)
  162     dE    -2.894839e-07     1.653057e-04                           (NR   MIcro)
  162     dE    -3.625284e-07     8.532587e-05                           (NR   MIcro)
  162     dE    -3.855748e-07     6.643827e-05                           (NR   MIcro)
  162     dE    -4.121722e-07     1.003704e-04                           (NR   MIcro)
  162     dE    -5.060599e-07     1.930473e-04                           (NR   MIcro)
  162     dE    -6.224878e-07     2.302225e-04                           (NR   MIcro)
  162     dE    -1.102735e-06     6.108321e-04                           (NR   MIcro)
  162     dE    -1.659102e-06     3.326272e-04                           (NR   MIcro)
  162     dE    -1.758775e-06     1.075001e-04                           (NR   MIcro)
  162     dE    -1.823851e-06     2.525527e-04                           (NR   MIcro)
  162     dE    -3.084468e-06     1.139241e-03                           (NR   MIcro)
  162     dE     7.819969e-07     8.376889e-04                           (NR   MIcro)
  162     dE     2.686526e-07     1.244541e-04                           (NR   MIcro)
  163       -295.077845632761     5.709629e-04                     0.076 (TRAH MAcro)   No
  163     dE    -2.986899e-07     8.653028e-05    -2.9869e-07      0.001 (TRAH MIcro)
  163     dE    -3.243058e-07     8.899234e-05    -3.2431e-07      0.001 (TRAH MIcro)
  163     dE    -4.499198e-07     1.633876e-04    -4.4991e-07      0.004 (TRAH MIcro)
  163     dE    -5.690482e-07     2.734510e-04    -5.6901e-07      0.009 (TRAH MIcro)
  163     dE    -9.511324e-07     3.999856e-04    -9.5064e-07      0.023 (TRAH MIcro)
  163     dE    -1.279707e-06     1.644854e-04    -1.2781e-06      0.035 (TRAH MIcro)
  163     dE    -1.315282e-06     5.778436e-05    -1.3135e-06      0.036 (TRAH MIcro)
  163     dE    -1.358491e-06     2.102300e-04    -1.3565e-06      0.038 (TRAH MIcro)
  163     dE    -1.859918e-06     5.077821e-04    -1.8531e-06      0.061 (TRAH MIcro)
  163     dE    -2.612158e-06     3.568928e-04    -9.1073e-05      0.076 (TRAH MIcro)
  163     dE    -2.759361e-06     2.480448e-04    -1.5171e-04      0.073 (TRAH MIcro)
  163     dE    -3.120311e-06     2.837111e-04    -1.9553e-04      0.076 (TRAH MIcro)
  163     dE    -3.468687e-06     3.473013e-04    -2.6794e-04      0.076 (TRAH MIcro)
  163     dE    -3.566960e-06     4.976075e-04    -4.4077e-04      0.067 (TRAH MIcro)
  163     dE    -5.238887e-06     4.956145e-04    -6.3780e-04      0.076 (TRAH MIcro)
  163     dE    -1.798886e-06     6.468190e-05    -9.5348e-04      0.030 (TRAH MIcro)
  163     dE    -1.830851e-06     2.758938e-05    -9.5628e-04      0.031 (TRAH MIcro)
  164       -295.077846956073     7.028138e-05                           (NR   MAcro)
  164     dE    -1.892326e-08     7.647574e-05                           (NR   MIcro)
  164     dE    -9.051861e-08     2.195543e-04                           (NR   MIcro)
  164     dE    -4.989467e-07     2.769695e-04                           (NR   MIcro)
  164     dE    -6.371940e-07     1.156761e-04                           (NR   MIcro)
  164     dE    -7.009358e-07     1.221095e-04                           (NR   MIcro)
  164     dE    -7.438127e-07     6.788797e-05                           (NR   MIcro)
  164     dE    -7.628115e-07     7.469228e-05                           (NR   MIcro)
  164     dE    -8.203771e-07     1.292103e-04                           (NR   MIcro)
  164     dE    -9.535331e-07     1.836184e-04                           (NR   MIcro)
  164     dE    -1.040928e-06     6.535206e-05                           (NR   MIcro)
  164     dE    -1.094018e-06     1.623495e-04                           (NR   MIcro)
  164     dE    -1.415664e-06     4.176935e-04                           (NR   MIcro)
  164     dE    -3.404290e-06     8.921713e-04                           (NR   MIcro)
  164     dE     4.424256e-05     1.349744e-02                           (NR   MIcro)
  164     dE     8.258393e-07     5.675032e-04                           (NR   MIcro)
  164     dE     2.022269e-08     3.277716e-04                           (NR   MIcro)
  164     dE    -3.182983e-07     2.904869e-04                           (NR   MIcro)
  164     dE    -6.633018e-07     2.057807e-04                           (NR   MIcro)
  164     dE    -7.016067e-07     5.308592e-05                           (NR   MIcro)
  164     dE    -7.099679e-07     4.825647e-05                           (NR   MIcro)
  164     dE    -7.478264e-07     2.132012e-04                           (NR   MIcro)
  164     dE    -8.316234e-07     1.051497e-04                           (NR   MIcro)
  164     dE    -8.435004e-07     2.684213e-05                           (NR   MIcro)
  164     dE    -8.474104e-07     4.236766e-05                           (NR   MIcro)
  165       -295.077848427426     9.085432e-05                           (NR   MAcro)
  165     dE    -1.368640e-08     4.235567e-05                           (NR   MIcro)
  165     dE    -3.756957e-08     1.251679e-04                           (NR   MIcro)
  165     dE    -3.368196e-07     3.664966e-04                           (NR   MIcro)
  165     dE    -6.792876e-07     1.919207e-04                           (NR   MIcro)
  165     dE    -7.770433e-07     1.115899e-04                           (NR   MIcro)
  165     dE    -8.395895e-07     1.302655e-04                           (NR   MIcro)
  165     dE    -9.569837e-07     1.880975e-04                           (NR   MIcro)
  165     dE    -1.175416e-06     2.364189e-04                           (NR   MIcro)
  165     dE    -2.054147e-06     8.035134e-04                           (NR   MIcro)
  165     dE     2.656124e-05     4.780083e-03                           (NR   MIcro)
  165     dE     6.236220e-06     9.507307e-04                           (NR   MIcro)
  165     dE     2.240470e-06     8.898992e-04                           (NR   MIcro)
  165     dE    -2.966104e-08     4.223090e-04                           (NR   MIcro)
  165     dE    -2.731603e-07     1.374126e-04                           (NR   MIcro)
  165     dE    -3.423107e-07     1.266578e-04                           (NR   MIcro)
  165     dE    -4.932888e-07     2.443313e-04                           (NR   MIcro)
  165     dE    -5.910351e-07     1.303944e-04                           (NR   MIcro)
  165     dE    -6.899591e-07     2.604098e-04                           (NR   MIcro)
  165     dE    -7.753330e-07     9.436252e-05                           (NR   MIcro)
  165     dE    -7.985840e-07     7.721794e-05                           (NR   MIcro)
  165     dE    -8.288614e-07     1.457343e-04                           (NR   MIcro)
  165     dE    -9.445736e-07     2.146356e-04                           (NR   MIcro)
  165     dE    -1.020546e-06     8.889965e-05                           (NR   MIcro)
  165     dE    -1.033831e-06     4.386446e-05                           (NR   MIcro)
  166       -295.077850026278     1.589569e-04                     0.076 (TRAH MAcro)   No
  166     dE    -2.689102e-08     3.177154e-05    -2.6891e-08      0.000 (TRAH MIcro)
  166     dE    -3.455467e-08     6.192595e-05    -3.4555e-08      0.001 (TRAH MIcro)
  166     dE    -9.539321e-08     1.563461e-04    -9.5391e-08      0.005 (TRAH MIcro)
  166     dE    -1.694450e-07     1.237848e-04    -1.6943e-07      0.010 (TRAH MIcro)
  166     dE    -3.100135e-07     2.639798e-04    -3.0989e-07      0.020 (TRAH MIcro)
  166     dE    -5.273960e-07     1.471791e-04    -5.2673e-07      0.036 (TRAH MIcro)
  166     dE    -5.988060e-07     1.382383e-04    -5.9781e-07      0.041 (TRAH MIcro)
  166     dE    -1.275961e-06     5.802623e-04    -3.5238e-05      0.076 (TRAH MIcro)
  166     dE    -2.309162e-06     3.845704e-04    -2.6276e-04      0.072 (TRAH MIcro)
  166     dE    -2.918439e-06     1.828944e-04    -3.3068e-04      0.076 (TRAH MIcro)
  166     dE    -3.251050e-06     3.303872e-04    -3.9135e-04      0.076 (TRAH MIcro)
  166     dE    -1.907604e-06     2.437256e-04    -6.0133e-04      0.047 (TRAH MIcro)
  166     dE    -2.838616e-06     2.016946e-04    -6.7433e-04      0.057 (TRAH MIcro)
  166     dE    -3.690235e-06     2.589814e-04    -7.2192e-04      0.064 (TRAH MIcro)
  166     dE    -4.802717e-06     1.324292e-04    -7.6943e-04      0.073 (TRAH MIcro)
  166     dE    -5.187165e-06     1.560004e-04    -7.8314e-04      0.075 (TRAH MIcro)
  166     dE    -5.500575e-06     2.687762e-04    -8.1325e-04      0.076 (TRAH MIcro)
  166     dE    -6.365365e-06     4.965850e-04    -9.9445e-04      0.076 (TRAH MIcro)
  166     dE    -6.642032e-06     9.605830e-05    -1.0341e-03      0.076 (TRAH MIcro)
  166     dE    -6.677228e-06     1.057240e-04    -1.0414e-03      0.076 (TRAH MIcro)
  166     dE    -1.366878e-06     6.110919e-05    -1.1840e-03      0.030 (TRAH MIcro)
  166     dE    -1.472924e-06     5.444292e-05    -1.1955e-03      0.031 (TRAH MIcro)
  166     dE    -1.530463e-06     3.463559e-05    -1.2010e-03      0.032 (TRAH MIcro)
  167       -295.077850439842     9.258044e-05                           (NR   MAcro)
  167     dE    -1.353468e-08     3.142345e-05                           (NR   MIcro)
  167     dE    -1.917302e-08     4.772192e-05                           (NR   MIcro)
  167     dE    -3.462524e-08     5.100763e-05                           (NR   MIcro)
  167     dE    -5.554826e-08     1.079721e-04                           (NR   MIcro)
  167     dE    -1.956836e-07     3.081008e-04                           (NR   MIcro)
  167     dE    -6.907506e-07     1.997505e-04                           (NR   MIcro)
  167     dE    -8.161075e-07     1.238950e-04                           (NR   MIcro)
  167     dE    -9.148887e-07     1.968763e-04                           (NR   MIcro)
  167     dE    -7.412482e-06     4.285738e-03                           (NR   MIcro)
  167     dE     1.776032e-06     5.516864e-04                           (NR   MIcro)
  167     dE     1.054654e-06     3.296257e-04                           (NR   MIcro)
  167     dE     7.235373e-07     2.399256e-04                           (NR   MIcro)
  167     dE     6.046944e-07     1.421992e-04                           (NR   MIcro)
  167     dE     4.669353e-07     2.726962e-04                           (NR   MIcro)
  167     dE     3.187864e-07     1.526200e-04                           (NR   MIcro)
  167     dE     2.827427e-07     7.644052e-05                           (NR   MIcro)
  167     dE     2.635287e-07     1.314755e-04                           (NR   MIcro)
  167     dE     1.482051e-07     2.560019e-04                           (NR   MIcro)
  167     dE    -7.999347e-07     1.041023e-03                           (NR   MIcro)
  167     dE    -4.317679e-06     1.121310e-03                           (NR   MIcro)
  167     dE     1.823508e-05     6.966525e-03                           (NR   MIcro)
  167     dE     4.792191e-06     4.906039e-04                           (NR   MIcro)
  167     dE     3.725946e-06     6.652639e-04                           (NR   MIcro)
  167     dE     1.269878e-06     6.454298e-04                           (NR   MIcro)
  168       -295.077844707685     1.130480e-03                     0.076 (TRAH MAcro)   No
  168     dE    -1.367376e-06     2.093560e-04    -1.3674e-06      0.002 (TRAH MIcro)
  168     dE    -1.435777e-06     1.035140e-04    -1.4358e-06      0.002 (TRAH MIcro)
  169       -295.077846143213     1.035544e-04                     0.092 (TRAH MAcro)   No
  169     dE    -3.302030e-08     9.328555e-05    -3.3020e-08      0.000 (TRAH MIcro)
  169     dE    -1.549172e-07     2.266919e-04    -1.5492e-07      0.004 (TRAH MIcro)
  169     dE    -3.307742e-07     1.931522e-04    -3.3075e-07      0.009 (TRAH MIcro)
  169     dE    -5.371887e-07     2.956389e-04    -5.3706e-07      0.015 (TRAH MIcro)
  169     dE    -8.566412e-07     2.001752e-04    -8.5608e-07      0.026 (TRAH MIcro)
  169     dE    -9.074798e-07     8.136560e-05    -9.0680e-07      0.027 (TRAH MIcro)
  169     dE    -9.320322e-07     8.440342e-05    -9.3129e-07      0.028 (TRAH MIcro)
  169     dE    -1.004202e-06     2.622024e-04    -1.0032e-06      0.031 (TRAH MIcro)
  169     dE    -1.211905e-06     2.206402e-04    -1.2100e-06      0.040 (TRAH MIcro)
  169     dE    -1.286200e-06     1.101488e-04    -1.2838e-06      0.043 (TRAH MIcro)
  169     dE    -1.340558e-06     1.323399e-04    -1.3378e-06      0.046 (TRAH MIcro)
  169     dE    -1.401197e-06     1.220473e-04    -1.3979e-06      0.049 (TRAH MIcro)
  169     dE    -1.474324e-06     2.189805e-04    -1.4703e-06      0.052 (TRAH MIcro)
  169     dE    -1.764026e-06     2.932598e-04    -1.7558e-06      0.069 (TRAH MIcro)
  169     dE    -2.075241e-06     2.584041e-04    -2.0595e-06      0.088 (TRAH MIcro)
  169     dE    -2.249685e-06     2.106785e-04    -1.7801e-05      0.092 (TRAH MIcro)
  169     dE    -2.702245e-06     5.838421e-04    -8.5295e-05      0.092 (TRAH MIcro)
  169     dE    -3.467343e-06     4.688718e-04    -3.7464e-04      0.075 (TRAH MIcro)
  169     dE    -4.660114e-06     1.793571e-04    -3.9949e-04      0.090 (TRAH MIcro)
  169     dE    -4.978591e-06     2.933773e-04    -4.2107e-04      0.092 (TRAH MIcro)
  169     dE    -5.375065e-06     4.458231e-04    -4.7769e-04      0.092 (TRAH MIcro)
  169     dE    -1.408686e-06     6.180086e-05    -7.5742e-04      0.030 (TRAH MIcro)
  169     dE    -1.626415e-06     1.516173e-04    -7.7235e-04      0.034 (TRAH MIcro)
  170       -295.077847137162     1.695301e-04                     0.092 (TRAH MAcro)   No
  170     dE    -3.408090e-08     6.272559e-05    -3.4081e-08      0.000 (TRAH MIcro)
  170     dE    -5.482315e-08     9.449430e-05    -5.4823e-08      0.001 (TRAH MIcro)
  170     dE    -9.096490e-08     1.098552e-04    -9.0964e-08      0.002 (TRAH MIcro)
  170     dE    -1.293655e-07     1.046058e-04    -1.2936e-07      0.004 (TRAH MIcro)
  170     dE    -2.379057e-07     2.811964e-04    -2.3788e-07      0.010 (TRAH MIcro)
  170     dE    -4.710747e-07     2.371048e-04    -4.7083e-07      0.023 (TRAH MIcro)
  170     dE    -5.223643e-07     6.318640e-05    -5.2202e-07      0.026 (TRAH MIcro)
  170     dE    -5.315419e-07     4.926841e-05    -5.3117e-07      0.026 (TRAH MIcro)
  170     dE    -5.499638e-07     9.431716e-05    -5.4955e-07      0.027 (TRAH MIcro)
  170     dE    -5.902429e-07     9.671012e-05    -5.8971e-07      0.030 (TRAH MIcro)
  170     dE    -6.095227e-07     6.728066e-05    -6.0893e-07      0.031 (TRAH MIcro)
  170     dE    -6.258431e-07     7.006976e-05    -6.2519e-07      0.032 (TRAH MIcro)
  170     dE    -6.464535e-07     8.242178e-05    -6.4571e-07      0.034 (TRAH MIcro)
  170     dE    -6.736275e-07     1.339883e-04    -6.7276e-07      0.036 (TRAH MIcro)
  170     dE    -8.938980e-07     3.966299e-04    -8.9106e-07      0.056 (TRAH MIcro)
  170     dE    -1.530156e-06     3.232189e-04    -4.3453e-05      0.092 (TRAH MIcro)
  170     dE    -1.664588e-06     1.791077e-04    -8.2469e-05      0.085 (TRAH MIcro)
  170     dE    -2.113258e-06     5.422447e-04    -1.2472e-04      0.092 (TRAH MIcro)
  170     dE    -3.592814e-06     5.088857e-04    -3.2678e-04      0.092 (TRAH MIcro)
  170     dE    -1.156880e-06     9.074804e-05    -4.8944e-04      0.037 (TRAH MIcro)
  170     dE    -1.304483e-06     7.611310e-05    -4.9959e-04      0.041 (TRAH MIcro)
  170     dE    -1.488417e-06     6.702070e-05    -5.1041e-04      0.044 (TRAH MIcro)
  170     dE    -1.600625e-06     7.310610e-05    -5.1624e-04      0.046 (TRAH MIcro)
  171       -295.077847778530     1.390864e-04                     0.092 (TRAH MAcro)   No
  171     dE    -2.815458e-08     5.375837e-05    -2.8155e-08      0.000 (TRAH MIcro)
  171     dE    -4.428474e-08     8.125490e-05    -4.4285e-08      0.001 (TRAH MIcro)
  171     dE    -9.065893e-08     7.727452e-05    -9.0658e-08      0.003 (TRAH MIcro)
  171     dE    -1.347373e-07     1.416488e-04    -1.3473e-07      0.005 (TRAH MIcro)
  171     dE    -2.733085e-07     2.125123e-04    -2.7326e-07      0.013 (TRAH MIcro)
  171     dE    -3.511951e-07     6.315013e-05    -3.5109e-07      0.018 (TRAH MIcro)
  171     dE    -3.646666e-07     5.472243e-05    -3.6454e-07      0.018 (TRAH MIcro)
  171     dE    -3.950355e-07     1.020484e-04    -3.9487e-07      0.020 (TRAH MIcro)
  171     dE    -4.618133e-07     1.338343e-04    -4.6153e-07      0.025 (TRAH MIcro)
  171     dE    -4.991143e-07     5.138391e-05    -4.9874e-07      0.027 (TRAH MIcro)
  171     dE    -5.149637e-07     6.554373e-05    -5.1455e-07      0.028 (TRAH MIcro)
  171     dE    -5.311480e-07     5.908151e-05    -5.3068e-07      0.030 (TRAH MIcro)
  171     dE    -5.495983e-07     6.804385e-05    -5.4907e-07      0.031 (TRAH MIcro)
  171     dE    -6.109082e-07     1.756287e-04    -6.1011e-07      0.036 (TRAH MIcro)
  171     dE    -7.430359e-07     1.693072e-04    -7.4130e-07      0.048 (TRAH MIcro)
  171     dE    -8.494616e-07     1.975875e-04    -8.4652e-07      0.059 (TRAH MIcro)
  171     dE    -1.449313e-06     6.595024e-04    -4.0410e-05      0.092 (TRAH MIcro)
  171     dE    -6.676530e-07     2.855275e-04    -1.0143e-03      0.020 (TRAH MIcro)
  171     dE    -1.512957e-06     9.274811e-05    -1.0969e-03      0.034 (TRAH MIcro)
  171     dE    -1.770269e-06     9.159265e-05    -1.1126e-03      0.037 (TRAH MIcro)
  171     dE    -2.011038e-06     9.650489e-05    -1.1255e-03      0.039 (TRAH MIcro)
  171     dE    -2.242021e-06     5.732977e-05    -1.1372e-03      0.042 (TRAH MIcro)
  171     dE    -2.446981e-06     1.032562e-04    -1.1466e-03      0.043 (TRAH MIcro)
  172       -295.077847963483     1.985529e-04                     0.061 (TRAH MAcro)   No
  172     dE    -4.741642e-08     5.694515e-05    -4.7416e-08      0.000 (TRAH MIcro)
  172     dE    -6.101979e-08     6.584114e-05    -6.1020e-08      0.001 (TRAH MIcro)
  172     dE    -9.567921e-08     8.605695e-05    -9.5679e-08      0.002 (TRAH MIcro)
  172     dE    -1.240796e-07     9.953734e-05    -1.2408e-07      0.004 (TRAH MIcro)
  172     dE    -2.525751e-07     3.055053e-04    -2.5254e-07      0.011 (TRAH MIcro)
  172     dE    -5.763140e-07     2.416560e-04    -5.7576e-07      0.031 (TRAH MIcro)
  172     dE    -6.659574e-07     9.102624e-05    -6.6507e-07      0.037 (TRAH MIcro)
  172     dE    -6.920433e-07     8.566586e-05    -6.9104e-07      0.038 (TRAH MIcro)
  172     dE    -7.829754e-07     2.329258e-04    -7.8147e-07      0.044 (TRAH MIcro)
  172     dE    -1.134032e-06     2.759938e-04    -2.4970e-05      0.062 (TRAH MIcro)
  172     dE    -1.416977e-06     2.752548e-04    -1.1050e-04      0.061 (TRAH MIcro)
  172     dE    -1.640923e-06     3.310582e-04    -2.4101e-04      0.056 (TRAH MIcro)
  172     dE    -2.423547e-06     4.499193e-04    -4.2097e-04      0.061 (TRAH MIcro)
  172     dE    -2.681645e-06     5.400307e-04    -6.7422e-04      0.055 (TRAH MIcro)
  172     dE    -4.177837e-06     3.990747e-04    -9.5329e-04      0.061 (TRAH MIcro)
  172     dE    -8.956157e-07     4.843644e-05    -1.2152e-03      0.022 (TRAH MIcro)
  172     dE    -9.157258e-07     2.101970e-05    -1.2195e-03      0.022 (TRAH MIcro)
  172     dE    -9.436949e-07     6.355311e-05    -1.2251e-03      0.023 (TRAH MIcro)
  172     dE    -1.068343e-06     6.978290e-05    -1.2458e-03      0.025 (TRAH MIcro)
  172     dE    -1.127450e-06     3.526429e-05    -1.2543e-03      0.026 (TRAH MIcro)
  172     dE    -1.144428e-06     2.846329e-05    -1.2567e-03      0.026 (TRAH MIcro)
  172     dE    -1.157430e-06     1.033931e-05    -1.2584e-03      0.026 (TRAH MIcro)
  173       -295.077848395968     7.522164e-05                           (NR   MAcro)
  173     dE    -1.143096e-08     3.673380e-05                           (NR   MIcro)
  173     dE    -4.944266e-08     1.621879e-04                           (NR   MIcro)
  173     dE    -2.953391e-07     2.997797e-04                           (NR   MIcro)
  173     dE    -4.330474e-07     5.531876e-05                           (NR   MIcro)
  173     dE    -4.423703e-07     3.964243e-05                           (NR   MIcro)
  173     dE    -4.476292e-07     2.745535e-05                           (NR   MIcro)
  173     dE    -4.508387e-07     2.331927e-05                           (NR   MIcro)
  173     dE    -4.528901e-07     2.149262e-05                           (NR   MIcro)
  173     dE    -4.608442e-07     6.201027e-05                           (NR   MIcro)
  173     dE    -4.742107e-07     4.714305e-05                           (NR   MIcro)
  173     dE    -4.804328e-07     2.927761e-05                           (NR   MIcro)
  173     dE    -4.967829e-07     1.134734e-04                           (NR   MIcro)
  173     dE     4.517183e-07     1.864493e-03                           (NR   MIcro)
  173     dE    -3.112889e-07     9.468878e-05                           (NR   MIcro)
  173     dE    -3.303015e-07     6.508736e-05                           (NR   MIcro)
  173     dE    -3.640339e-07     1.233914e-04                           (NR   MIcro)
  173     dE    -3.869809e-07     6.891904e-05                           (NR   MIcro)
  173     dE    -4.100126e-07     1.066378e-04                           (NR   MIcro)
  173     dE    -4.274960e-07     6.261769e-05                           (NR   MIcro)
  173     dE    -4.313703e-07     1.887855e-05                           (NR   MIcro)
  173     dE    -4.329688e-07     3.063500e-05                           (NR   MIcro)
  173     dE    -4.506887e-07     1.119730e-04                           (NR   MIcro)
  173     dE    -4.852905e-07     7.906157e-05                           (NR   MIcro)
  173     dE    -5.022451e-07     5.605224e-05                           (NR   MIcro)
  174       -295.077849266962     8.684881e-05                           (NR   MAcro)
  174     dE    -1.142763e-08     4.415388e-05                           (NR   MIcro)
  174     dE    -2.807822e-08     9.837687e-05                           (NR   MIcro)
  174     dE    -8.611756e-08     1.049448e-04                           (NR   MIcro)
  174     dE    -1.382832e-07     1.445802e-04                           (NR   MIcro)
  174     dE    -2.344285e-07     1.829019e-04                           (NR   MIcro)
  174     dE    -2.832036e-07     6.067567e-05                           (NR   MIcro)
  174     dE    -3.026232e-07     8.531977e-05                           (NR   MIcro)
  174     dE    -3.593601e-07     1.837813e-04                           (NR   MIcro)
  174     dE    -5.939314e-07     3.026244e-04                           (NR   MIcro)
  174     dE    -7.425024e-07     1.212513e-04                           (NR   MIcro)
  174     dE    -7.910766e-07     1.611438e-04                           (NR   MIcro)
  174     dE    -8.500142e-07     1.140974e-04                           (NR   MIcro)
  174     dE    -9.066318e-07     1.696863e-04                           (NR   MIcro)
  174     dE    -1.310287e-06     8.993593e-04                           (NR   MIcro)
  174     dE     1.181314e-07     4.476921e-04                           (NR   MIcro)
  174     dE    -1.351972e-07     1.958093e-04                           (NR   MIcro)
  174     dE    -2.938898e-07     2.430175e-04                           (NR   MIcro)
  174     dE    -4.775430e-07     2.146481e-04                           (NR   MIcro)
  174     dE    -5.131824e-07     3.779501e-05                           (NR   MIcro)
  174     dE    -5.187610e-07     4.079745e-05                           (NR   MIcro)
  174     dE    -5.305722e-07     6.739380e-05                           (NR   MIcro)
  174     dE    -5.644347e-07     9.358075e-05                           (NR   MIcro)
  174     dE    -5.870012e-07     7.832005e-05                           (NR   MIcro)
  174     dE    -6.266121e-07     1.255819e-04                           (NR   MIcro)
  175       -295.077850290035     1.584297e-04                     0.061 (TRAH MAcro)   No
  175     dE    -1.970662e-08     3.331472e-05    -1.9707e-08      0.000 (TRAH MIcro)
  175     dE    -2.420819e-08     4.115181e-05    -2.4208e-08      0.000 (TRAH MIcro)
  175     dE    -3.880028e-08     8.075833e-05    -3.8800e-08      0.001 (TRAH MIcro)
  175     dE    -6.747465e-08     9.783567e-05    -6.7474e-08      0.004 (TRAH MIcro)
  175     dE    -1.405809e-07     1.966736e-04    -1.4056e-07      0.011 (TRAH MIcro)
  175     dE    -4.630541e-07     4.070781e-04    -4.6228e-07      0.041 (TRAH MIcro)
  175     dE    -8.688000e-07     2.311552e-04    -5.2230e-05      0.061 (TRAH MIcro)
  175     dE    -9.425418e-07     9.302311e-05    -7.0424e-05      0.061 (TRAH MIcro)
  175     dE    -1.003001e-06     1.769074e-04    -8.6734e-05      0.061 (TRAH MIcro)
  175     dE    -1.296038e-06     3.824021e-04    -1.7863e-04      0.060 (TRAH MIcro)
  175     dE    -1.521761e-06     1.652097e-04    -2.3250e-04      0.061 (TRAH MIcro)
  175     dE    -1.616475e-06     1.805426e-04    -2.6019e-04      0.061 (TRAH MIcro)
  175     dE    -1.803018e-06     2.876384e-04    -3.1560e-04      0.061 (TRAH MIcro)
  175     dE    -1.172431e-06     1.229503e-04    -4.3033e-04      0.042 (TRAH MIcro)
  175     dE    -1.975825e-06     5.097896e-04    -4.9584e-04      0.055 (TRAH MIcro)
  175     dE    -2.753692e-06     2.153961e-04    -6.0673e-04      0.061 (TRAH MIcro)
  175     dE    -2.845084e-06     1.470411e-04    -6.3463e-04      0.061 (TRAH MIcro)
  175     dE    -3.010470e-06     4.047988e-04    -6.8484e-04      0.061 (TRAH MIcro)
  175     dE    -1.781287e-06     2.298264e-04    -9.6362e-04      0.040 (TRAH MIcro)
  175     dE    -2.776420e-06     1.280163e-04    -1.0173e-03      0.050 (TRAH MIcro)
  175     dE    -3.105211e-06     8.432806e-05    -1.0309e-03      0.053 (TRAH MIcro)
  175     dE    -3.631759e-06     1.696685e-04    -1.0501e-03      0.057 (TRAH MIcro)
  175     dE    -4.345285e-06     1.512912e-04    -1.0802e-03      0.061 (TRAH MIcro)
 ---------------------------------
          TRAH Step control 
 ---------------------------------
  predicted energy change =    -4.345284656129e-06
  actual energy  change   =     2.346276346543e-07
  energy change ratio     = -0.053996
  old trust radius        = 0.061475
  new trust radius        = 0.041188
  reject step?            = YES
  176       -295.077850055407     1.584297e-04                     0.041 (TRAH MAcro)  Yes
  177       -295.077850055407     2.991988e-04                     0.041 (TRAH MAcro)   No
  177     dE    -1.148126e-07     8.887300e-05    -1.1481e-07      0.001 (TRAH MIcro)
  177     dE    -1.441340e-07     9.148948e-05    -1.4413e-07      0.001 (TRAH MIcro)
  177     dE    -1.765056e-07     5.885167e-05    -1.7651e-07      0.002 (TRAH MIcro)
  177     dE    -1.921523e-07     8.318616e-05    -1.9215e-07      0.002 (TRAH MIcro)
  177     dE    -2.778784e-07     2.179594e-04    -2.7786e-07      0.007 (TRAH MIcro)
  177     dE    -4.516047e-07     1.620656e-04    -4.5147e-07      0.017 (TRAH MIcro)
  177     dE    -5.258744e-07     1.057270e-04    -5.2563e-07      0.022 (TRAH MIcro)
  177     dE    -6.238831e-07     2.488731e-04    -6.2341e-07      0.028 (TRAH MIcro)
  177     dE    -1.117582e-06     3.986683e-04    -2.1619e-04      0.039 (TRAH MIcro)
  177     dE    -1.477150e-06     1.826682e-04    -4.5185e-04      0.040 (TRAH MIcro)
  177     dE    -1.269447e-06     1.547383e-04    -6.4571e-04      0.032 (TRAH MIcro)
  177     dE    -1.434507e-06     1.046291e-04    -6.7358e-04      0.034 (TRAH MIcro)
  177     dE    -1.566169e-06     1.240075e-04    -6.9327e-04      0.036 (TRAH MIcro)
  177     dE    -1.975621e-06     2.852426e-04    -7.4345e-04      0.041 (TRAH MIcro)
  177     dE    -2.160400e-06     1.605928e-04    -8.7265e-04      0.041 (TRAH MIcro)
  177     dE    -2.215867e-06     8.984027e-05    -9.1254e-04      0.041 (TRAH MIcro)
  177     dE    -2.250392e-06     1.395562e-04    -9.3747e-04      0.041 (TRAH MIcro)
  177     dE    -7.388747e-07     9.953786e-05    -1.4604e-03      0.016 (TRAH MIcro)
  177     dE    -8.185778e-07     3.491745e-05    -1.4827e-03      0.017 (TRAH MIcro)
  177     dE    -8.322012e-07     1.609606e-05    -1.4858e-03      0.018 (TRAH MIcro)
  178       -295.077850563798     4.739494e-05                           (NR   MAcro)
  178     dE    -5.994968e-09     3.275466e-05                           (NR   MIcro)
  178     dE    -1.855717e-08     8.666279e-05                           (NR   MIcro)
  178     dE    -9.732119e-08     1.454503e-04                           (NR   MIcro)
  178     dE    -2.028522e-07     2.032227e-04                           (NR   MIcro)
  178     dE    -7.459202e-07     5.824813e-04                           (NR   MIcro)
  178     dE    -2.315134e-06     4.178732e-04                           (NR   MIcro)
  178     dE    -5.773848e-06     2.105001e-03                           (NR   MIcro)
  178     dE     1.025767e-06     6.157057e-04                           (NR   MIcro)
  178     dE     4.049048e-07     2.152211e-04                           (NR   MIcro)
  178     dE     3.124300e-07     9.441768e-05                           (NR   MIcro)
  178     dE     2.217036e-07     1.914271e-04                           (NR   MIcro)
  178     dE     1.190713e-07     1.374466e-04                           (NR   MIcro)
  178     dE     3.916410e-08     1.674604e-04                           (NR   MIcro)
  178     dE    -9.126538e-08     1.849961e-04                           (NR   MIcro)
  178     dE    -1.450959e-07     7.442162e-05                           (NR   MIcro)
  178     dE    -1.787187e-07     1.319833e-04                           (NR   MIcro)
  178     dE    -3.042059e-07     2.810056e-04                           (NR   MIcro)
  178     dE    -6.208598e-07     3.763152e-04                           (NR   MIcro)
  178     dE    -7.212363e-07     1.362571e-04                           (NR   MIcro)
  178     dE    -8.259399e-07     2.419469e-04                           (NR   MIcro)
  178     dE    -2.087485e-06     1.558435e-03                           (NR   MIcro)
  178     dE     1.257970e-06     5.893510e-04                           (NR   MIcro)
  178     dE     5.217159e-07     3.640864e-04                           (NR   MIcro)
  178     dE     3.078984e-07     1.165056e-04                           (NR   MIcro)
  179       -295.077849509047     1.748167e-04                     0.041 (TRAH MAcro)   No
  179     dE    -3.666372e-08     5.805870e-05    -3.6664e-08      0.000 (TRAH MIcro)
  179     dE    -5.478988e-08     9.202654e-05    -5.4790e-08      0.001 (TRAH MIcro)
  179     dE    -1.737427e-07     2.776904e-04    -1.7374e-07      0.006 (TRAH MIcro)
  179     dE    -4.297160e-07     2.292642e-04    -4.2958e-07      0.018 (TRAH MIcro)
  179     dE    -5.631498e-07     1.256847e-04    -5.6282e-07      0.024 (TRAH MIcro)
  179     dE    -6.019430e-07     9.363816e-05    -6.0154e-07      0.026 (TRAH MIcro)
  179     dE    -6.934103e-07     2.196946e-04    -6.9277e-07      0.030 (TRAH MIcro)
  179     dE    -8.222622e-07     1.836523e-04    -8.2113e-07      0.037 (TRAH MIcro)
  179     dE    -1.100861e-06     3.803632e-04    -1.3650e-04      0.041 (TRAH MIcro)
  179     dE    -1.503313e-06     1.607771e-04    -4.1865e-04      0.041 (TRAH MIcro)
  179     dE    -1.531358e-06     9.144330e-05    -4.6055e-04      0.041 (TRAH MIcro)
  179     dE    -1.199716e-06     9.887102e-05    -6.2443e-04      0.031 (TRAH MIcro)
  179     dE    -1.510733e-06     2.313411e-04    -6.7219e-04      0.036 (TRAH MIcro)
  179     dE    -1.804753e-06     1.021831e-04    -7.0612e-04      0.040 (TRAH MIcro)
  179     dE    -1.896764e-06     1.242022e-04    -7.1527e-04      0.041 (TRAH MIcro)
  179     dE    -1.982049e-06     1.998958e-04    -7.7672e-04      0.041 (TRAH MIcro)
  179     dE    -2.089126e-06     2.052096e-04    -8.6243e-04      0.041 (TRAH MIcro)
  179     dE    -2.158651e-06     1.510345e-04    -9.1885e-04      0.041 (TRAH MIcro)
  179     dE    -7.238551e-07     2.470229e-05    -1.3338e-03      0.017 (TRAH MIcro)
  179     dE    -7.339574e-07     1.798765e-05    -1.3368e-03      0.017 (TRAH MIcro)
  179     dE    -7.460877e-07     2.947330e-05    -1.3399e-03      0.018 (TRAH MIcro)
  179     dE    -7.979753e-07     5.194254e-05    -1.3504e-03      0.019 (TRAH MIcro)
  179     dE    -8.508652e-07     2.473148e-05    -1.3595e-03      0.019 (TRAH MIcro)
  180       -295.077850029198     4.973431e-05                           (NR   MAcro)
  180     dE    -7.342664e-09     4.016904e-05                           (NR   MIcro)
  180     dE    -2.522972e-08     1.065096e-04                           (NR   MIcro)
  180     dE    -2.278284e-07     2.813692e-04                           (NR   MIcro)
  180     dE    -4.671934e-07     2.003227e-04                           (NR   MIcro)
  180     dE    -6.374738e-07     1.998620e-04                           (NR   MIcro)
  180     dE    -8.203346e-07     1.939922e-04                           (NR   MIcro)
  180     dE    -9.464301e-07     1.522751e-04                           (NR   MIcro)
  180     dE    -1.115133e-06     3.012056e-04                           (NR   MIcro)
  180     dE     3.498913e-06     2.769605e-03                           (NR   MIcro)
  180     dE     5.817253e-07     1.830048e-04                           (NR   MIcro)
  180     dE     5.043141e-07     1.165083e-04                           (NR   MIcro)
  180     dE     4.398703e-07     1.516657e-04                           (NR   MIcro)
  180     dE     2.779801e-07     2.510571e-04                           (NR   MIcro)
  180     dE     1.154109e-07     2.720929e-04                           (NR   MIcro)
  180     dE    -1.199039e-07     2.395607e-04                           (NR   MIcro)
  180     dE    -3.157775e-07     2.109542e-04                           (NR   MIcro)
  180     dE    -4.281796e-07     2.251209e-04                           (NR   MIcro)
  180     dE    -9.841211e-07     7.978028e-04                           (NR   MIcro)
  180     dE    -2.912963e-06     7.406662e-04                           (NR   MIcro)
  180     dE    -3.676391e-06     3.481668e-04                           (NR   MIcro)
  180     dE    -4.467114e-06     9.362509e-04                           (NR   MIcro)
  180     dE     1.850081e-05     4.960411e-03                           (NR   MIcro)
  180     dE     3.657611e-06     8.638618e-04                           (NR   MIcro)
  180     dE     2.182250e-06     3.962956e-04                           (NR   MIcro)
  181       -295.077836451061     1.762083e-03                     0.041 (TRAH MAcro)   No
  181     dE    -2.910343e-06     2.141405e-04    -2.9103e-06      0.002 (TRAH MIcro)
  181     dE    -3.155709e-06     2.979392e-04    -3.1557e-06      0.003 (TRAH MIcro)
  181     dE    -3.639271e-06     2.958550e-04    -3.6390e-06      0.008 (TRAH MIcro)
  181     dE    -4.002325e-06     3.726139e-04    -4.0017e-06      0.013 (TRAH MIcro)
  181     dE    -4.687072e-06     4.390553e-04    -4.6847e-06      0.023 (TRAH MIcro)
  181     dE    -5.296855e-06     3.316156e-04    -5.2914e-06      0.032 (TRAH MIcro)
  181     dE    -5.455584e-06     1.193184e-04    -5.4491e-06      0.035 (TRAH MIcro)
  182       -295.077842264808     1.387426e-04                     0.049 (TRAH MAcro)   No
  182     dE    -6.708338e-08     1.420600e-04    -6.7083e-08      0.001 (TRAH MIcro)
  182     dE    -2.889776e-07     3.547640e-04    -2.8897e-07      0.005 (TRAH MIcro)
  182     dE    -9.945405e-07     3.553073e-04    -9.9410e-07      0.021 (TRAH MIcro)
  182     dE    -1.244752e-06     1.611522e-04    -1.2439e-06      0.027 (TRAH MIcro)
  182     dE    -1.369941e-06     1.744157e-04    -1.3687e-06      0.030 (TRAH MIcro)
  182     dE    -1.487173e-06     1.778770e-04    -1.4856e-06      0.033 (TRAH MIcro)
  182     dE    -1.631721e-06     1.826854e-04    -1.6296e-06      0.036 (TRAH MIcro)
  182     dE    -1.822980e-06     2.844113e-04    -1.8198e-06      0.042 (TRAH MIcro)
  182     dE    -2.050690e-06     1.898886e-04    -2.0459e-06      0.048 (TRAH MIcro)
  182     dE    -2.118971e-06     8.213205e-05    -2.0836e-05      0.049 (TRAH MIcro)
  182     dE    -2.163308e-06     1.415837e-04    -4.4168e-05      0.049 (TRAH MIcro)
  182     dE    -2.313884e-06     2.449539e-04    -1.2935e-04      0.049 (TRAH MIcro)
  182     dE    -2.461512e-06     1.126289e-04    -2.2217e-04      0.049 (TRAH MIcro)
  182     dE    -2.490217e-06     6.799043e-05    -2.3832e-04      0.049 (TRAH MIcro)
  182     dE    -2.539391e-06     1.688067e-04    -2.7016e-04      0.049 (TRAH MIcro)
  182     dE    -2.632241e-06     1.794257e-04    -3.3374e-04      0.049 (TRAH MIcro)
  182     dE    -2.580904e-06     1.831932e-04    -4.5246e-04      0.046 (TRAH MIcro)
  182     dE    -3.028415e-06     3.799412e-04    -6.1534e-04      0.049 (TRAH MIcro)
  182     dE    -1.709086e-06     1.878035e-05    -1.0550e-03      0.026 (TRAH MIcro)
  182     dE    -1.710968e-06     9.777907e-06    -1.0554e-03      0.026 (TRAH MIcro)
  183       -295.077843966885     5.429151e-05                           (NR   MAcro)
  183     dE    -6.309995e-08     2.126754e-04                           (NR   MIcro)
  183     dE    -7.430359e-07     4.806294e-04                           (NR   MIcro)
  183     dE    -1.220784e-06     1.828400e-04                           (NR   MIcro)
  183     dE    -1.262457e-06     4.129083e-05                           (NR   MIcro)
  183     dE    -1.278676e-06     8.078753e-05                           (NR   MIcro)
  183     dE    -1.328698e-06     9.693967e-05                           (NR   MIcro)
  183     dE    -1.376460e-06     1.226773e-04                           (NR   MIcro)
  183     dE    -1.466245e-06     1.451193e-04                           (NR   MIcro)
  183     dE    -1.581387e-06     1.325506e-04                           (NR   MIcro)
  183     dE    -1.634582e-06     9.809370e-05                           (NR   MIcro)
  183     dE    -1.911767e-06     5.119368e-04                           (NR   MIcro)
  183     dE     7.592137e-07     1.122845e-03                           (NR   MIcro)
  183     dE    -3.395610e-07     2.193831e-04                           (NR   MIcro)
  183     dE    -5.518653e-07     2.830655e-04                           (NR   MIcro)
  183     dE    -8.360228e-07     2.428222e-04                           (NR   MIcro)
  183     dE    -1.005937e-06     1.806246e-04                           (NR   MIcro)
  183     dE    -1.053384e-06     1.130410e-04                           (NR   MIcro)
  183     dE    -1.085651e-06     1.167165e-04                           (NR   MIcro)
  183     dE    -1.098357e-06     5.178077e-05                           (NR   MIcro)
  183     dE    -1.119674e-06     1.073959e-04                           (NR   MIcro)
  183     dE    -1.180098e-06     1.796671e-04                           (NR   MIcro)
  183     dE    -1.232510e-06     5.434782e-05                           (NR   MIcro)
  183     dE    -1.236209e-06     2.325495e-05                           (NR   MIcro)
  183     dE    -1.242223e-06     7.564149e-05                           (NR   MIcro)
  184       -295.077845957360     1.150390e-04                     0.059 (TRAH MAcro)   No
  184     dE    -2.105926e-08     6.639862e-05    -2.1059e-08      0.000 (TRAH MIcro)
  184     dE    -6.028274e-08     1.582594e-04    -6.0283e-08      0.002 (TRAH MIcro)
  184     dE    -4.220539e-07     4.020438e-04    -4.2192e-07      0.018 (TRAH MIcro)
  184     dE    -6.565068e-07     1.570759e-04    -6.5598e-07      0.028 (TRAH MIcro)
  184     dE    -7.198631e-07     1.119769e-04    -7.1917e-07      0.031 (TRAH MIcro)
  184     dE    -7.509264e-07     1.006155e-04    -7.5013e-07      0.033 (TRAH MIcro)
  184     dE    -7.750876e-07     6.323460e-05    -7.7421e-07      0.034 (TRAH MIcro)
  184     dE    -7.923118e-07     8.517674e-05    -7.9137e-07      0.034 (TRAH MIcro)
  184     dE    -8.902203e-07     2.715249e-04    -8.8883e-07      0.040 (TRAH MIcro)
  184     dE    -1.289783e-06     3.138772e-04    -3.1672e-05      0.059 (TRAH MIcro)
  184     dE    -1.427870e-06     1.529370e-04    -8.7385e-05      0.059 (TRAH MIcro)
  184     dE    -1.520297e-06     1.993075e-04    -1.1555e-04      0.059 (TRAH MIcro)
  184     dE    -1.731484e-06     5.187842e-04    -2.6166e-04      0.055 (TRAH MIcro)
  184     dE    -1.185234e-06     9.880096e-05    -5.9108e-04      0.032 (TRAH MIcro)
  184     dE    -1.282919e-06     6.465371e-05    -6.0163e-04      0.034 (TRAH MIcro)
  184     dE    -1.486532e-06     1.850703e-04    -6.1998e-04      0.038 (TRAH MIcro)
  184     dE    -1.908208e-06     1.228838e-04    -6.4883e-04      0.044 (TRAH MIcro)
  184     dE    -2.449416e-06     2.464145e-04    -6.7619e-04      0.052 (TRAH MIcro)
  184     dE    -3.289439e-06     1.841361e-04    -7.5115e-04      0.059 (TRAH MIcro)
  184     dE    -3.360425e-06     9.231495e-05    -7.7560e-04      0.059 (TRAH MIcro)
  184     dE    -3.397206e-06     1.170733e-04    -7.8830e-04      0.059 (TRAH MIcro)
  184     dE    -5.900889e-07     2.603390e-05    -1.2417e-03      0.015 (TRAH MIcro)
  184     dE    -5.970180e-07     9.805365e-06    -1.2435e-03      0.015 (TRAH MIcro)
  185       -295.077846516742     3.677848e-05                           (NR   MAcro)
  185     dE    -2.359335e-08     1.214175e-04                           (NR   MIcro)
  185     dE    -2.251642e-07     3.048847e-04                           (NR   MIcro)
  185     dE    -5.429943e-07     1.816774e-04                           (NR   MIcro)
  185     dE    -6.059056e-07     7.654036e-05                           (NR   MIcro)
  185     dE    -6.275294e-07     6.453675e-05                           (NR   MIcro)
  185     dE    -6.431033e-07     4.992485e-05                           (NR   MIcro)
  185     dE    -6.551973e-07     4.881868e-05                           (NR   MIcro)
  185     dE    -6.779540e-07     1.120565e-04                           (NR   MIcro)
  185     dE    -9.660192e-07     3.376142e-04                           (NR   MIcro)
  185     dE    -1.161108e-06     1.292469e-04                           (NR   MIcro)
  185     dE    -1.268005e-06     2.180440e-04                           (NR   MIcro)
  185     dE    -2.093121e-06     8.234931e-04                           (NR   MIcro)
  185     dE     1.443324e-06     1.048124e-03                           (NR   MIcro)
  185     dE    -1.052414e-07     4.184486e-04                           (NR   MIcro)
  185     dE    -3.113574e-07     1.350681e-04                           (NR   MIcro)
  185     dE    -3.458008e-07     7.740370e-05                           (NR   MIcro)
  185     dE    -3.741300e-07     1.521447e-04                           (NR   MIcro)
  185     dE    -5.513652e-07     3.466786e-04                           (NR   MIcro)
  185     dE    -7.853551e-07     2.074726e-04                           (NR   MIcro)
  185     dE    -8.263631e-07     6.698460e-05                           (NR   MIcro)
  185     dE    -8.421258e-07     9.426783e-05                           (NR   MIcro)
  185     dE    -9.028304e-07     1.555895e-04                           (NR   MIcro)
  185     dE    -9.767317e-07     1.411290e-04                           (NR   MIcro)
  185     dE    -1.083426e-06     2.183347e-04                           (NR   MIcro)
  186       -295.077847570041     3.221261e-04                     0.071 (TRAH MAcro)   No
  186     dE    -1.198861e-07     1.107567e-04    -1.1989e-07      0.001 (TRAH MIcro)
  186     dE    -1.609120e-07     1.074867e-04    -1.6091e-07      0.001 (TRAH MIcro)
  186     dE    -2.072465e-07     9.924882e-05    -2.0725e-07      0.002 (TRAH MIcro)
  186     dE    -2.455405e-07     1.363079e-04    -2.4554e-07      0.004 (TRAH MIcro)
  186     dE    -3.246833e-07     1.793622e-04    -3.2467e-07      0.007 (TRAH MIcro)
  186     dE    -4.631468e-07     2.054018e-04    -4.6306e-07      0.013 (TRAH MIcro)
  186     dE    -5.070020e-07     6.162822e-05    -5.0688e-07      0.015 (TRAH MIcro)
  186     dE    -5.307912e-07     1.194373e-04    -5.3065e-07      0.017 (TRAH MIcro)
  186     dE    -6.311273e-07     1.995063e-04    -6.3082e-07      0.022 (TRAH MIcro)
  186     dE    -7.115996e-07     1.032282e-04    -7.1110e-07      0.027 (TRAH MIcro)
  186     dE    -7.313388e-07     5.995672e-05    -7.3078e-07      0.028 (TRAH MIcro)
  186     dE    -7.510427e-07     1.069599e-04    -7.5041e-07      0.029 (TRAH MIcro)
  186     dE    -7.993784e-07     1.609485e-04    -7.9856e-07      0.032 (TRAH MIcro)
  186     dE    -8.788755e-07     2.023506e-04    -8.7763e-07      0.038 (TRAH MIcro)
  186     dE    -1.171981e-06     3.683215e-04    -1.1676e-06      0.061 (TRAH MIcro)
  186     dE    -1.580857e-06     2.472550e-04    -7.0442e-05      0.071 (TRAH MIcro)
  186     dE    -1.684150e-06     1.853080e-04    -9.4933e-05      0.071 (TRAH MIcro)
  186     dE    -1.535081e-06     4.420164e-04    -2.4786e-04      0.051 (TRAH MIcro)
  186     dE    -1.443154e-06     1.875549e-04    -6.3634e-04      0.036 (TRAH MIcro)
  186     dE    -2.073652e-06     1.128380e-04    -6.7193e-04      0.046 (TRAH MIcro)
  186     dE    -2.385189e-06     1.039245e-04    -6.8527e-04      0.050 (TRAH MIcro)
  186     dE    -2.972354e-06     1.237159e-04    -7.0618e-04      0.057 (TRAH MIcro)
  186     dE    -3.488624e-06     1.444190e-04    -7.2127e-04      0.062 (TRAH MIcro)
  187       -295.077847626247     3.064174e-04                     0.048 (TRAH MAcro)   No
  187     dE    -1.127313e-07     9.955595e-05    -1.1273e-07      0.001 (TRAH MIcro)
  187     dE    -1.525858e-07     1.134891e-04    -1.5259e-07      0.001 (TRAH MIcro)
  187     dE    -2.249529e-07     8.825199e-05    -2.2495e-07      0.003 (TRAH MIcro)
  187     dE    -2.678882e-07     1.302444e-04    -2.6788e-07      0.004 (TRAH MIcro)
  187     dE    -5.308501e-07     3.191632e-04    -5.3074e-07      0.015 (TRAH MIcro)
  187     dE    -6.949837e-07     1.074780e-04    -6.9466e-07      0.021 (TRAH MIcro)
  187     dE    -7.245250e-07     6.955131e-05    -7.2415e-07      0.023 (TRAH MIcro)
  187     dE    -7.569104e-07     1.163536e-04    -7.5647e-07      0.024 (TRAH MIcro)
  187     dE    -9.042916e-07     2.604477e-04    -9.0342e-07      0.031 (TRAH MIcro)
  187     dE    -1.147674e-06     1.876450e-04    -1.1455e-06      0.044 (TRAH MIcro)
  187     dE    -1.300577e-06     1.920662e-04    -4.4785e-05      0.048 (TRAH MIcro)
  187     dE    -1.413558e-06     1.327683e-04    -1.0533e-04      0.048 (TRAH MIcro)
  187     dE    -1.460350e-06     7.807508e-05    -1.3052e-04      0.048 (TRAH MIcro)
  187     dE    -1.527275e-06     1.836945e-04    -1.6719e-04      0.048 (TRAH MIcro)
  187     dE    -1.740126e-06     2.467588e-04    -2.9623e-04      0.047 (TRAH MIcro)
  187     dE    -1.860845e-06     1.060226e-04    -3.6230e-04      0.048 (TRAH MIcro)
  187     dE    -1.901506e-06     1.037704e-04    -3.8687e-04      0.048 (TRAH MIcro)
  187     dE    -1.224261e-06     1.521777e-04    -7.0832e-04      0.028 (TRAH MIcro)
  187     dE    -1.451645e-06     8.546224e-05    -7.3233e-04      0.032 (TRAH MIcro)
  187     dE    -1.578222e-06     7.645189e-05    -7.4282e-04      0.034 (TRAH MIcro)
  187     dE    -1.714365e-06     1.474606e-04    -7.5254e-04      0.036 (TRAH MIcro)
  187     dE    -1.933485e-06     9.213159e-05    -7.6613e-04      0.040 (TRAH MIcro)
  187     dE    -2.223683e-06     2.229777e-04    -7.8117e-04      0.043 (TRAH MIcro)
  188       -295.077848451614     2.674063e-04                     0.048 (TRAH MAcro)   No
  188     dE    -5.905233e-08     8.901695e-05    -5.9052e-08      0.000 (TRAH MIcro)
  188     dE    -8.897938e-08     1.138488e-04    -8.8979e-08      0.001 (TRAH MIcro)
  188     dE    -1.260007e-07     9.231278e-05    -1.2600e-07      0.002 (TRAH MIcro)
  188     dE    -1.566229e-07     1.294640e-04    -1.5662e-07      0.003 (TRAH MIcro)
  188     dE    -2.592574e-07     2.897598e-04    -2.5924e-07      0.009 (TRAH MIcro)
  188     dE    -3.692982e-07     1.118399e-04    -3.6922e-07      0.014 (TRAH MIcro)
  188     dE    -3.933121e-07     6.311087e-05    -3.9321e-07      0.016 (TRAH MIcro)
  188     dE    -4.236027e-07     1.399661e-04    -4.2347e-07      0.017 (TRAH MIcro)
  188     dE    -5.229257e-07     1.570486e-04    -5.2264e-07      0.024 (TRAH MIcro)
  188     dE    -5.705094e-07     7.160721e-05    -5.7011e-07      0.027 (TRAH MIcro)
  188     dE    -5.844680e-07     7.079005e-05    -5.8403e-07      0.028 (TRAH MIcro)
  188     dE    -6.110346e-07     1.029019e-04    -6.1051e-07      0.029 (TRAH MIcro)
  188     dE    -6.547709e-07     1.346187e-04    -6.5408e-07      0.032 (TRAH MIcro)
  188     dE    -7.503813e-07     2.514885e-04    -7.4918e-07      0.040 (TRAH MIcro)
  188     dE    -1.008619e-06     2.094061e-04    -9.5459e-05      0.048 (TRAH MIcro)
  188     dE    -1.092563e-06     1.004993e-04    -1.4297e-04      0.048 (TRAH MIcro)
  188     dE    -1.023495e-06     5.651802e-05    -1.9042e-04      0.042 (TRAH MIcro)
  188     dE    -1.140841e-06     2.476375e-04    -1.9922e-04      0.046 (TRAH MIcro)
  188     dE    -1.253004e-06     2.433609e-04    -5.2901e-04      0.037 (TRAH MIcro)
  188     dE    -1.888561e-06     1.588636e-04    -5.9959e-04      0.048 (TRAH MIcro)
  188     dE    -1.930361e-06     1.680281e-04    -6.5137e-04      0.047 (TRAH MIcro)
  188     dE    -2.077533e-06     1.107508e-04    -7.0188e-04      0.048 (TRAH MIcro)
  188     dE    -4.532914e-07     1.257889e-05    -1.1351e-03      0.012 (TRAH MIcro)
  189       -295.077848894523     3.041091e-05                           (NR   MAcro)
  189     dE    -1.167834e-08     8.070896e-05                           (NR   MIcro)
  189     dE    -7.976581e-08     1.988061e-04                           (NR   MIcro)
  189     dE    -2.796065e-07     1.393949e-04                           (NR   MIcro)
  189     dE    -3.431939e-07     1.184903e-04                           (NR   MIcro)
  189     dE    -4.002381e-07     1.072536e-04                           (NR   MIcro)
  189     dE    -4.208890e-07     3.582675e-05                           (NR   MIcro)
  189     dE    -4.383061e-07     9.435168e-05                           (NR   MIcro)
  189     dE    -5.048171e-07     1.199122e-04                           (NR   MIcro)
  189     dE    -5.661459e-07     9.670587e-05                           (NR   MIcro)
  189     dE    -5.856431e-07     5.385257e-05                           (NR   MIcro)
  189     dE    -6.263436e-07     1.525983e-04                           (NR   MIcro)
  189     dE    -7.170421e-07     1.516664e-04                           (NR   MIcro)
  189     dE    -8.303711e-07     1.746423e-04                           (NR   MIcro)
  189     dE    -1.025556e-06     2.642977e-04                           (NR   MIcro)
  189     dE    -1.183974e-06     1.897212e-04                           (NR   MIcro)
  189     dE    -1.518097e-06     5.686146e-04                           (NR   MIcro)
  189     dE     8.171982e-08     8.018286e-04                           (NR   MIcro)
  189     dE    -3.996662e-07     1.760849e-04                           (NR   MIcro)
  189     dE    -4.227062e-07     4.922432e-05                           (NR   MIcro)
  189     dE    -4.321899e-07     5.867699e-05                           (NR   MIcro)
  189     dE    -4.699884e-07     1.823970e-04                           (NR   MIcro)
  189     dE    -5.192781e-07     6.460214e-05                           (NR   MIcro)
  189     dE    -5.325381e-07     6.482453e-05                           (NR   MIcro)
  189     dE    -5.533968e-07     6.505222e-05                           (NR   MIcro)
  190       -295.077849842895     1.048880e-04                     0.057 (TRAH MAcro)   No
  190     dE    -1.282189e-08     4.067092e-05    -1.2822e-08      0.000 (TRAH MIcro)
  190     dE    -3.262238e-08     1.039371e-04    -3.2622e-08      0.001 (TRAH MIcro)
  190     dE    -9.816642e-08     1.560436e-04    -9.8163e-08      0.006 (TRAH MIcro)
  190     dE    -1.622568e-07     1.191525e-04    -1.6224e-07      0.010 (TRAH MIcro)
  190     dE    -2.093701e-07     1.039406e-04    -2.0933e-07      0.014 (TRAH MIcro)
  190     dE    -2.523240e-07     9.312487e-05    -2.5225e-07      0.017 (TRAH MIcro)
  190     dE    -2.718914e-07     6.057879e-05    -2.7180e-07      0.018 (TRAH MIcro)
  190     dE    -3.110828e-07     1.740577e-04    -3.1094e-07      0.021 (TRAH MIcro)
  190     dE    -8.029707e-07     5.057035e-04    -2.4122e-05      0.057 (TRAH MIcro)
  190     dE    -1.079144e-06     1.708221e-04    -1.1615e-04      0.057 (TRAH MIcro)
  190     dE    -1.013700e-06     1.017118e-04    -1.6680e-04      0.050 (TRAH MIcro)
  190     dE    -1.132081e-06     1.951827e-04    -1.7595e-04      0.053 (TRAH MIcro)
  190     dE    -1.482520e-06     4.162893e-04    -2.5435e-04      0.057 (TRAH MIcro)
  190     dE    -1.691792e-06     1.773193e-04    -3.2872e-04      0.057 (TRAH MIcro)
  190     dE    -1.140966e-06     1.523467e-04    -4.4743e-04      0.040 (TRAH MIcro)
  190     dE    -1.501798e-06     2.074273e-04    -4.8202e-04      0.046 (TRAH MIcro)
  190     dE    -1.929866e-06     2.193612e-04    -5.1220e-04      0.053 (TRAH MIcro)
  190     dE    -2.510143e-06     4.985508e-04    -6.2594e-04      0.057 (TRAH MIcro)
  190     dE    -7.641706e-07     6.297725e-05    -9.0709e-04      0.024 (TRAH MIcro)
  190     dE    -8.623920e-07     5.048285e-05    -9.2215e-04      0.026 (TRAH MIcro)
  190     dE    -1.056425e-06     1.229006e-04    -9.4600e-04      0.029 (TRAH MIcro)
  190     dE    -2.779304e-06     2.692653e-04    -1.0532e-03      0.049 (TRAH MIcro)
  190     dE    -3.813386e-06     1.087766e-04    -1.0892e-03      0.057 (TRAH MIcro)
 ---------------------------------
          TRAH Step control 
 ---------------------------------
  predicted energy change =    -3.813385771333e-06
  actual energy  change   =     4.719396429209e-08
  energy change ratio     = -0.012376
  old trust radius        = 0.057223
  new trust radius        = 0.038339
  reject step?            = YES
  191       -295.077849795701     1.048880e-04                     0.038 (TRAH MAcro)  Yes
  192       -295.077849795701     2.637256e-04                     0.038 (TRAH MAcro)   No
  192     dE    -8.052566e-08     6.668240e-05    -8.0526e-08      0.000 (TRAH MIcro)
  192     dE    -9.471546e-08     6.035051e-05    -9.4715e-08      0.001 (TRAH MIcro)
  192     dE    -1.133104e-07     5.200076e-05    -1.1331e-07      0.001 (TRAH MIcro)
  192     dE    -1.236879e-07     5.963023e-05    -1.2369e-07      0.002 (TRAH MIcro)
  192     dE    -1.840768e-07     2.038579e-04    -1.8407e-07      0.006 (TRAH MIcro)
  192     dE    -8.326835e-07     4.442194e-04    -1.6520e-04      0.038 (TRAH MIcro)
  192     dE    -9.411080e-07     1.246512e-04    -5.0651e-04      0.030 (TRAH MIcro)
  192     dE    -1.012525e-06     6.098554e-05    -5.2279e-04      0.031 (TRAH MIcro)
  192     dE    -1.081273e-06     1.214447e-04    -5.3749e-04      0.032 (TRAH MIcro)
  192     dE    -1.355095e-06     1.288501e-04    -5.8708e-04      0.037 (TRAH MIcro)
  192     dE    -1.504086e-06     1.242196e-04    -6.2969e-04      0.038 (TRAH MIcro)
  192     dE    -1.572470e-06     1.402783e-04    -6.8275e-04      0.038 (TRAH MIcro)
  192     dE    -1.653701e-06     1.057636e-04    -7.4723e-04      0.038 (TRAH MIcro)
  192     dE    -1.743032e-06     2.268659e-04    -8.2041e-04      0.038 (TRAH MIcro)
  192     dE    -7.816025e-07     9.434206e-05    -1.2479e-03      0.019 (TRAH MIcro)
  192     dE    -9.192115e-07     4.926758e-05    -1.2824e-03      0.022 (TRAH MIcro)
  192     dE    -9.440119e-07     2.213278e-05    -1.2877e-03      0.022 (TRAH MIcro)
  193       -295.077850240275     5.670393e-05                           (NR   MAcro)
  193     dE    -6.856986e-09     3.089571e-05                           (NR   MIcro)
  193     dE    -1.921432e-08     9.134265e-05                           (NR   MIcro)
  193     dE    -1.284557e-07     1.889210e-04                           (NR   MIcro)
  193     dE    -1.965152e-07     7.727884e-05                           (NR   MIcro)
  193     dE    -2.418853e-07     1.356840e-04                           (NR   MIcro)
  193     dE    -3.253308e-07     1.207884e-04                           (NR   MIcro)
  193     dE    -3.959400e-07     1.669124e-04                           (NR   MIcro)
  193     dE    -1.135567e-06     5.646703e-04                           (NR   MIcro)
  193     dE    -1.062464e-05     3.270491e-03                           (NR   MIcro)
  193     dE     6.330384e-06     1.149089e-03                           (NR   MIcro)
  193     dE     1.550091e-06     8.439749e-04                           (NR   MIcro)
  193     dE     3.505681e-07     2.819868e-04                           (NR   MIcro)
  193     dE     2.174597e-07     8.893129e-05                           (NR   MIcro)
  193     dE     1.855998e-07     9.697298e-05                           (NR   MIcro)
  193     dE     8.877074e-08     1.869959e-04                           (NR   MIcro)
  193     dE    -8.191071e-08     2.073288e-04                           (NR   MIcro)
  193     dE    -2.302148e-07     2.179863e-04                           (NR   MIcro)
  193     dE    -5.513189e-07     3.126341e-04                           (NR   MIcro)
  193     dE    -6.381363e-07     1.167958e-04                           (NR   MIcro)
  193     dE    -7.568570e-07     2.699479e-04                           (NR   MIcro)
  193     dE    -2.307867e-06     1.476785e-03                           (NR   MIcro)
  193     dE     6.911822e-06     2.027049e-03                           (NR   MIcro)
  193     dE     3.960137e-06     4.990414e-04                           (NR   MIcro)
  193     dE     3.079679e-06     3.983595e-04                           (NR   MIcro)
  194       -295.077813025310     5.194461e-03                     0.038 (TRAH MAcro)   No
  194     dE    -2.287903e-05     2.858833e-04    -2.2879e-05      0.005 (TRAH MIcro)
  195       -295.077835913209     2.844818e-04                     0.046 (TRAH MAcro)   No
  195     dE    -1.294939e-07     1.210691e-04    -1.2949e-07      0.001 (TRAH MIcro)
  195     dE    -3.365360e-07     3.626222e-04    -3.3653e-07      0.004 (TRAH MIcro)
  195     dE    -1.365683e-06     5.754203e-04    -1.3650e-06      0.022 (TRAH MIcro)
  195     dE    -2.130195e-06     3.363093e-04    -2.1274e-06      0.036 (TRAH MIcro)
  195     dE    -2.355354e-06     2.047492e-04    -2.3516e-06      0.040 (TRAH MIcro)
  195     dE    -2.460512e-06     1.370992e-04    -2.4561e-06      0.042 (TRAH MIcro)
  195     dE    -2.537754e-06     1.430733e-04    -2.5329e-06      0.044 (TRAH MIcro)
  195     dE    -2.596501e-06     1.646365e-04    -2.5913e-06      0.045 (TRAH MIcro)
  195     dE    -2.762839e-06     3.443805e-04    -7.3666e-05      0.046 (TRAH MIcro)
  195     dE    -3.157968e-06     2.445974e-04    -3.5493e-04      0.046 (TRAH MIcro)
  195     dE    -3.209358e-06     6.523487e-05    -3.9432e-04      0.046 (TRAH MIcro)
  195     dE    -3.227961e-06     9.642072e-05    -4.0866e-04      0.046 (TRAH MIcro)
  195     dE    -3.077862e-06     1.522758e-04    -5.8067e-04      0.041 (TRAH MIcro)
  195     dE    -3.165215e-06     7.689950e-05    -5.8634e-04      0.042 (TRAH MIcro)
  195     dE    -3.233733e-06     9.101532e-05    -5.9039e-04      0.043 (TRAH MIcro)
  195     dE    -3.328382e-06     9.562714e-05    -5.9556e-04      0.044 (TRAH MIcro)
  195     dE    -3.429939e-06     9.570899e-05    -6.0064e-04      0.046 (TRAH MIcro)
  195     dE    -3.554326e-06     3.245918e-04    -6.9635e-04      0.046 (TRAH MIcro)
  195     dE    -2.192931e-06     2.959819e-05    -1.3999e-03      0.025 (TRAH MIcro)
  195     dE    -2.197898e-06     1.022556e-05    -1.4006e-03      0.025 (TRAH MIcro)
  196       -295.077838129364     6.133971e-05                           (NR   MAcro)
  196     dE    -1.117400e-07     2.832122e-04                           (NR   MIcro)
  196     dE    -9.615789e-07     4.837426e-04                           (NR   MIcro)
  196     dE    -1.378895e-06     1.665148e-04                           (NR   MIcro)
  196     dE    -1.419112e-06     6.066689e-05                           (NR   MIcro)
  196     dE    -1.469622e-06     1.557751e-04                           (NR   MIcro)
  196     dE    -1.660495e-06     2.053166e-04                           (NR   MIcro)
  196     dE    -1.894007e-06     2.375135e-04                           (NR   MIcro)
  196     dE    -2.136295e-06     2.355999e-04                           (NR   MIcro)
  196     dE    -2.369666e-06     1.736397e-04                           (NR   MIcro)
  196     dE    -2.444270e-06     1.162750e-04                           (NR   MIcro)
  196     dE    -2.725046e-06     4.499499e-04                           (NR   MIcro)
  196     dE     4.703384e-06     3.193966e-03                           (NR   MIcro)
  196     dE    -9.769326e-08     3.884768e-04                           (NR   MIcro)
  196     dE    -4.860206e-07     3.181827e-04                           (NR   MIcro)
  196     dE    -9.307699e-07     3.277006e-04                           (NR   MIcro)
  196     dE    -1.257542e-06     2.169786e-04                           (NR   MIcro)
  196     dE    -1.363241e-06     1.863697e-04                           (NR   MIcro)
  196     dE    -1.451132e-06     1.644940e-04                           (NR   MIcro)
  196     dE    -1.486474e-06     9.441193e-05                           (NR   MIcro)
  196     dE    -1.518611e-06     1.228868e-04                           (NR   MIcro)
  196     dE    -1.616961e-06     2.817703e-04                           (NR   MIcro)
  196     dE    -1.693214e-06     5.487417e-05                           (NR   MIcro)
  196     dE    -1.701868e-06     4.996444e-05                           (NR   MIcro)
  196     dE    -1.732061e-06     1.467990e-04                           (NR   MIcro)
  197       -295.077840902055     2.127762e-04                     0.055 (TRAH MAcro)   No
  197     dE    -5.672379e-08     7.537290e-05    -5.6724e-08      0.000 (TRAH MIcro)
  197     dE    -8.408132e-08     1.051958e-04    -8.4081e-08      0.001 (TRAH MIcro)
  197     dE    -2.394331e-07     3.244983e-04    -2.3942e-07      0.007 (TRAH MIcro)
  197     dE    -4.951912e-07     2.312377e-04    -4.9506e-07      0.016 (TRAH MIcro)
  197     dE    -6.227269e-07     1.567270e-04    -6.2245e-07      0.021 (TRAH MIcro)
  197     dE    -6.780100e-07     1.567228e-04    -6.7764e-07      0.023 (TRAH MIcro)
  197     dE    -7.268522e-07     8.966783e-05    -7.2639e-07      0.025 (TRAH MIcro)
  197     dE    -7.483035e-07     9.688286e-05    -7.4779e-07      0.026 (TRAH MIcro)
  197     dE    -8.176091e-07     1.845455e-04    -8.1691e-07      0.029 (TRAH MIcro)
  197     dE    -9.357669e-07     1.363728e-04    -9.3461e-07      0.035 (TRAH MIcro)
  197     dE    -9.744443e-07     1.122427e-04    -9.7309e-07      0.037 (TRAH MIcro)
  197     dE    -1.091698e-06     2.916519e-04    -1.0896e-06      0.044 (TRAH MIcro)
  197     dE    -2.153206e-06     5.972969e-04    -3.7033e-04      0.055 (TRAH MIcro)
  197     dE    -1.349103e-06     8.671818e-05    -6.8211e-04      0.032 (TRAH MIcro)
  197     dE    -1.491449e-06     1.123823e-04    -6.9811e-04      0.034 (TRAH MIcro)
  197     dE    -1.705258e-06     1.217573e-04    -7.1846e-04      0.038 (TRAH MIcro)
  197     dE    -1.924475e-06     1.147258e-04    -7.3613e-04      0.041 (TRAH MIcro)
  197     dE    -2.476309e-06     2.870121e-04    -7.7152e-04      0.047 (TRAH MIcro)
  197     dE    -3.368571e-06     1.869883e-04    -8.5902e-04      0.055 (TRAH MIcro)
  197     dE    -3.418743e-06     7.406183e-05    -8.7905e-04      0.055 (TRAH MIcro)
  197     dE    -3.437860e-06     9.389475e-05    -8.8673e-04      0.055 (TRAH MIcro)
  197     dE    -3.589655e-06     2.740996e-04    -9.4780e-04      0.055 (TRAH MIcro)
  197     dE    -6.628895e-07     1.886787e-05    -1.4801e-03      0.014 (TRAH MIcro)
  198       -295.077841547952     4.373209e-05                           (NR   MAcro)
  198     dE    -3.865130e-08     1.559788e-04                           (NR   MIcro)
  198     dE    -2.366800e-07     2.962546e-04                           (NR   MIcro)
  198     dE    -5.352085e-07     1.450240e-04                           (NR   MIcro)
  198     dE    -5.709714e-07     5.905473e-05                           (NR   MIcro)
  198     dE    -5.848093e-07     5.650655e-05                           (NR   MIcro)
  198     dE    -5.975413e-07     4.517201e-05                           (NR   MIcro)
  198     dE    -6.071169e-07     5.155497e-05                           (NR   MIcro)
  198     dE    -6.381556e-07     1.399239e-04                           (NR   MIcro)
  198     dE     3.286928e-05     3.626064e-02                           (NR   MIcro)
  198     dE     8.003405e-08     2.139425e-04                           (NR   MIcro)
  198     dE    -1.437225e-07     2.476259e-04                           (NR   MIcro)
  198     dE    -3.339782e-07     1.985320e-04                           (NR   MIcro)
  198     dE    -3.948921e-07     9.269557e-05                           (NR   MIcro)
  198     dE    -4.064366e-07     6.032939e-05                           (NR   MIcro)
  198     dE    -4.182719e-07     6.105126e-05                           (NR   MIcro)
  198     dE    -4.334559e-07     8.108026e-05                           (NR   MIcro)
  198     dE    -4.558406e-07     1.171579e-04                           (NR   MIcro)
  198     dE    -5.392860e-07     2.079574e-04                           (NR   MIcro)
  198     dE    -6.132958e-07     1.042883e-04                           (NR   MIcro)
  198     dE    -6.386913e-07     8.251221e-05                           (NR   MIcro)
  198     dE    -7.906314e-07     5.525114e-04                           (NR   MIcro)
  198     dE     6.491632e-08     2.801287e-04                           (NR   MIcro)
  198     dE    -7.382379e-08     1.312301e-04                           (NR   MIcro)
  198     dE    -1.260578e-07     8.803095e-05                           (NR   MIcro)
  199       -295.077841326210     1.997115e-04                     0.066 (TRAH MAcro)   No
  199     dE    -5.772945e-08     7.271798e-05    -5.7729e-08      0.001 (TRAH MIcro)
  199     dE    -1.145990e-07     1.760426e-04    -1.1460e-07      0.002 (TRAH MIcro)
  199     dE    -3.384067e-07     2.770087e-04    -3.3837e-07      0.010 (TRAH MIcro)
  199     dE    -5.783527e-07     2.717523e-04    -5.7815e-07      0.019 (TRAH MIcro)
  199     dE    -7.879329e-07     2.077582e-04    -7.8739e-07      0.026 (TRAH MIcro)
  199     dE    -9.412684e-07     1.787347e-04    -9.4030e-07      0.032 (TRAH MIcro)
  199     dE    -9.824930e-07     5.947649e-05    -9.8138e-07      0.034 (TRAH MIcro)
  199     dE    -1.014032e-06     1.431355e-04    -1.0128e-06      0.035 (TRAH MIcro)
  199     dE    -1.263211e-06     3.506685e-04    -1.2606e-06      0.046 (TRAH MIcro)
  199     dE    -1.607511e-06     2.632075e-04    -1.6012e-06      0.063 (TRAH MIcro)
  199     dE    -1.816027e-06     2.086492e-04    -4.2637e-05      0.066 (TRAH MIcro)
  199     dE    -1.993132e-06     3.111160e-04    -9.2566e-05      0.066 (TRAH MIcro)
  199     dE    -2.214066e-06     2.722252e-04    -1.5559e-04      0.066 (TRAH MIcro)
  199     dE    -2.433720e-06     4.159894e-04    -2.3307e-04      0.065 (TRAH MIcro)
  199     dE    -2.982285e-06     2.940988e-04    -3.7981e-04      0.066 (TRAH MIcro)
  199     dE    -3.174084e-06     1.722271e-04    -4.3592e-04      0.066 (TRAH MIcro)
  199     dE    -3.235474e-06     1.504027e-04    -4.5385e-04      0.066 (TRAH MIcro)
  199     dE    -3.389277e-06     3.165851e-04    -5.0255e-04      0.066 (TRAH MIcro)
  199     dE    -1.627154e-06     8.695156e-05    -7.6279e-04      0.034 (TRAH MIcro)
  199     dE    -1.682840e-06     3.350363e-05    -7.6738e-04      0.035 (TRAH MIcro)
  199     dE    -1.739852e-06     7.750410e-05    -7.7170e-04      0.036 (TRAH MIcro)
  199     dE    -2.082842e-06     1.177972e-04    -7.9268e-04      0.041 (TRAH MIcro)
  199     dE    -2.610293e-06     1.308774e-04    -8.1596e-04      0.047 (TRAH MIcro)
  200       -295.077842334913     2.005898e-04                     0.066 (TRAH MAcro)   No
  200     dE    -6.575746e-08     9.235856e-05    -6.5757e-08      0.000 (TRAH MIcro)
  200     dE    -1.125646e-07     1.244483e-04    -1.1256e-07      0.001 (TRAH MIcro)
  200     dE    -1.605764e-07     7.332454e-05    -1.6058e-07      0.002 (TRAH MIcro)
  200     dE    -1.982900e-07     1.326824e-04    -1.9829e-07      0.004 (TRAH MIcro)
  200     dE    -4.437920e-07     3.053063e-04    -4.4370e-07      0.014 (TRAH MIcro)
  200     dE    -6.170094e-07     1.035368e-04    -6.1670e-07      0.022 (TRAH MIcro)
  200     dE    -6.397139e-07     5.141447e-05    -6.3937e-07      0.023 (TRAH MIcro)
  200     dE    -6.537972e-07     6.567463e-05    -6.5342e-07      0.024 (TRAH MIcro)
  200     dE    -6.877737e-07     1.063056e-04    -6.8732e-07      0.026 (TRAH MIcro)
  200     dE    -7.207041e-07     5.333074e-05    -7.2016e-07      0.027 (TRAH MIcro)
  200     dE    -7.385466e-07     7.612540e-05    -7.3795e-07      0.028 (TRAH MIcro)
  200     dE    -7.605325e-07     5.786434e-05    -7.5986e-07      0.030 (TRAH MIcro)
  200     dE    -7.783338e-07     8.324708e-05    -7.7760e-07      0.031 (TRAH MIcro)
  200     dE    -8.644151e-07     2.217253e-04    -8.6324e-07      0.037 (TRAH MIcro)
  200     dE    -1.330047e-06     3.479419e-04    -3.9723e-05      0.066 (TRAH MIcro)
  200     dE    -1.484703e-06     1.125778e-04    -8.6112e-05      0.066 (TRAH MIcro)
  200     dE    -1.515236e-06     5.010923e-05    -9.2721e-05      0.066 (TRAH MIcro)
  200     dE    -1.532906e-06     1.196405e-04    -9.7755e-05      0.066 (TRAH MIcro)
  200     dE    -1.562269e-06     8.241269e-05    -1.0619e-04      0.066 (TRAH MIcro)
  200     dE    -1.602154e-06     1.694024e-04    -1.1786e-04      0.066 (TRAH MIcro)
  200     dE    -1.705839e-06     2.128097e-04    -1.4912e-04      0.066 (TRAH MIcro)
  200     dE    -1.381315e-06     9.211955e-05    -2.3214e-04      0.048 (TRAH MIcro)
  200     dE    -1.424316e-06     4.910880e-05    -2.3413e-04      0.050 (TRAH MIcro)
  201       -295.077843578964     1.240215e-04                     0.080 (TRAH MAcro)   No
  201     dE    -2.795965e-08     6.774515e-05    -2.7960e-08      0.000 (TRAH MIcro)
  201     dE    -1.143284e-07     2.162190e-04    -1.1433e-07      0.004 (TRAH MIcro)
  201     dE    -3.148764e-07     1.898268e-04    -3.1483e-07      0.012 (TRAH MIcro)
  201     dE    -3.692056e-07     8.492146e-05    -3.6913e-07      0.014 (TRAH MIcro)
  201     dE    -3.967925e-07     8.496850e-05    -3.9670e-07      0.015 (TRAH MIcro)
  201     dE    -4.148604e-07     3.988745e-05    -4.1475e-07      0.016 (TRAH MIcro)
  201     dE    -4.241012e-07     5.510095e-05    -4.2398e-07      0.017 (TRAH MIcro)
  201     dE    -4.496194e-07     1.070248e-04    -4.4947e-07      0.018 (TRAH MIcro)
  201     dE    -4.943033e-07     9.083895e-05    -4.9409e-07      0.021 (TRAH MIcro)
  201     dE    -5.054427e-07     3.192931e-05    -5.0521e-07      0.022 (TRAH MIcro)
  201     dE    -5.084795e-07     2.733723e-05    -5.0824e-07      0.022 (TRAH MIcro)
  201     dE    -5.146920e-07     6.187692e-05    -5.1444e-07      0.022 (TRAH MIcro)
  201     dE    -5.274354e-07     6.972396e-05    -5.2715e-07      0.023 (TRAH MIcro)
  201     dE    -5.599608e-07     1.842822e-04    -5.5957e-07      0.026 (TRAH MIcro)
  201     dE    -1.201736e-06     6.005325e-04    -6.4933e-05      0.075 (TRAH MIcro)
  201     dE    -1.762075e-06     2.777615e-04    -2.0086e-04      0.072 (TRAH MIcro)
  201     dE    -2.172943e-06     2.995232e-04    -2.2523e-04      0.080 (TRAH MIcro)
  201     dE    -7.389140e-07     1.577992e-04    -4.4449e-04      0.026 (TRAH MIcro)
  201     dE    -9.371514e-07     6.696957e-05    -4.6367e-04      0.033 (TRAH MIcro)
  201     dE    -9.869015e-07     3.215041e-05    -4.6754e-04      0.034 (TRAH MIcro)
  201     dE    -1.034755e-06     7.029687e-05    -4.7105e-04      0.035 (TRAH MIcro)
  201     dE    -1.491986e-06     1.496700e-04    -4.9697e-04      0.045 (TRAH MIcro)
  201     dE    -2.232401e-06     2.030231e-04    -5.2389e-04      0.057 (TRAH MIcro)
  202       -295.077843905901     2.596301e-04                     0.053 (TRAH MAcro)   No
  202     dE    -1.105699e-07     1.213763e-04    -1.1057e-07      0.001 (TRAH MIcro)
  202     dE    -1.889105e-07     1.422325e-04    -1.8891e-07      0.001 (TRAH MIcro)
  202     dE    -2.318169e-07     6.348248e-05    -2.3182e-07      0.002 (TRAH MIcro)
  202     dE    -2.537436e-07     9.393273e-05    -2.5374e-07      0.003 (TRAH MIcro)
  202     dE    -3.979855e-07     2.690344e-04    -3.9795e-07      0.009 (TRAH MIcro)
  202     dE    -5.506834e-07     1.162548e-04    -5.5054e-07      0.016 (TRAH MIcro)
  202     dE    -5.818056e-07     6.032256e-05    -5.8162e-07      0.018 (TRAH MIcro)
  202     dE    -5.970314e-07     6.985991e-05    -5.9682e-07      0.019 (TRAH MIcro)
  202     dE    -6.352128e-07     1.251018e-04    -6.3494e-07      0.021 (TRAH MIcro)
  202     dE    -6.697986e-07     6.507585e-05    -6.6946e-07      0.023 (TRAH MIcro)
  202     dE    -6.910189e-07     7.927487e-05    -6.9063e-07      0.024 (TRAH MIcro)
  202     dE    -7.157430e-07     7.062831e-05    -7.1528e-07      0.025 (TRAH MIcro)
  202     dE    -7.387324e-07     9.581235e-05    -7.3820e-07      0.027 (TRAH MIcro)
  202     dE    -1.067179e-06     7.366647e-04    -4.1195e-06      0.053 (TRAH MIcro)
  202     dE    -2.620947e-06     4.679006e-04    -7.3251e-04      0.051 (TRAH MIcro)
  202     dE    -3.051706e-06     1.436623e-04    -8.3453e-04      0.053 (TRAH MIcro)
  202     dE    -3.110418e-06     1.046361e-04    -8.5780e-04      0.053 (TRAH MIcro)
  202     dE    -3.216470e-06     3.271010e-04    -8.9973e-04      0.053 (TRAH MIcro)
  202     dE    -5.618388e-07     1.870486e-05    -1.5391e-03      0.011 (TRAH MIcro)
  203       -295.077844475995     3.879090e-05                           (NR   MAcro)
  203     dE    -2.416498e-08     1.143240e-04                           (NR   MIcro)
  203     dE    -1.293021e-07     2.195121e-04                           (NR   MIcro)
  203     dE    -3.017033e-07     1.194562e-04                           (NR   MIcro)
  203     dE    -3.573043e-07     1.125302e-04                           (NR   MIcro)
  203     dE    -4.018283e-07     6.997128e-05                           (NR   MIcro)
  203     dE    -4.094357e-07     2.139989e-05                           (NR   MIcro)
  203     dE    -4.119996e-07     3.173055e-05                           (NR   MIcro)
  203     dE    -4.247340e-07     7.390650e-05                           (NR   MIcro)
  203     dE    -4.889816e-07     1.641150e-04                           (NR   MIcro)
  203     dE    -6.745142e-07     1.950187e-04                           (NR   MIcro)
  203     dE     4.130784e-07     8.276562e-04                           (NR   MIcro)
  203     dE    -1.938679e-07     1.752898e-04                           (NR   MIcro)
  203     dE    -2.884299e-07     1.047352e-04                           (NR   MIcro)
  203     dE    -3.328015e-07     9.318390e-05                           (NR   MIcro)
  203     dE    -3.477906e-07     2.646728e-05                           (NR   MIcro)
  203     dE    -3.510208e-07     3.643628e-05                           (NR   MIcro)
  203     dE    -3.591575e-07     5.943947e-05                           (NR   MIcro)
  203     dE    -3.849487e-07     8.355797e-05                           (NR   MIcro)
  203     dE    -3.905662e-07     1.933440e-05                           (NR   MIcro)
  203     dE    -3.918816e-07     2.301946e-05                           (NR   MIcro)
  203     dE    -4.002518e-07     9.092639e-05                           (NR   MIcro)
  203     dE    -4.248260e-07     8.907986e-05                           (NR   MIcro)
  203     dE    -1.453222e-06     3.839584e-03                           (NR   MIcro)
  203     dE    -3.233615e-07     6.523164e-05                           (NR   MIcro)
  204       -295.077845042077     8.502801e-05                           (NR   MAcro)
  204     dE    -1.687385e-08     5.599522e-05                           (NR   MIcro)
  204     dE    -4.816713e-08     1.147838e-04                           (NR   MIcro)
  204     dE    -2.120761e-07     2.476194e-04                           (NR   MIcro)
  204     dE    -3.990937e-07     1.296374e-04                           (NR   MIcro)
  204     dE    -4.302905e-07     5.142702e-05                           (NR   MIcro)
  204     dE    -4.438477e-07     6.414199e-05                           (NR   MIcro)
  204     dE    -4.680535e-07     6.968704e-05                           (NR   MIcro)
  204     dE    -4.932764e-07     9.557388e-05                           (NR   MIcro)
  204     dE    -5.693611e-07     2.037253e-04                           (NR   MIcro)
  204     dE    -7.649851e-07     1.457845e-04                           (NR   MIcro)
  204     dE    -8.526493e-07     1.289664e-04                           (NR   MIcro)
  204     dE    -1.027949e-06     3.214204e-04                           (NR   MIcro)
  204     dE    -1.908252e-07     4.116736e-04                           (NR   MIcro)
  204     dE    -3.284511e-07     6.941714e-05                           (NR   MIcro)
  204     dE    -3.384277e-07     4.861665e-05                           (NR   MIcro)
  204     dE    -3.470900e-07     5.247191e-05                           (NR   MIcro)
  204     dE    -3.562308e-07     5.396263e-05                           (NR   MIcro)
  204     dE    -3.636343e-07     5.386977e-05                           (NR   MIcro)
  204     dE    -3.725497e-07     4.351899e-05                           (NR   MIcro)
  204     dE    -3.778964e-07     3.324943e-05                           (NR   MIcro)
  204     dE    -3.812782e-07     4.110419e-05                           (NR   MIcro)
  204     dE    -4.035783e-07     1.800762e-04                           (NR   MIcro)
  204     dE    -5.974268e-07     3.137243e-04                           (NR   MIcro)
  204     dE    -8.775366e-07     2.867971e-04                           (NR   MIcro)
  205       -295.077844359163     3.759725e-04                     0.064 (TRAH MAcro)   No
  205     dE    -1.825887e-07     1.409121e-04    -1.8259e-07      0.001 (TRAH MIcro)
  205     dE    -3.008023e-07     2.161976e-04    -3.0080e-07      0.002 (TRAH MIcro)
  205     dE    -4.506804e-07     1.636532e-04    -4.5067e-07      0.004 (TRAH MIcro)
  205     dE    -5.613275e-07     2.032050e-04    -5.6130e-07      0.007 (TRAH MIcro)
  205     dE    -1.045018e-06     5.038336e-04    -1.0446e-06      0.019 (TRAH MIcro)
  205     dE    -1.397476e-06     1.774456e-04    -1.3964e-06      0.028 (TRAH MIcro)
  205     dE    -1.465257e-06     1.010565e-04    -1.4639e-06      0.030 (TRAH MIcro)
  205     dE    -1.499273e-06     1.232004e-04    -1.4978e-06      0.031 (TRAH MIcro)
  205     dE    -1.630092e-06     3.173972e-04    -1.6281e-06      0.035 (TRAH MIcro)
  205     dE    -1.954428e-06     2.879341e-04    -1.9503e-06      0.046 (TRAH MIcro)
  205     dE    -2.514470e-06     5.011267e-04    -3.7799e-05      0.064 (TRAH MIcro)
  205     dE    -3.157121e-06     3.902346e-04    -2.3737e-04      0.064 (TRAH MIcro)
  205     dE    -2.919768e-06     2.771130e-04    -4.7952e-04      0.050 (TRAH MIcro)
  205     dE    -4.393544e-06     5.311154e-04    -6.1668e-04      0.064 (TRAH MIcro)
  205     dE    -2.420529e-06     1.972638e-04    -1.1904e-03      0.033 (TRAH MIcro)
  205     dE    -2.684144e-06     7.177405e-05    -1.2115e-03      0.035 (TRAH MIcro)
  205     dE    -2.816890e-06     9.777486e-05    -1.2210e-03      0.037 (TRAH MIcro)
  205     dE    -3.999566e-06     4.379382e-04    -1.2845e-03      0.046 (TRAH MIcro)
  205     dE    -5.938786e-06     1.331685e-04    -1.3493e-03      0.059 (TRAH MIcro)
  205     dE    -6.283899e-06     9.089823e-05    -1.3583e-03      0.061 (TRAH MIcro)
  205     dE    -6.521894e-06     9.962062e-05    -1.3642e-03      0.062 (TRAH MIcro)
  205     dE    -6.937323e-06     1.115270e-04    -1.3743e-03      0.064 (TRAH MIcro)
  205     dE    -6.973513e-06     1.009995e-04    -1.3851e-03      0.064 (TRAH MIcro)
  206       -295.077845809865     3.074647e-04                     0.043 (TRAH MAcro)   No
  206     dE    -1.129474e-07     7.612598e-05    -1.1295e-07      0.001 (TRAH MIcro)
  206     dE    -1.434850e-07     1.088015e-04    -1.4348e-07      0.001 (TRAH MIcro)
  206     dE    -2.215275e-07     1.104428e-04    -2.2153e-07      0.003 (TRAH MIcro)
  206     dE    -2.901244e-07     1.864971e-04    -2.9011e-07      0.006 (TRAH MIcro)
  206     dE    -4.989054e-07     2.758020e-04    -4.9880e-07      0.014 (TRAH MIcro)
  206     dE    -6.348374e-07     6.985932e-05    -6.3458e-07      0.020 (TRAH MIcro)
  206     dE    -6.454947e-07     3.836270e-05    -6.4522e-07      0.021 (TRAH MIcro)
  206     dE    -6.550051e-07     6.060680e-05    -6.5472e-07      0.021 (TRAH MIcro)
  206     dE    -6.933186e-07     1.236852e-04    -6.9296e-07      0.023 (TRAH MIcro)
  206     dE    -7.329726e-07     6.051654e-05    -7.3251e-07      0.025 (TRAH MIcro)
  206     dE    -7.450151e-07     5.741198e-05    -7.4452e-07      0.026 (TRAH MIcro)
  206     dE    -7.644749e-07     9.181935e-05    -7.6392e-07      0.027 (TRAH MIcro)
  206     dE    -8.156990e-07     1.365800e-04    -8.1493e-07      0.031 (TRAH MIcro)
  206     dE    -8.969330e-07     2.194073e-04    -8.9567e-07      0.037 (TRAH MIcro)
  206     dE    -1.057533e-06     1.852171e-04    -7.9700e-05      0.043 (TRAH MIcro)
  206     dE    -1.156521e-06     1.514204e-04    -1.5531e-04      0.043 (TRAH MIcro)
  206     dE    -1.155180e-06     1.430256e-04    -2.2327e-04      0.039 (TRAH MIcro)
  206     dE    -9.666851e-07     3.102625e-04    -6.0074e-04      0.025 (TRAH MIcro)
  206     dE    -5.422954e-07     1.961765e-05    -1.4931e-03      0.011 (TRAH MIcro)
  207       -295.077846391663     3.669668e-05                           (NR   MAcro)
  207     dE    -4.185726e-08     2.003996e-04                           (NR   MIcro)
  207     dE    -2.337715e-07     2.575231e-04                           (NR   MIcro)
  207     dE    -4.019764e-07     1.332157e-04                           (NR   MIcro)
  207     dE    -4.285390e-07     6.543521e-05                           (NR   MIcro)
  207     dE    -4.418015e-07     5.719690e-05                           (NR   MIcro)
  207     dE    -4.504412e-07     4.159139e-05                           (NR   MIcro)
  207     dE    -4.572544e-07     4.764120e-05                           (NR   MIcro)
  207     dE    -4.773672e-07     1.115192e-04                           (NR   MIcro)
  207     dE    -5.331538e-07     1.009508e-04                           (NR   MIcro)
  207     dE    -5.489996e-07     3.965061e-05                           (NR   MIcro)
  207     dE    -5.583311e-07     7.625860e-05                           (NR   MIcro)
  207     dE    -5.835568e-07     1.024790e-04                           (NR   MIcro)
  207     dE    -6.482498e-07     2.027086e-04                           (NR   MIcro)
  207     dE    -8.989381e-07     6.613222e-04                           (NR   MIcro)
  207     dE     1.051676e-07     4.051027e-04                           (NR   MIcro)
  207     dE    -1.956287e-07     2.355007e-04                           (NR   MIcro)
  207     dE    -3.483861e-07     1.974125e-04                           (NR   MIcro)
  207     dE    -4.495461e-07     1.297753e-04                           (NR   MIcro)
  207     dE    -4.675027e-07     2.739869e-05                           (NR   MIcro)
  207     dE    -4.712701e-07     3.918102e-05                           (NR   MIcro)
  207     dE    -4.878129e-07     1.138556e-04                           (NR   MIcro)
  207     dE    -5.296157e-07     3.980257e-05                           (NR   MIcro)
  207     dE    -5.344441e-07     3.731008e-05                           (NR   MIcro)
  207     dE    -5.456965e-07     6.802507e-05                           (NR   MIcro)
  208       -295.077847331259     8.849503e-05                           (NR   MAcro)
  208     dE    -1.665350e-08     5.179164e-05                           (NR   MIcro)
  208     dE    -3.909367e-08     9.978982e-05                           (NR   MIcro)
  208     dE    -1.706816e-07     1.983303e-04                           (NR   MIcro)
  208     dE    -2.715874e-07     1.147020e-04                           (NR   MIcro)
  208     dE    -3.206000e-07     1.087038e-04                           (NR   MIcro)
  208     dE    -3.692302e-07     6.940355e-05                           (NR   MIcro)
  208     dE    -3.809897e-07     4.657631e-05                           (NR   MIcro)
  208     dE    -3.981560e-07     9.660519e-05                           (NR   MIcro)
  208     dE    -4.853401e-07     1.729646e-04                           (NR   MIcro)
  208     dE    -5.425893e-07     7.663651e-05                           (NR   MIcro)
  208     dE    -5.627099e-07     8.035124e-05                           (NR   MIcro)
  208     dE    -6.181317e-07     1.987725e-04                           (NR   MIcro)
  208     dE    -3.495400e-06     3.827901e-03                           (NR   MIcro)
  208     dE     4.189525e-07     5.556450e-04                           (NR   MIcro)
  208     dE    -3.832705e-08     2.557809e-04                           (NR   MIcro)
  208     dE    -2.386058e-07     2.447518e-04                           (NR   MIcro)
  208     dE    -3.224840e-07     1.230851e-04                           (NR   MIcro)
  208     dE    -3.901884e-07     1.557840e-04                           (NR   MIcro)
  208     dE    -4.129356e-07     3.620802e-05                           (NR   MIcro)
  208     dE    -4.153490e-07     2.145342e-05                           (NR   MIcro)
  208     dE    -4.196474e-07     6.149841e-05                           (NR   MIcro)
  208     dE    -4.427954e-07     7.028027e-05                           (NR   MIcro)
  208     dE    -4.519194e-07     3.438190e-05                           (NR   MIcro)
  208     dE    -4.544790e-07     1.824717e-05                           (NR   MIcro)
  209       -295.077848139088     4.950949e-05                           (NR   MAcro)
  209     dE    -9.897422e-09     6.229112e-05                           (NR   MIcro)
  209     dE    -6.143654e-08     1.599222e-04                           (NR   MIcro)
  209     dE    -1.894190e-07     1.507502e-04                           (NR   MIcro)
  209     dE    -3.248243e-07     2.109777e-04                           (NR   MIcro)
  209     dE    -4.593518e-07     1.436730e-04                           (NR   MIcro)
  209     dE    -4.984696e-07     5.988174e-05                           (NR   MIcro)
  209     dE    -5.126245e-07     6.301202e-05                           (NR   MIcro)
  209     dE    -5.558425e-07     1.575343e-04                           (NR   MIcro)
  209     dE     2.689711e-06     3.015559e-03                           (NR   MIcro)
  209     dE     2.118734e-07     2.285406e-04                           (NR   MIcro)
  209     dE     2.329347e-08     2.305623e-04                           (NR   MIcro)
  209     dE    -1.385936e-07     1.858033e-04                           (NR   MIcro)
  209     dE    -2.185747e-07     1.315369e-04                           (NR   MIcro)
  209     dE    -3.123523e-07     2.210859e-04                           (NR   MIcro)
  209     dE    -3.635567e-07     6.205441e-05                           (NR   MIcro)
  209     dE    -3.721641e-07     3.870467e-05                           (NR   MIcro)
  209     dE    -3.760883e-07     4.279152e-05                           (NR   MIcro)
  209     dE    -3.889592e-07     9.724687e-05                           (NR   MIcro)
  209     dE    -4.021689e-07     4.141935e-05                           (NR   MIcro)
  209     dE    -4.047896e-07     2.127229e-05                           (NR   MIcro)
  209     dE    -4.077549e-07     4.607327e-05                           (NR   MIcro)
  209     dE    -4.157423e-07     3.845375e-05                           (NR   MIcro)
  209     dE    -4.257400e-07     7.297889e-05                           (NR   MIcro)
  209     dE    -4.389696e-07     5.566411e-05                           (NR   MIcro)
  210       -295.077848923828     7.776679e-05                           (NR   MAcro)
  210     dE    -1.023374e-08     3.968654e-05                           (NR   MIcro)
  210     dE    -2.254062e-08     7.988538e-05                           (NR   MIcro)
  210     dE    -1.205130e-07     2.258198e-04                           (NR   MIcro)
  210     dE    -2.780879e-07     1.500503e-04                           (NR   MIcro)
  210     dE    -3.284617e-07     9.888807e-05                           (NR   MIcro)
  210     dE    -3.831316e-07     1.444461e-04                           (NR   MIcro)
  210     dE    -4.305941e-07     8.742728e-05                           (NR   MIcro)
  210     dE    -4.928197e-07     1.987030e-04                           (NR   MIcro)
  210     dE    -1.171117e-06     7.577110e-04                           (NR   MIcro)
  210     dE     5.897944e-05     1.972095e-02                           (NR   MIcro)
  210     dE     3.050410e-06     1.014034e-03                           (NR   MIcro)
  210     dE     8.447206e-07     5.944168e-04                           (NR   MIcro)
  210     dE     5.928199e-08     3.293625e-04                           (NR   MIcro)
  210     dE    -3.766735e-08     1.364982e-04                           (NR   MIcro)
  210     dE    -9.993827e-08     1.446934e-04                           (NR   MIcro)
  210     dE    -1.628474e-07     1.460661e-04                           (NR   MIcro)
  210     dE    -2.164034e-07     1.187336e-04                           (NR   MIcro)
  210     dE    -3.331988e-07     2.844563e-04                           (NR   MIcro)
  210     dE    -4.094708e-07     7.262956e-05                           (NR   MIcro)
  210     dE    -4.193116e-07     4.031878e-05                           (NR   MIcro)
  210     dE    -4.284124e-07     7.346335e-05                           (NR   MIcro)
  210     dE    -4.841820e-07     1.154413e-04                           (NR   MIcro)
  210     dE    -5.150790e-07     6.548069e-05                           (NR   MIcro)
  210     dE    -5.246963e-07     3.250973e-05                           (NR   MIcro)
  211       -295.077849825890     8.119476e-05                           (NR   MAcro)
  211     dE    -1.047527e-08     3.367174e-05                           (NR   MIcro)
  211     dE    -2.013219e-08     6.333328e-05                           (NR   MIcro)
  211     dE    -3.879543e-08     5.711757e-05                           (NR   MIcro)
  211     dE    -9.163000e-08     1.950771e-04                           (NR   MIcro)
  211     dE    -7.557243e-07     7.546179e-04                           (NR   MIcro)
  211     dE     2.557807e-06     8.476414e-04                           (NR   MIcro)
  211     dE     1.597990e-06     2.646890e-04                           (NR   MIcro)
  211     dE     1.221065e-06     3.526229e-04                           (NR   MIcro)
  211     dE     3.381398e-07     3.464506e-04                           (NR   MIcro)
  211     dE     1.207309e-07     1.571557e-04                           (NR   MIcro)
  211     dE     3.571737e-08     1.206645e-04                           (NR   MIcro)
  211     dE    -1.595506e-08     9.562597e-05                           (NR   MIcro)
  211     dE    -3.860953e-08     5.679870e-05                           (NR   MIcro)
  211     dE    -7.952187e-08     1.871061e-04                           (NR   MIcro)
  211     dE    -2.855542e-07     2.855040e-04                           (NR   MIcro)
  211     dE    -5.754552e-07     2.368366e-04                           (NR   MIcro)
  211     dE    -6.327706e-07     8.612020e-05                           (NR   MIcro)
  211     dE    -7.102577e-07     3.068137e-04                           (NR   MIcro)
  211     dE    -9.303200e-07     2.802626e-04                           (NR   MIcro)
  211     dE    -1.069580e-06     1.806975e-04                           (NR   MIcro)
  211     dE    -1.229312e-06     3.193132e-04                           (NR   MIcro)
  211     dE    -1.387224e-06     1.297999e-04                           (NR   MIcro)
  211     dE    -1.482594e-06     1.990964e-04                           (NR   MIcro)
  211     dE    -1.827964e-06     4.798240e-04                           (NR   MIcro)
  212       -295.077848851302     1.571588e-03                     0.051 (TRAH MAcro)   No
  212     dE    -2.136496e-06     2.449110e-04    -2.1365e-06      0.002 (TRAH MIcro)
  212     dE    -2.226914e-06     8.509287e-05    -2.2269e-06      0.002 (TRAH MIcro)
  213       -295.077851078950     8.480634e-05                           (NR   MAcro)
  213     dE    -3.658511e-08     1.137164e-04                           (NR   MIcro)
  213     dE    -1.216445e-07     1.737003e-04                           (NR   MIcro)
  213     dE    -2.534192e-07     1.748706e-04                           (NR   MIcro)
  213     dE    -3.676619e-07     1.740145e-04                           (NR   MIcro)
  213     dE    -4.499880e-07     1.419548e-04                           (NR   MIcro)
  213     dE    -5.075992e-07     9.766102e-05                           (NR   MIcro)
  213     dE    -5.623607e-07     2.088649e-04                           (NR   MIcro)
  213     dE    -8.062781e-07     3.008396e-04                           (NR   MIcro)
  213     dE    -9.360466e-07     1.081983e-04                           (NR   MIcro)
  213     dE    -9.856281e-07     1.450137e-04                           (NR   MIcro)
  213     dE    -1.429179e-06     6.906153e-04                           (NR   MIcro)
  213     dE     6.813710e-07     8.673804e-04                           (NR   MIcro)
  213     dE    -4.598777e-08     2.721684e-04                           (NR   MIcro)
  213     dE    -2.426450e-07     2.129489e-04                           (NR   MIcro)
  213     dE    -2.824250e-07     5.855646e-05                           (NR   MIcro)
  213     dE    -3.000005e-07     1.081012e-04                           (NR   MIcro)
  213     dE    -3.592278e-07     1.751211e-04                           (NR   MIcro)
  213     dE    -4.230584e-07     1.231067e-04                           (NR   MIcro)
  213     dE    -4.368575e-07     4.062165e-05                           (NR   MIcro)
  213     dE    -4.415392e-07     3.637341e-05                           (NR   MIcro)
  213     dE    -4.536369e-07     1.048248e-04                           (NR   MIcro)
  213     dE    -5.227792e-07     1.434978e-04                           (NR   MIcro)
  213     dE    -9.477865e-07     7.674423e-04                           (NR   MIcro)
  213     dE    -1.180681e-07     2.579897e-04                           (NR   MIcro)
  214       -295.077850595235     2.486480e-04                     0.062 (TRAH MAcro)   No
  214     dE    -6.870073e-08     7.072195e-05    -6.8701e-08      0.000 (TRAH MIcro)
  214     dE    -8.105435e-08     4.914728e-05    -8.1054e-08      0.001 (TRAH MIcro)
  214     dE    -1.036383e-07     1.380340e-04    -1.0364e-07      0.002 (TRAH MIcro)
  214     dE    -1.436450e-07     9.935644e-05    -1.4364e-07      0.004 (TRAH MIcro)
  214     dE    -2.288432e-07     2.936662e-04    -2.2882e-07      0.009 (TRAH MIcro)
  214     dE    -1.587596e-06     7.914086e-04    -1.5074e-04      0.062 (TRAH MIcro)
  214     dE    -2.451266e-06     3.075832e-04    -3.8231e-04      0.062 (TRAH MIcro)
  214     dE    -2.593657e-06     1.623025e-04    -4.2060e-04      0.062 (TRAH MIcro)
  214     dE    -2.749098e-06     2.773605e-04    -4.6252e-04      0.062 (TRAH MIcro)
  214     dE    -2.115522e-06     4.018505e-04    -7.2920e-04      0.044 (TRAH MIcro)
  214     dE    -2.755937e-06     1.440359e-04    -7.9124e-04      0.050 (TRAH MIcro)
  214     dE    -2.950388e-06     1.283717e-04    -8.0686e-04      0.052 (TRAH MIcro)
  214     dE    -3.239153e-06     1.977197e-04    -8.2785e-04      0.054 (TRAH MIcro)
  214     dE    -3.612504e-06     1.444125e-04    -8.5180e-04      0.057 (TRAH MIcro)
  214     dE    -4.112977e-06     2.482631e-04    -8.7892e-04      0.061 (TRAH MIcro)
  214     dE    -4.444667e-06     2.437101e-04    -9.5622e-04      0.062 (TRAH MIcro)
  214     dE    -4.522536e-06     8.694561e-05    -9.8081e-04      0.062 (TRAH MIcro)
  214     dE    -4.543067e-06     9.501572e-05    -9.8730e-04      0.062 (TRAH MIcro)
  214     dE    -4.618326e-06     1.512114e-04    -1.0114e-03      0.062 (TRAH MIcro)
  214     dE    -4.657251e-06     8.103175e-05    -1.0241e-03      0.062 (TRAH MIcro)
  214     dE    -4.672144e-06     5.886344e-05    -1.0290e-03      0.062 (TRAH MIcro)
  214     dE    -4.688744e-06     7.265062e-05    -1.0345e-03      0.062 (TRAH MIcro)
  214     dE    -4.710285e-06     7.927191e-05    -1.0417e-03      0.062 (TRAH MIcro)
  215       -295.077851432482     2.303259e-04                     0.041 (TRAH MAcro)   No
  215     dE    -5.832401e-08     4.964769e-05    -5.8324e-08      0.000 (TRAH MIcro)
  215     dE    -6.715396e-08     5.020500e-05    -6.7154e-08      0.001 (TRAH MIcro)
  215     dE    -8.978325e-08     6.409964e-05    -8.9783e-08      0.002 (TRAH MIcro)
  215     dE    -1.044080e-07     6.810985e-05    -1.0441e-07      0.003 (TRAH MIcro)
  215     dE    -1.617323e-07     1.869703e-04    -1.6173e-07      0.007 (TRAH MIcro)
  215     dE    -2.708240e-07     8.714961e-05    -2.7076e-07      0.015 (TRAH MIcro)
  215     dE    -3.074814e-07     1.135615e-04    -3.0738e-07      0.018 (TRAH MIcro)
  215     dE    -4.877260e-07     3.053693e-04    -4.8722e-07      0.032 (TRAH MIcro)
  215     dE    -9.096870e-07     2.842803e-04    -1.9408e-04      0.041 (TRAH MIcro)
  215     dE    -1.047952e-06     8.842786e-05    -2.8113e-04      0.041 (TRAH MIcro)
  215     dE    -1.083333e-06     9.597049e-05    -3.0351e-04      0.041 (TRAH MIcro)
  215     dE    -8.228988e-07     7.699330e-05    -4.4234e-04      0.030 (TRAH MIcro)
  215     dE    -8.876304e-07     8.376210e-05    -4.5572e-04      0.031 (TRAH MIcro)
  215     dE    -1.172863e-06     2.504808e-04    -5.0179e-04      0.037 (TRAH MIcro)
  215     dE    -1.510097e-06     1.434280e-04    -5.9760e-04      0.041 (TRAH MIcro)
  215     dE    -1.555912e-06     8.324956e-05    -6.3089e-04      0.041 (TRAH MIcro)
  215     dE    -1.583573e-06     1.214132e-04    -6.5105e-04      0.041 (TRAH MIcro)
  215     dE    -5.759193e-07     1.145308e-04    -1.0137e-03      0.018 (TRAH MIcro)
  215     dE    -6.379014e-07     3.086400e-05    -1.0306e-03      0.019 (TRAH MIcro)
  215     dE    -6.528462e-07     2.604500e-05    -1.0341e-03      0.020 (TRAH MIcro)
  215     dE    -6.635631e-07     2.836412e-05    -1.0365e-03      0.020 (TRAH MIcro)
  215     dE    -6.747608e-07     1.551071e-05    -1.0390e-03      0.020 (TRAH MIcro)
  216       -295.077851806935     4.386900e-05                           (NR   MAcro)
  216     dE    -4.354548e-09     2.521366e-05                           (NR   MIcro)
  216     dE    -1.002733e-08     5.898297e-05                           (NR   MIcro)
  216     dE    -5.111376e-08     1.009765e-04                           (NR   MIcro)
  216     dE    -1.044653e-07     1.468698e-04                           (NR   MIcro)
  216     dE    -3.072980e-07     2.880840e-04                           (NR   MIcro)
  216     dE    -4.986130e-07     1.281201e-04                           (NR   MIcro)
  216     dE    -5.495860e-07     1.076676e-04                           (NR   MIcro)
  216     dE    -6.604423e-07     2.035273e-04                           (NR   MIcro)
  216     dE    -2.159457e-06     1.237516e-03                           (NR   MIcro)
  216     dE     2.915523e-06     6.893050e-04                           (NR   MIcro)
  216     dE     1.309577e-06     5.430776e-04                           (NR   MIcro)
  216     dE     5.050862e-07     3.448399e-04                           (NR   MIcro)
  216     dE     2.004812e-07     1.737382e-04                           (NR   MIcro)
  216     dE     8.670880e-08     1.519061e-04                           (NR   MIcro)
  216     dE     2.988194e-08     7.805066e-05                           (NR   MIcro)
  216     dE     1.515181e-08     4.751947e-05                           (NR   MIcro)
  216     dE     3.481029e-09     6.943724e-05                           (NR   MIcro)
  216     dE    -1.245158e-07     3.447654e-04                           (NR   MIcro)
  216     dE    -2.583030e-07     1.274637e-04                           (NR   MIcro)
  216     dE    -2.865261e-07     8.162488e-05                           (NR   MIcro)
  216     dE    -3.032350e-07     9.256518e-05                           (NR   MIcro)
  216     dE    -3.243132e-07     6.462807e-05                           (NR   MIcro)
  216     dE    -3.463770e-07     1.273712e-04                           (NR   MIcro)
  216     dE    -4.941380e-07     3.164241e-04                           (NR   MIcro)
  217       -295.077851687034     3.518618e-04                     0.041 (TRAH MAcro)   No
  217     dE    -1.624951e-07     1.201411e-04    -1.6249e-07      0.001 (TRAH MIcro)
  217     dE    -2.065361e-07     8.079292e-05    -2.0654e-07      0.001 (TRAH MIcro)
  217     dE    -2.387096e-07     1.019478e-04    -2.3871e-07      0.002 (TRAH MIcro)
  217     dE    -2.839196e-07     1.040346e-04    -2.8392e-07      0.003 (TRAH MIcro)
  217     dE    -3.461024e-07     1.599436e-04    -3.4609e-07      0.006 (TRAH MIcro)
  217     dE    -5.331100e-07     2.813377e-04    -5.3299e-07      0.015 (TRAH MIcro)
  217     dE    -7.315164e-07     1.373963e-04    -7.3107e-07      0.025 (TRAH MIcro)
  217     dE    -7.609848e-07     6.241242e-05    -7.6046e-07      0.026 (TRAH MIcro)
  217     dE    -7.899445e-07     1.274827e-04    -7.8934e-07      0.028 (TRAH MIcro)
  217     dE    -1.112203e-06     4.576034e-04    -5.4553e-05      0.041 (TRAH MIcro)
  217     dE    -1.428003e-06     2.028302e-04    -2.7904e-04      0.041 (TRAH MIcro)
  217     dE    -1.560765e-06     2.096439e-04    -3.7479e-04      0.041 (TRAH MIcro)
  217     dE    -1.143623e-06     1.058317e-04    -6.8884e-04      0.026 (TRAH MIcro)
  217     dE    -1.247905e-06     8.390565e-05    -7.0680e-04      0.028 (TRAH MIcro)
  217     dE    -1.643801e-06     3.334599e-04    -7.5832e-04      0.035 (TRAH MIcro)
  217     dE    -2.268590e-06     1.875310e-04    -8.9346e-04      0.041 (TRAH MIcro)
  217     dE    -2.341046e-06     1.146832e-04    -9.4650e-04      0.041 (TRAH MIcro)
  217     dE    -2.374352e-06     1.544546e-04    -9.7070e-04      0.041 (TRAH MIcro)
  217     dE    -2.461674e-06     1.593881e-04    -1.0351e-03      0.041 (TRAH MIcro)
  217     dE    -6.580881e-07     1.834821e-05    -1.6684e-03      0.012 (TRAH MIcro)
  218       -295.077852231963     2.856298e-05                           (NR   MAcro)
  218     dE    -6.108980e-09     5.802370e-05                           (NR   MIcro)
  218     dE    -3.703544e-08     1.358420e-04                           (NR   MIcro)
  218     dE    -1.645932e-07     1.723296e-04                           (NR   MIcro)
  218     dE    -2.297498e-07     1.107944e-04                           (NR   MIcro)
  218     dE    -2.777652e-07     1.138905e-04                           (NR   MIcro)
  218     dE    -3.230988e-07     1.000818e-04                           (NR   MIcro)
  218     dE    -3.714749e-07     1.213947e-04                           (NR   MIcro)
  218     dE    -6.275548e-07     5.201732e-04                           (NR   MIcro)
  218     dE     2.281215e-07     2.874695e-04                           (NR   MIcro)
  218     dE     1.469742e-07     7.131872e-05                           (NR   MIcro)
  218     dE     1.092952e-07     1.382528e-04                           (NR   MIcro)
  218     dE     4.239911e-08     1.528360e-04                           (NR   MIcro)
  218     dE    -1.783910e-08     1.353539e-04                           (NR   MIcro)
  218     dE    -4.481932e-08     1.205307e-04                           (NR   MIcro)
  218     dE    -7.024456e-08     6.055450e-05                           (NR   MIcro)
  218     dE    -7.830281e-08     5.044445e-05                           (NR   MIcro)
  218     dE    -9.530931e-08     9.857951e-05                           (NR   MIcro)
  218     dE    -1.661089e-07     1.989647e-04                           (NR   MIcro)
  218     dE    -2.123828e-07     6.927060e-05                           (NR   MIcro)
  218     dE    -2.548083e-07     1.502330e-04                           (NR   MIcro)
  218     dE    -1.827476e-06     2.599463e-03                           (NR   MIcro)
  218     dE     2.232077e-07     1.464400e-04                           (NR   MIcro)
  218     dE     1.841309e-07     7.001529e-05                           (NR   MIcro)
  218     dE     1.646015e-07     6.402265e-05                           (NR   MIcro)
  219       -295.077851660880     7.935062e-05                           (NR   MAcro)
  219     dE    -1.224286e-08     4.222986e-05                           (NR   MIcro)
  219     dE    -2.418075e-08     7.501179e-05                           (NR   MIcro)
  219     dE    -1.078937e-07     2.238944e-04                           (NR   MIcro)
  219     dE    -2.926040e-07     2.105244e-04                           (NR   MIcro)
  219     dE    -4.559848e-07     2.044011e-04                           (NR   MIcro)
  219     dE    -6.819148e-07     2.712546e-04                           (NR   MIcro)
  219     dE    -8.434281e-07     1.514520e-04                           (NR   MIcro)
  219     dE    -1.022894e-06     3.566527e-04                           (NR   MIcro)
  219     dE     3.309735e-05     2.086192e-02                           (NR   MIcro)
  219     dE     1.078110e-06     3.249718e-04                           (NR   MIcro)
  219     dE     7.736634e-07     3.624808e-04                           (NR   MIcro)
  219     dE     3.194098e-07     3.477847e-04                           (NR   MIcro)
  219     dE     1.862303e-08     2.355834e-04                           (NR   MIcro)
  219     dE    -3.014907e-08     1.051246e-04                           (NR   MIcro)
  219     dE    -6.482407e-08     9.413491e-05                           (NR   MIcro)
  219     dE    -1.049905e-07     1.337236e-04                           (NR   MIcro)
  219     dE    -1.537615e-07     1.264449e-04                           (NR   MIcro)
  219     dE    -2.769431e-07     2.982212e-04                           (NR   MIcro)
  219     dE    -4.224700e-07     1.184807e-04                           (NR   MIcro)
  219     dE    -4.535564e-07     7.656524e-05                           (NR   MIcro)
  219     dE    -5.235671e-07     2.491293e-04                           (NR   MIcro)
  219     dE    -4.082366e-06     2.775418e-03                           (NR   MIcro)
  219     dE     8.987826e-07     4.692933e-04                           (NR   MIcro)
  219     dE     5.713901e-07     1.655237e-04                           (NR   MIcro)
  220       -295.077849038355     2.399552e-04                     0.050 (TRAH MAcro)   No
  220     dE    -1.293846e-07     1.613047e-04    -1.2938e-07      0.001 (TRAH MIcro)
  220     dE    -2.398232e-07     1.978020e-04    -2.3982e-07      0.002 (TRAH MIcro)
  220     dE    -4.005713e-07     1.959175e-04    -4.0056e-07      0.005 (TRAH MIcro)
  220     dE    -6.669048e-07     3.847949e-04    -6.6681e-07      0.012 (TRAH MIcro)
  220     dE    -1.540489e-06     5.501733e-04    -1.5387e-06      0.034 (TRAH MIcro)
  220     dE    -2.333821e-06     3.021139e-04    -7.6285e-05      0.050 (TRAH MIcro)
  220     dE    -2.465810e-06     1.064122e-04    -1.3386e-04      0.050 (TRAH MIcro)
  220     dE    -2.517810e-06     1.656666e-04    -1.5680e-04      0.050 (TRAH MIcro)
  220     dE    -2.786135e-06     3.571155e-04    -2.8383e-04      0.050 (TRAH MIcro)
  220     dE    -3.196764e-06     2.685326e-04    -5.3048e-04      0.049 (TRAH MIcro)
  220     dE    -3.485253e-06     2.614866e-04    -6.7118e-04      0.050 (TRAH MIcro)
  220     dE    -3.621718e-06     1.383000e-04    -7.5054e-04      0.050 (TRAH MIcro)
  220     dE    -3.669691e-06     8.664277e-05    -7.7856e-04      0.050 (TRAH MIcro)
  220     dE    -3.695312e-06     1.116892e-04    -7.9344e-04      0.050 (TRAH MIcro)
  220     dE    -2.251551e-06     1.139068e-04    -1.2175e-03      0.030 (TRAH MIcro)
  220     dE    -2.344118e-06     4.468063e-05    -1.2275e-03      0.031 (TRAH MIcro)
  220     dE    -2.366685e-06     3.044623e-05    -1.2296e-03      0.031 (TRAH MIcro)
  220     dE    -2.439423e-06     1.196624e-04    -1.2357e-03      0.032 (TRAH MIcro)
  220     dE    -2.686487e-06     8.573953e-05    -1.2532e-03      0.034 (TRAH MIcro)
  220     dE    -2.778734e-06     4.274307e-05    -1.2586e-03      0.035 (TRAH MIcro)
  220     dE    -2.852279e-06     6.421122e-05    -1.2624e-03      0.036 (TRAH MIcro)
  220     dE    -2.945862e-06     4.210583e-05    -1.2668e-03      0.037 (TRAH MIcro)
  220     dE    -3.016606e-06     5.305512e-05    -1.2701e-03      0.038 (TRAH MIcro)
  221       -295.077850765722     1.114176e-04                     0.050 (TRAH MAcro)   No
  221     dE    -2.326740e-08     5.488476e-05    -2.3267e-08      0.000 (TRAH MIcro)
  221     dE    -4.595785e-08     1.129101e-04    -4.5958e-08      0.001 (TRAH MIcro)
  221     dE    -1.635908e-07     1.650145e-04    -1.6358e-07      0.007 (TRAH MIcro)
  221     dE    -2.856919e-07     2.153877e-04    -2.8565e-07      0.013 (TRAH MIcro)
  221     dE    -7.292344e-07     4.267338e-04    -7.2834e-07      0.035 (TRAH MIcro)
  221     dE    -1.133045e-06     2.047599e-04    -4.9481e-05      0.050 (TRAH MIcro)
  221     dE    -1.240988e-06     1.377803e-04    -9.4683e-05      0.050 (TRAH MIcro)
  221     dE    -1.365234e-06     2.335434e-04    -1.4739e-04      0.050 (TRAH MIcro)
  221     dE    -1.562405e-06     2.233143e-04    -2.6319e-04      0.048 (TRAH MIcro)
  221     dE    -1.697514e-06     6.955471e-05    -2.9522e-04      0.050 (TRAH MIcro)
  221     dE    -1.740237e-06     1.670724e-04    -3.1476e-04      0.050 (TRAH MIcro)
  221     dE    -1.882147e-06     2.500704e-04    -3.9163e-04      0.049 (TRAH MIcro)
  221     dE    -1.382589e-06     1.138764e-04    -6.4882e-04      0.034 (TRAH MIcro)
  221     dE    -1.485503e-06     9.156965e-05    -6.6211e-04      0.036 (TRAH MIcro)
  221     dE    -1.556462e-06     5.837826e-05    -6.7035e-04      0.037 (TRAH MIcro)
  221     dE    -1.583777e-06     3.527305e-05    -6.7331e-04      0.037 (TRAH MIcro)
  221     dE    -1.603352e-06     4.677856e-05    -6.7536e-04      0.038 (TRAH MIcro)
  221     dE    -1.770461e-06     2.190558e-04    -6.9071e-04      0.040 (TRAH MIcro)
  221     dE    -2.185197e-06     1.184033e-04    -7.1782e-04      0.046 (TRAH MIcro)
  221     dE    -2.337254e-06     7.043111e-05    -7.2543e-04      0.048 (TRAH MIcro)
  221     dE    -2.377874e-06     4.645084e-05    -7.2734e-04      0.048 (TRAH MIcro)
  221     dE    -2.422950e-06     3.939008e-05    -7.2942e-04      0.049 (TRAH MIcro)
  221     dE    -2.457657e-06     4.361406e-05    -7.3095e-04      0.049 (TRAH MIcro)
  222       -295.077851801353     1.232630e-04                     0.050 (TRAH MAcro)   No
  222     dE    -1.804827e-08     3.291952e-05    -1.8048e-08      0.000 (TRAH MIcro)
  222     dE    -2.361605e-08     5.069516e-05    -2.3616e-08      0.000 (TRAH MIcro)
  222     dE    -4.807982e-08     7.733193e-05    -4.8080e-08      0.002 (TRAH MIcro)
  222     dE    -7.780847e-08     1.380318e-04    -7.7807e-08      0.005 (TRAH MIcro)
  222     dE    -2.364747e-07     3.092858e-04    -2.3640e-07      0.018 (TRAH MIcro)
  222     dE    -4.796565e-07     1.466297e-04    -4.7892e-07      0.039 (TRAH MIcro)
  222     dE    -5.244018e-07     8.152313e-05    -5.2343e-07      0.043 (TRAH MIcro)
  222     dE    -5.710886e-07     1.531583e-04    -5.6982e-07      0.047 (TRAH MIcro)
  222     dE    -7.782434e-07     3.021400e-04    -7.7495e-05      0.050 (TRAH MIcro)
  222     dE    -1.059636e-06     2.233811e-04    -2.0299e-04      0.050 (TRAH MIcro)
  222     dE    -1.215201e-06     1.970448e-04    -2.7431e-04      0.050 (TRAH MIcro)
  222     dE    -8.769822e-07     8.391124e-05    -3.9881e-04      0.035 (TRAH MIcro)
  222     dE    -9.381375e-07     6.420644e-05    -4.0829e-04      0.037 (TRAH MIcro)
  222     dE    -1.012405e-06     1.478659e-04    -4.1886e-04      0.038 (TRAH MIcro)
  222     dE    -1.440694e-06     2.360591e-04    -4.6494e-04      0.046 (TRAH MIcro)
  222     dE    -1.714681e-06     1.226886e-04    -5.1482e-04      0.050 (TRAH MIcro)
  222     dE    -1.732014e-06     5.009574e-05    -5.2347e-04      0.050 (TRAH MIcro)
  222     dE    -1.765950e-06     2.113217e-04    -5.4043e-04      0.050 (TRAH MIcro)
  222     dE    -1.867901e-06     1.598377e-04    -5.9218e-04      0.050 (TRAH MIcro)
  222     dE    -1.909879e-06     9.095011e-05    -6.1366e-04      0.050 (TRAH MIcro)
  222     dE    -1.923246e-06     1.229212e-04    -6.2865e-04      0.049 (TRAH MIcro)
  222     dE    -5.687978e-07     2.679593e-05    -8.2934e-04      0.021 (TRAH MIcro)
  222     dE    -5.899385e-07     3.554231e-05    -8.3384e-04      0.021 (TRAH MIcro)
  223       -295.077852146226     4.843112e-05                           (NR   MAcro)
  223     dE    -5.029440e-09     2.801523e-05                           (NR   MIcro)
  223     dE    -1.067917e-08     4.972177e-05                           (NR   MIcro)
  223     dE    -2.169539e-08     4.488057e-05                           (NR   MIcro)
  223     dE    -3.406771e-08     7.556204e-05                           (NR   MIcro)
  223     dE    -1.091589e-07     1.954691e-04                           (NR   MIcro)
  223     dE    -1.755955e-07     8.617002e-05                           (NR   MIcro)
  223     dE    -2.176727e-07     1.299636e-04                           (NR   MIcro)
  223     dE    -4.501223e-07     4.198291e-04                           (NR   MIcro)
  223     dE    -8.819118e-06     5.231878e-03                           (NR   MIcro)
  223     dE     2.799518e-06     4.941772e-04                           (NR   MIcro)
  223     dE     1.825199e-06     5.782833e-04                           (NR   MIcro)
  223     dE     9.118284e-07     5.002920e-04                           (NR   MIcro)
  223     dE     3.450055e-07     3.175297e-04                           (NR   MIcro)
  223     dE     1.562993e-07     1.975997e-04                           (NR   MIcro)
  223     dE     6.697011e-08     1.303863e-04                           (NR   MIcro)
  223     dE     4.762698e-08     4.192296e-05                           (NR   MIcro)
  223     dE     4.364996e-08     3.023327e-05                           (NR   MIcro)
  223     dE     2.806006e-08     1.508839e-04                           (NR   MIcro)
  223     dE    -6.143462e-08     1.609420e-04                           (NR   MIcro)
  223     dE    -1.429467e-07     1.444723e-04                           (NR   MIcro)
  223     dE    -1.815100e-07     1.121581e-04                           (NR   MIcro)
  223     dE    -2.088533e-07     7.051613e-05                           (NR   MIcro)
  223     dE    -2.166265e-07     3.360697e-05                           (NR   MIcro)
  223     dE    -2.330674e-07     1.017127e-04                           (NR   MIcro)
  224       -295.077852089966     1.281732e-04                     0.050 (TRAH MAcro)   No
  224     dE    -2.190069e-08     4.233256e-05    -2.1901e-08      0.000 (TRAH MIcro)
  224     dE    -3.197885e-08     5.824021e-05    -3.1979e-08      0.001 (TRAH MIcro)
  224     dE    -6.216709e-08     1.162446e-04    -6.2167e-08      0.002 (TRAH MIcro)
  224     dE    -1.288471e-07     1.210577e-04    -1.2884e-07      0.007 (TRAH MIcro)
  224     dE    -2.037006e-07     1.489413e-04    -2.0367e-07      0.012 (TRAH MIcro)
  224     dE    -2.813147e-07     1.233015e-04    -2.8123e-07      0.017 (TRAH MIcro)
  224     dE    -3.154598e-07     5.648397e-05    -3.1534e-07      0.019 (TRAH MIcro)
  224     dE    -3.246735e-07     5.580226e-05    -3.2454e-07      0.020 (TRAH MIcro)
  224     dE    -3.580287e-07     1.613691e-04    -3.5785e-07      0.023 (TRAH MIcro)
  224     dE    -5.891101e-07     2.702307e-04    -5.8805e-07      0.042 (TRAH MIcro)
  224     dE    -7.940392e-07     1.652973e-04    -6.0572e-05      0.050 (TRAH MIcro)
  224     dE    -9.226569e-07     1.917707e-04    -1.2132e-04      0.050 (TRAH MIcro)
  224     dE    -1.120348e-06     2.209041e-04    -2.1511e-04      0.050 (TRAH MIcro)
  224     dE    -1.256110e-06     1.735890e-04    -2.7988e-04      0.050 (TRAH MIcro)
  224     dE    -1.110261e-06     2.525744e-04    -4.4750e-04      0.039 (TRAH MIcro)
  224     dE    -1.444094e-06     1.013790e-04    -4.8078e-04      0.045 (TRAH MIcro)
  224     dE    -1.526781e-06     7.000694e-05    -4.8775e-04      0.047 (TRAH MIcro)
  224     dE    -1.697671e-06     2.242887e-04    -5.0085e-04      0.049 (TRAH MIcro)
  224     dE    -1.844796e-06     1.519428e-04    -5.6389e-04      0.050 (TRAH MIcro)
  224     dE    -1.882172e-06     6.962567e-05    -5.8232e-04      0.050 (TRAH MIcro)
  224     dE    -1.892138e-06     5.227639e-05    -5.8723e-04      0.050 (TRAH MIcro)
  224     dE    -1.918062e-06     1.572501e-04    -6.0011e-04      0.050 (TRAH MIcro)
  224     dE    -2.004116e-06     1.497715e-04    -6.4393e-04      0.050 (TRAH MIcro)
  225       -295.077852479130     1.816370e-04                     0.033 (TRAH MAcro)   No
  225     dE    -4.474383e-08     6.895368e-05    -4.4744e-08      0.000 (TRAH MIcro)
  225     dE    -6.188334e-08     6.775407e-05    -6.1883e-08      0.001 (TRAH MIcro)
  225     dE    -7.274169e-08     3.309110e-05    -7.2742e-08      0.001 (TRAH MIcro)
  225     dE    -7.560819e-08     2.683135e-05    -7.5608e-08      0.001 (TRAH MIcro)
  225     dE    -8.346498e-08     7.785693e-05    -8.3465e-08      0.002 (TRAH MIcro)
  225     dE    -1.359289e-07     1.781081e-04    -1.3592e-07      0.008 (TRAH MIcro)
  225     dE    -1.931013e-07     9.325044e-05    -1.9306e-07      0.015 (TRAH MIcro)
  225     dE    -2.237911e-07     1.149935e-04    -2.2371e-07      0.019 (TRAH MIcro)
  225     dE    -5.354416e-07     3.642530e-04    -1.9415e-04      0.033 (TRAH MIcro)
  225     dE    -8.810539e-07     1.978790e-04    -5.1810e-04      0.033 (TRAH MIcro)
  225     dE    -4.330017e-07     5.420821e-05    -7.7898e-04      0.018 (TRAH MIcro)
  225     dE    -4.770428e-07     6.670954e-05    -8.0238e-04      0.019 (TRAH MIcro)
  225     dE    -5.609258e-07     8.833105e-05    -8.4047e-04      0.020 (TRAH MIcro)
  225     dE    -6.831863e-07     1.486153e-04    -8.8470e-04      0.023 (TRAH MIcro)
  225     dE    -9.493905e-07     1.124058e-04    -9.5503e-04      0.027 (TRAH MIcro)
  225     dE    -1.091811e-06     8.066678e-05    -9.8382e-04      0.029 (TRAH MIcro)
  225     dE    -1.159031e-06     7.458658e-05    -9.9585e-04      0.030 (TRAH MIcro)
  225     dE    -1.394608e-06     1.602717e-04    -1.0318e-03      0.033 (TRAH MIcro)
  225     dE    -1.490965e-06     1.489178e-04    -1.1336e-03      0.033 (TRAH MIcro)
  225     dE    -1.518016e-06     4.911496e-05    -1.1626e-03      0.033 (TRAH MIcro)
  225     dE    -1.525062e-06     5.306835e-05    -1.1701e-03      0.033 (TRAH MIcro)
  225     dE    -1.533540e-06     3.757405e-05    -1.1792e-03      0.033 (TRAH MIcro)
  225     dE    -1.539153e-06     4.484549e-05    -1.1853e-03      0.033 (TRAH MIcro)
  226       -295.077852653153     1.172768e-04                     0.022 (TRAH MAcro)   No
  226     dE    -1.598069e-08     2.608102e-05    -1.5981e-08      0.000 (TRAH MIcro)
  226     dE    -1.847735e-08     2.686845e-05    -1.8477e-08      0.000 (TRAH MIcro)
  226     dE    -2.393449e-08     3.278439e-05    -2.3934e-08      0.001 (TRAH MIcro)
  226     dE    -2.805799e-08     3.876109e-05    -2.8058e-08      0.001 (TRAH MIcro)
  226     dE    -5.685971e-08     1.574620e-04    -5.6858e-08      0.005 (TRAH MIcro)
  226     dE    -2.271897e-07     1.349593e-04    -1.0886e-04      0.022 (TRAH MIcro)
  226     dE    -2.591548e-07     5.766783e-05    -1.7828e-04      0.022 (TRAH MIcro)
  226     dE    -2.868026e-07     9.038489e-05    -2.3234e-04      0.022 (TRAH MIcro)
  226     dE    -3.375745e-07     1.230604e-04    -3.3999e-04      0.022 (TRAH MIcro)
  226     dE    -2.945742e-07     5.144751e-05    -5.3509e-04      0.017 (TRAH MIcro)
  226     dE    -3.506001e-07     7.867577e-05    -5.7034e-04      0.019 (TRAH MIcro)
  226     dE    -4.113581e-07     6.590648e-05    -6.0195e-04      0.021 (TRAH MIcro)
  226     dE    -4.724108e-07     8.701695e-05    -6.4171e-04      0.022 (TRAH MIcro)
  226     dE    -5.347801e-07     1.564483e-04    -7.9035e-04      0.022 (TRAH MIcro)
  226     dE    -1.995883e-07     3.162606e-05    -1.1932e-03      0.010 (TRAH MIcro)
  226     dE    -2.070178e-07     1.228666e-05    -1.2015e-03      0.010 (TRAH MIcro)
  226     dE    -2.095670e-07     1.205388e-05    -1.2042e-03      0.011 (TRAH MIcro)
  226     dE    -2.256230e-07     5.574132e-05    -1.2196e-03      0.011 (TRAH MIcro)
  226     dE    -2.596318e-07     3.038700e-05    -1.2456e-03      0.012 (TRAH MIcro)
  226     dE    -2.721796e-07     2.027716e-05    -1.2535e-03      0.012 (TRAH MIcro)
  226     dE    -2.796251e-07     2.481885e-05    -1.2579e-03      0.013 (TRAH MIcro)
  226     dE    -2.932961e-07     2.063568e-05    -1.2653e-03      0.013 (TRAH MIcro)
  226     dE    -3.035829e-07     2.552591e-05    -1.2705e-03      0.013 (TRAH MIcro)
  227       -295.077852758396     4.120456e-05                           (NR   MAcro)
  227     dE    -2.661467e-09     1.700728e-05                           (NR   MIcro)
  227     dE    -4.265343e-09     2.567959e-05                           (NR   MIcro)
  227     dE    -8.285054e-09     2.910438e-05                           (NR   MIcro)
  227     dE    -1.342782e-08     5.356751e-05                           (NR   MIcro)
  227     dE    -4.433649e-08     1.558890e-04                           (NR   MIcro)
  227     dE    -1.059463e-07     7.435905e-05                           (NR   MIcro)
  227     dE    -1.228465e-07     6.157737e-05                           (NR   MIcro)
  227     dE    -1.531217e-07     1.260792e-04                           (NR   MIcro)
  227     dE     8.157245e-06     1.290499e-02                           (NR   MIcro)
  227     dE     2.081204e-07     1.250037e-04                           (NR   MIcro)
  227     dE     1.716975e-07     1.091630e-04                           (NR   MIcro)
  227     dE     1.383316e-07     9.665565e-05                           (NR   MIcro)
  227     dE     9.998556e-08     1.187316e-04                           (NR   MIcro)
  227     dE     6.487527e-08     1.337463e-04                           (NR   MIcro)
  227     dE     3.157876e-08     7.275860e-05                           (NR   MIcro)
  227     dE     2.038166e-08     4.555228e-05                           (NR   MIcro)
  227     dE     1.513723e-08     4.379508e-05                           (NR   MIcro)
  227     dE    -4.041983e-10     1.053918e-04                           (NR   MIcro)
  227     dE    -1.423687e-08     3.020718e-05                           (NR   MIcro)
  227     dE    -1.577680e-08     1.465122e-05                           (NR   MIcro)
  227     dE    -1.661985e-08     1.927528e-05                           (NR   MIcro)
  227     dE    -1.798965e-08     1.542865e-05                           (NR   MIcro)
  227     dE    -1.915818e-08     2.377509e-05                           (NR   MIcro)
  227     dE    -2.113867e-07     1.304504e-03                           (NR   MIcro)
  228       -295.077851119682     1.326903e-03                     0.022 (TRAH MAcro)   No
  228     dE    -1.276615e-06     2.530735e-04    -1.2766e-06      0.002 (TRAH MIcro)
  228     dE    -1.412821e-06     1.400267e-04    -1.4128e-06      0.002 (TRAH MIcro)
  228     dE    -1.444291e-06     7.652997e-05    -1.4443e-06      0.002 (TRAH MIcro)
  229       -295.077852564882     7.644232e-05                           (NR   MAcro)
  229     dE    -1.308590e-08     5.025970e-05                           (NR   MIcro)
  229     dE    -2.891869e-08     6.284065e-05                           (NR   MIcro)
  229     dE    -4.644949e-08     8.052453e-05                           (NR   MIcro)
  229     dE    -7.521289e-08     8.499148e-05                           (NR   MIcro)
  229     dE    -1.814651e-07     2.962730e-04                           (NR   MIcro)
  229     dE    -2.831823e-07     1.450768e-04                           (NR   MIcro)
  229     dE    -3.253308e-07     1.645921e-04                           (NR   MIcro)
  229     dE    -5.038023e-07     3.772950e-04                           (NR   MIcro)
  229     dE    -2.814622e-06     2.054591e-03                           (NR   MIcro)
  229     dE     2.868621e-06     9.946077e-04                           (NR   MIcro)
  229     dE     1.192460e-06     4.943834e-04                           (NR   MIcro)
  229     dE     5.029765e-07     3.832767e-04                           (NR   MIcro)
  229     dE     2.550705e-07     2.325907e-04                           (NR   MIcro)
  229     dE     7.168030e-08     2.413211e-04                           (NR   MIcro)
  229     dE    -1.952102e-08     7.456737e-05                           (NR   MIcro)
  229     dE    -2.791589e-08     4.929824e-05                           (NR   MIcro)
  229     dE    -4.960772e-08     1.497127e-04                           (NR   MIcro)
  229     dE    -1.414937e-07     1.517094e-04                           (NR   MIcro)
  229     dE    -1.834611e-07     6.830863e-05                           (NR   MIcro)
  229     dE    -1.950520e-07     5.568193e-05                           (NR   MIcro)
  229     dE    -2.209247e-07     1.166399e-04                           (NR   MIcro)
  229     dE    -3.171082e-07     2.130100e-04                           (NR   MIcro)
  229     dE    -1.763589e-06     1.718380e-03                           (NR   MIcro)
  229     dE     1.662440e-07     2.395578e-04                           (NR   MIcro)
  230       -295.077851663973     2.523293e-04                     0.027 (TRAH MAcro)   No
  230     dE    -7.618907e-08     7.057497e-05    -7.6189e-08      0.000 (TRAH MIcro)
  230     dE    -1.098417e-07     1.148058e-04    -1.0984e-07      0.001 (TRAH MIcro)
  230     dE    -2.205204e-07     2.493436e-04    -2.2052e-07      0.005 (TRAH MIcro)
  230     dE    -3.836307e-07     2.283358e-04    -3.8359e-07      0.011 (TRAH MIcro)
  230     dE    -5.970024e-07     3.547184e-04    -5.9678e-07      0.019 (TRAH MIcro)
  230     dE    -8.596636e-07     1.862119e-04    -1.1075e-04      0.027 (TRAH MIcro)
  230     dE    -9.205078e-07     9.447821e-05    -2.1266e-04      0.027 (TRAH MIcro)
  230     dE    -9.388149e-07     6.562042e-05    -2.3085e-04      0.027 (TRAH MIcro)
  230     dE    -9.759893e-07     1.804424e-04    -2.9009e-04      0.027 (TRAH MIcro)
  230     dE    -1.221211e-06     2.623499e-04    -7.6306e-04      0.027 (TRAH MIcro)
  230     dE    -1.273741e-06     5.459756e-05    -8.7136e-04      0.027 (TRAH MIcro)
  230     dE    -1.281667e-06     4.748337e-05    -8.8782e-04      0.027 (TRAH MIcro)
  230     dE    -1.295544e-06     7.343405e-05    -9.1662e-04      0.027 (TRAH MIcro)
  230     dE    -1.308801e-06     5.318160e-05    -9.4489e-04      0.027 (TRAH MIcro)
  230     dE    -1.297309e-06     8.841271e-05    -9.9004e-04      0.026 (TRAH MIcro)
  230     dE    -1.344900e-06     5.635990e-05    -1.0259e-03      0.027 (TRAH MIcro)
  230     dE    -1.353816e-06     4.210515e-05    -1.0467e-03      0.027 (TRAH MIcro)
  230     dE    -7.170185e-07     1.837129e-05    -1.6187e-03      0.014 (TRAH MIcro)
  231       -295.077852269393     2.948880e-05                           (NR   MAcro)
  231     dE    -1.253087e-08     8.931854e-05                           (NR   MIcro)
  231     dE    -8.934638e-08     2.196089e-04                           (NR   MIcro)
  231     dE    -4.693846e-07     2.754275e-04                           (NR   MIcro)
  231     dE    -6.093713e-07     1.642131e-04                           (NR   MIcro)
  231     dE    -7.154876e-07     1.761647e-04                           (NR   MIcro)
  231     dE    -8.654260e-07     2.328469e-04                           (NR   MIcro)
  231     dE    -1.122233e-06     2.936324e-04                           (NR   MIcro)
  231     dE    -3.877982e-06     2.338577e-03                           (NR   MIcro)
  231     dE     9.094295e-07     3.605941e-04                           (NR   MIcro)
  231     dE     6.700078e-07     1.888925e-04                           (NR   MIcro)
  231     dE     3.351315e-07     3.719467e-04                           (NR   MIcro)
  231     dE     7.688175e-08     1.803108e-04                           (NR   MIcro)
  231     dE     6.060971e-09     1.049484e-04                           (NR   MIcro)
  231     dE    -1.445567e-08     9.570007e-05                           (NR   MIcro)
  231     dE    -4.016558e-08     7.885371e-05                           (NR   MIcro)
  231     dE    -6.392720e-08     1.055273e-04                           (NR   MIcro)
  231     dE    -1.281858e-07     1.928566e-04                           (NR   MIcro)
  231     dE    -3.923253e-07     3.929608e-04                           (NR   MIcro)
  231     dE    -5.417066e-07     1.308184e-04                           (NR   MIcro)
  231     dE    -5.894346e-07     1.324058e-04                           (NR   MIcro)
  231     dE    -8.565120e-07     6.766370e-04                           (NR   MIcro)
  231     dE     2.816364e-07     2.979881e-04                           (NR   MIcro)
  231     dE     1.545826e-07     1.113021e-04                           (NR   MIcro)
  231     dE     1.113436e-07     9.682756e-05                           (NR   MIcro)
  232       -295.077851582578     1.149024e-04                     0.032 (TRAH MAcro)   No
  232     dE    -3.533210e-08     9.178596e-05    -3.5332e-08      0.001 (TRAH MIcro)
  232     dE    -9.023319e-08     1.614856e-04    -9.0233e-08      0.002 (TRAH MIcro)
  232     dE    -3.086145e-07     2.917925e-04    -3.0859e-07      0.009 (TRAH MIcro)
  232     dE    -4.307040e-07     1.348393e-04    -4.3062e-07      0.014 (TRAH MIcro)
  232     dE    -4.920454e-07     1.411966e-04    -4.9192e-07      0.016 (TRAH MIcro)
  232     dE    -5.490535e-07     1.422431e-04    -5.4887e-07      0.018 (TRAH MIcro)
  232     dE    -5.819834e-07     8.904666e-05    -5.8176e-07      0.019 (TRAH MIcro)
  232     dE    -6.483691e-07     2.588151e-04    -6.4805e-07      0.022 (TRAH MIcro)
  232     dE    -1.119975e-06     3.013496e-04    -3.3721e-04      0.032 (TRAH MIcro)
  232     dE    -1.025785e-06     7.010811e-05    -6.3702e-04      0.025 (TRAH MIcro)
  232     dE    -1.054855e-06     5.789983e-05    -6.4386e-04      0.026 (TRAH MIcro)
  232     dE    -1.120445e-06     1.153211e-04    -6.5821e-04      0.027 (TRAH MIcro)
  232     dE    -1.339858e-06     1.843356e-04    -6.9711e-04      0.031 (TRAH MIcro)
  232     dE    -1.430505e-06     8.841043e-05    -7.3907e-04      0.032 (TRAH MIcro)
  232     dE    -1.457062e-06     8.122271e-05    -7.7643e-04      0.032 (TRAH MIcro)
  232     dE    -1.479407e-06     7.720516e-05    -8.0836e-04      0.032 (TRAH MIcro)
  232     dE    -1.486885e-06     5.974525e-05    -8.3370e-04      0.032 (TRAH MIcro)
  232     dE    -1.519498e-06     1.053035e-04    -8.6714e-04      0.032 (TRAH MIcro)
  232     dE    -1.542894e-06     4.479169e-05    -9.0230e-04      0.032 (TRAH MIcro)
  232     dE    -1.547094e-06     2.444575e-05    -9.0881e-04      0.032 (TRAH MIcro)
  232     dE    -1.552057e-06     5.234890e-05    -9.1639e-04      0.032 (TRAH MIcro)
  232     dE    -6.795068e-07     2.205817e-05    -1.4752e-03      0.015 (TRAH MIcro)
  232     dE    -6.851055e-07     1.053960e-05    -1.4771e-03      0.015 (TRAH MIcro)
  233       -295.077852144438     3.127337e-05                           (NR   MAcro)
  233     dE    -8.714236e-09     6.361658e-05                           (NR   MIcro)
  233     dE    -5.690375e-08     1.758483e-04                           (NR   MIcro)
  233     dE    -2.588848e-07     1.523010e-04                           (NR   MIcro)
  233     dE    -3.202967e-07     1.182970e-04                           (NR   MIcro)
  233     dE    -4.164936e-07     1.709539e-04                           (NR   MIcro)
  233     dE    -5.342217e-07     1.611188e-04                           (NR   MIcro)
  233     dE    -1.470190e-06     1.061444e-03                           (NR   MIcro)
  233     dE     8.340378e-07     4.520638e-04                           (NR   MIcro)
  233     dE     5.263512e-07     1.285869e-04                           (NR   MIcro)
  233     dE     4.920184e-07     6.870402e-05                           (NR   MIcro)
  233     dE     4.331416e-07     1.786890e-04                           (NR   MIcro)
  233     dE     2.835150e-07     2.082720e-04                           (NR   MIcro)
  233     dE     1.449941e-07     1.624710e-04                           (NR   MIcro)
  233     dE     3.561149e-08     1.842301e-04                           (NR   MIcro)
  233     dE    -1.701648e-08     7.460033e-05                           (NR   MIcro)
  233     dE    -3.030674e-08     5.163426e-05                           (NR   MIcro)
  233     dE    -4.996305e-08     1.155709e-04                           (NR   MIcro)
  233     dE    -7.720431e-07     1.532764e-03                           (NR   MIcro)
  233     dE     2.599448e-06     9.223007e-04                           (NR   MIcro)
  233     dE     1.581337e-06     4.158475e-04                           (NR   MIcro)
  233     dE     1.017837e-06     5.310793e-04                           (NR   MIcro)
  233     dE     5.192478e-07     2.110913e-04                           (NR   MIcro)
  233     dE     4.186086e-07     1.417223e-04                           (NR   MIcro)
  233     dE     3.237135e-07     1.754196e-04                           (NR   MIcro)
  234       -295.077850948908     2.128338e-04                     0.038 (TRAH MAcro)   No
  234     dE    -5.814316e-08     9.516293e-05    -5.8143e-08      0.001 (TRAH MIcro)
  234     dE    -9.891702e-08     1.407581e-04    -9.8917e-08      0.001 (TRAH MIcro)
  234     dE    -2.938296e-07     3.370361e-04    -2.9381e-07      0.007 (TRAH MIcro)
  234     dE    -4.236559e-07     1.467540e-04    -4.2360e-07      0.012 (TRAH MIcro)
  234     dE    -4.772343e-07     1.308380e-04    -4.7715e-07      0.014 (TRAH MIcro)
  234     dE    -5.680273e-07     2.839226e-04    -5.6787e-07      0.017 (TRAH MIcro)
  234     dE    -7.364225e-07     1.816596e-04    -7.3602e-07      0.024 (TRAH MIcro)
  234     dE    -9.027107e-07     3.143605e-04    -9.0187e-07      0.031 (TRAH MIcro)
  234     dE    -1.268142e-06     2.373650e-04    -1.4681e-04      0.038 (TRAH MIcro)
  234     dE    -1.354456e-06     9.131473e-05    -2.1496e-04      0.038 (TRAH MIcro)
  234     dE    -1.339086e-06     1.065982e-04    -2.7071e-04      0.036 (TRAH MIcro)
  234     dE    -1.488241e-06     2.444543e-04    -3.2635e-04      0.038 (TRAH MIcro)
  234     dE    -1.316124e-06     1.733042e-04    -7.4411e-04      0.028 (TRAH MIcro)
  234     dE    -1.415393e-06     4.093791e-05    -7.5952e-04      0.030 (TRAH MIcro)
  234     dE    -1.437406e-06     3.684764e-05    -7.6266e-04      0.030 (TRAH MIcro)
  234     dE    -1.458114e-06     3.713680e-05    -7.6551e-04      0.031 (TRAH MIcro)
  234     dE    -1.478774e-06     3.546087e-05    -7.6826e-04      0.031 (TRAH MIcro)
  234     dE    -1.522899e-06     7.768653e-05    -7.7374e-04      0.032 (TRAH MIcro)
  234     dE    -1.892199e-06     1.564235e-04    -8.0618e-04      0.037 (TRAH MIcro)
  234     dE    -2.009625e-06     5.841086e-05    -8.4156e-04      0.038 (TRAH MIcro)
  234     dE    -2.015096e-06     1.819063e-05    -8.4778e-04      0.038 (TRAH MIcro)
  235       -295.077852042647     7.089368e-05                           (NR   MAcro)
  235     dE    -9.625173e-09     3.268404e-05                           (NR   MIcro)
  235     dE    -3.528132e-08     1.292038e-04                           (NR   MIcro)
  235     dE    -1.839106e-07     2.385815e-04                           (NR   MIcro)
  235     dE    -3.753474e-07     1.898347e-04                           (NR   MIcro)
  235     dE    -7.496589e-07     3.443151e-04                           (NR   MIcro)
  235     dE    -1.108767e-06     1.848290e-04                           (NR   MIcro)
  235     dE    -1.493483e-06     4.462642e-04                           (NR   MIcro)
  235     dE     1.292047e-05     5.131711e-03                           (NR   MIcro)
  235     dE     1.393722e-06     2.759561e-04                           (NR   MIcro)
  235     dE     1.239089e-06     1.656188e-04                           (NR   MIcro)
  235     dE     1.031147e-06     2.955590e-04                           (NR   MIcro)
  235     dE     6.966753e-07     2.262509e-04                           (NR   MIcro)
  235     dE     5.569902e-07     1.818264e-04                           (NR   MIcro)
  235     dE     3.838649e-07     2.045538e-04                           (NR   MIcro)
  235     dE     3.247344e-07     9.566829e-05                           (NR   MIcro)
  235     dE     2.639851e-07     1.862971e-04                           (NR   MIcro)
  235     dE     4.800200e-08     4.211641e-04                           (NR   MIcro)
  235     dE    -2.035400e-07     2.492838e-04                           (NR   MIcro)
  235     dE    -2.549765e-07     6.947535e-05                           (NR   MIcro)
  235     dE    -2.676205e-07     6.667458e-05                           (NR   MIcro)
  235     dE    -3.035717e-07     1.849974e-04                           (NR   MIcro)
  235     dE    -6.249436e-07     3.722169e-04                           (NR   MIcro)
  235     dE    -1.182822e-06     6.682779e-04                           (NR   MIcro)
  235     dE    -4.166040e-06     1.465768e-03                           (NR   MIcro)
  236       -295.077737697488     9.721880e-03                     0.038 (TRAH MAcro)   No
  236     dE    -7.951332e-05     9.207926e-04    -7.9506e-05      0.009 (TRAH MIcro)
  237       -295.077817224167     9.204409e-04                     0.046 (TRAH MAcro)   No
  237     dE    -1.214200e-06     3.309997e-04    -1.2142e-06      0.002 (TRAH MIcro)
  237     dE    -3.179853e-06     1.171825e-03    -3.1794e-06      0.012 (TRAH MIcro)
  237     dE    -1.046414e-05     1.015940e-03    -8.1352e-04      0.046 (TRAH MIcro)
  237     dE    -1.197375e-05     4.272959e-04    -1.5964e-03      0.046 (TRAH MIcro)
  237     dE    -1.190096e-05     3.290833e-04    -2.1841e-03      0.043 (TRAH MIcro)
  237     dE    -1.225367e-05     1.331732e-04    -2.2151e-03      0.044 (TRAH MIcro)
  237     dE    -1.234027e-05     7.352433e-05    -2.2220e-03      0.044 (TRAH MIcro)
  238       -295.077829288152     1.490123e-04                     0.055 (TRAH MAcro)   No
  238     dE    -7.069793e-07     7.562037e-04    -7.0695e-07      0.007 (TRAH MIcro)
  238     dE    -4.887961e-06     1.249025e-03    -4.8757e-06      0.050 (TRAH MIcro)
  238     dE    -7.236261e-06     2.955506e-04    -6.1264e-04      0.055 (TRAH MIcro)
  238     dE    -7.371932e-06     1.440536e-04    -6.5768e-04      0.055 (TRAH MIcro)
  238     dE    -7.477109e-06     1.687191e-04    -6.9510e-04      0.055 (TRAH MIcro)
  238     dE    -7.552085e-06     1.346940e-04    -7.2392e-04      0.055 (TRAH MIcro)
  238     dE    -7.637067e-06     1.678941e-04    -7.5787e-04      0.055 (TRAH MIcro)
  238     dE    -7.855121e-06     3.155262e-04    -8.6199e-04      0.055 (TRAH MIcro)
  238     dE    -7.155128e-06     9.011530e-05    -1.2160e-03      0.048 (TRAH MIcro)
  238     dE    -7.206806e-06     4.852543e-05    -1.2188e-03      0.048 (TRAH MIcro)
  238     dE    -7.259374e-06     1.072690e-04    -1.2216e-03      0.048 (TRAH MIcro)
  238     dE    -7.386959e-06     7.955880e-05    -1.2275e-03      0.049 (TRAH MIcro)
  238     dE    -7.413449e-06     3.172470e-05    -1.2287e-03      0.049 (TRAH MIcro)
  238     dE    -7.426200e-06     4.232114e-05    -1.2292e-03      0.049 (TRAH MIcro)
  238     dE    -7.448056e-06     3.291234e-05    -1.2301e-03      0.049 (TRAH MIcro)
  238     dE    -7.466688e-06     3.763838e-05    -1.2308e-03      0.049 (TRAH MIcro)
  238     dE    -7.524575e-06     9.058158e-05    -1.2327e-03      0.050 (TRAH MIcro)
  238     dE    -7.581587e-06     4.702264e-05    -1.2343e-03      0.050 (TRAH MIcro)
  238     dE    -7.592371e-06     1.361278e-05    -1.2346e-03      0.050 (TRAH MIcro)
  239       -295.077836516096     1.134744e-04                     0.066 (TRAH MAcro)   No
  239     dE    -2.408305e-07     4.125450e-04    -2.4083e-07      0.003 (TRAH MIcro)
  239     dE    -3.952371e-06     9.335158e-04    -3.9367e-06      0.063 (TRAH MIcro)
  239     dE    -4.972312e-06     2.588311e-04    -1.9089e-04      0.066 (TRAH MIcro)
  239     dE    -5.070652e-06     8.562891e-05    -2.1349e-04      0.066 (TRAH MIcro)
  239     dE    -5.159608e-06     1.818023e-04    -2.3467e-04      0.066 (TRAH MIcro)
  239     dE    -5.387941e-06     2.835597e-04    -3.1292e-04      0.066 (TRAH MIcro)
  239     dE    -5.792258e-06     2.369368e-04    -4.1704e-04      0.066 (TRAH MIcro)
  239     dE    -6.016265e-06     2.253017e-04    -4.9312e-04      0.066 (TRAH MIcro)
  239     dE    -6.133626e-06     1.664852e-04    -5.8819e-04      0.065 (TRAH MIcro)
  239     dE    -6.315658e-06     1.108075e-04    -6.0029e-04      0.066 (TRAH MIcro)
  239     dE    -5.210391e-06     1.063589e-04    -8.1687e-04      0.052 (TRAH MIcro)
  239     dE    -5.508313e-06     1.267047e-04    -8.2955e-04      0.055 (TRAH MIcro)
  239     dE    -5.583149e-06     4.110551e-05    -8.3230e-04      0.056 (TRAH MIcro)
  239     dE    -5.605607e-06     3.873575e-05    -8.3307e-04      0.056 (TRAH MIcro)
  239     dE    -5.690731e-06     1.438641e-04    -8.3605e-04      0.056 (TRAH MIcro)
  239     dE    -5.892980e-06     8.430741e-05    -8.4221e-04      0.058 (TRAH MIcro)
  239     dE    -6.014495e-06     1.081802e-04    -8.4537e-04      0.059 (TRAH MIcro)
  239     dE    -6.114932e-06     5.105621e-05    -8.4778e-04      0.060 (TRAH MIcro)
  239     dE    -6.145879e-06     3.148868e-05    -8.4852e-04      0.060 (TRAH MIcro)
  239     dE    -6.153424e-06     1.819356e-05    -8.4870e-04      0.060 (TRAH MIcro)
  239     dE    -6.172092e-06     4.062446e-05    -8.4909e-04      0.060 (TRAH MIcro)
  239     dE    -6.243805e-06     6.420730e-05    -8.5052e-04      0.061 (TRAH MIcro)
  239     dE    -6.281296e-06     2.089433e-05    -8.5123e-04      0.061 (TRAH MIcro)
  240       -295.077841617827     1.823181e-04                     0.080 (TRAH MAcro)   No
  240     dE    -8.901513e-08     1.540082e-04    -8.9015e-08      0.001 (TRAH MIcro)
  240     dE    -9.390006e-07     7.461361e-04    -9.3866e-07      0.019 (TRAH MIcro)
  240     dE    -2.988423e-06     6.062200e-04    -2.9764e-06      0.063 (TRAH MIcro)
  240     dE    -3.476246e-06     1.563782e-04    -3.4573e-06      0.074 (TRAH MIcro)
  240     dE    -3.611300e-06     1.777215e-04    -3.5900e-06      0.077 (TRAH MIcro)
  240     dE    -3.734115e-06     1.250854e-04    -3.7106e-06      0.080 (TRAH MIcro)
  240     dE    -3.829811e-06     1.807529e-04    -1.9186e-05      0.080 (TRAH MIcro)
  240     dE    -4.226408e-06     4.619062e-04    -9.1104e-05      0.080 (TRAH MIcro)
  240     dE    -5.796530e-06     4.557674e-04    -4.3153e-04      0.080 (TRAH MIcro)
  240     dE    -4.482909e-06     9.926572e-05    -6.3540e-04      0.059 (TRAH MIcro)
  240     dE    -4.595172e-06     6.592334e-05    -6.3978e-04      0.060 (TRAH MIcro)
  240     dE    -4.810698e-06     1.618493e-04    -6.4754e-04      0.062 (TRAH MIcro)
  240     dE    -5.082743e-06     1.094876e-04    -6.5632e-04      0.064 (TRAH MIcro)
  240     dE    -5.208835e-06     7.052258e-05    -6.6008e-04      0.065 (TRAH MIcro)
  240     dE    -5.293501e-06     8.006131e-05    -6.6252e-04      0.066 (TRAH MIcro)
  240     dE    -5.390325e-06     6.099132e-05    -6.6517e-04      0.067 (TRAH MIcro)
  240     dE    -5.469886e-06     1.134637e-04    -6.6720e-04      0.068 (TRAH MIcro)
  240     dE    -5.772540e-06     2.070890e-04    -6.7426e-04      0.070 (TRAH MIcro)
  240     dE    -5.997129e-06     7.129353e-05    -6.7896e-04      0.072 (TRAH MIcro)
  240     dE    -6.035685e-06     3.450526e-05    -6.7973e-04      0.072 (TRAH MIcro)
  240     dE    -6.083424e-06     7.997400e-05    -6.8062e-04      0.073 (TRAH MIcro)
  240     dE    -6.279910e-06     7.754025e-05    -6.8403e-04      0.075 (TRAH MIcro)
  240     dE    -6.335974e-06     3.629557e-05    -6.8498e-04      0.075 (TRAH MIcro)
  241       -295.077845254389     3.032541e-04                     0.080 (TRAH MAcro)   No
  241     dE    -1.070932e-07     7.270086e-05    -1.0709e-07      0.001 (TRAH MIcro)
  241     dE    -2.542213e-07     3.169034e-04    -2.5422e-07      0.004 (TRAH MIcro)
  241     dE    -8.643827e-07     4.271141e-04    -8.6398e-07      0.022 (TRAH MIcro)
  241     dE    -1.384674e-06     3.499262e-04    -1.3828e-06      0.037 (TRAH MIcro)
  241     dE    -2.006474e-06     3.898441e-04    -2.0005e-06      0.055 (TRAH MIcro)
  241     dE    -2.313130e-06     1.215608e-04    -2.3037e-06      0.064 (TRAH MIcro)
  241     dE    -2.345109e-06     6.864026e-05    -2.3353e-06      0.065 (TRAH MIcro)
  241     dE    -2.397220e-06     1.678477e-04    -2.3867e-06      0.066 (TRAH MIcro)
  241     dE    -2.889393e-06     5.334509e-04    -2.1530e-05      0.080 (TRAH MIcro)
  241     dE    -3.956839e-06     3.989478e-04    -2.4796e-04      0.080 (TRAH MIcro)
  241     dE    -3.200759e-06     1.639809e-04    -4.6903e-04      0.057 (TRAH MIcro)
  241     dE    -3.637908e-06     1.556549e-04    -4.8594e-04      0.062 (TRAH MIcro)
  241     dE    -3.875917e-06     1.034763e-04    -4.9392e-04      0.065 (TRAH MIcro)
  241     dE    -4.129896e-06     1.613023e-04    -5.0167e-04      0.068 (TRAH MIcro)
  241     dE    -4.617642e-06     1.649629e-04    -5.1496e-04      0.073 (TRAH MIcro)
  241     dE    -4.915547e-06     7.097790e-05    -5.2217e-04      0.076 (TRAH MIcro)
  241     dE    -4.979195e-06     1.031373e-04    -5.2359e-04      0.077 (TRAH MIcro)
  241     dE    -5.296418e-06     2.899789e-04    -5.3070e-04      0.080 (TRAH MIcro)
  241     dE    -5.549343e-06     2.993752e-04    -5.8698e-04      0.080 (TRAH MIcro)
  241     dE    -5.655525e-06     1.101906e-04    -6.1125e-04      0.080 (TRAH MIcro)
  241     dE    -5.691223e-06     1.207137e-04    -6.1953e-04      0.080 (TRAH MIcro)
  241     dE    -5.734172e-06     8.267338e-05    -6.2959e-04      0.080 (TRAH MIcro)
  241     dE    -5.755521e-06     8.515179e-05    -6.3446e-04      0.080 (TRAH MIcro)
  242       -295.077847474058     3.089386e-04                     0.080 (TRAH MAcro)   No
  242     dE    -1.048927e-07     7.654814e-05    -1.0489e-07      0.001 (TRAH MIcro)
  242     dE    -1.548324e-07     1.665572e-04    -1.5483e-07      0.002 (TRAH MIcro)
  242     dE    -3.828171e-07     2.464939e-04    -3.8279e-07      0.008 (TRAH MIcro)
  242     dE    -5.920990e-07     2.720783e-04    -5.9197e-07      0.015 (TRAH MIcro)
  242     dE    -1.102089e-06     4.148202e-04    -1.1010e-06      0.031 (TRAH MIcro)
  242     dE    -1.395749e-06     1.412917e-04    -1.3934e-06      0.041 (TRAH MIcro)
  242     dE    -1.442362e-06     8.722693e-05    -1.4398e-06      0.042 (TRAH MIcro)
  242     dE    -1.535121e-06     2.188001e-04    -1.5319e-06      0.046 (TRAH MIcro)
  242     dE    -1.832087e-06     2.748941e-04    -1.8262e-06      0.057 (TRAH MIcro)
  242     dE    -2.019863e-06     1.308852e-04    -2.0116e-06      0.064 (TRAH MIcro)
  242     dE    -2.078966e-06     1.205385e-04    -2.0698e-06      0.066 (TRAH MIcro)
  242     dE    -2.162588e-06     1.742714e-04    -2.1521e-06      0.070 (TRAH MIcro)
  242     dE    -2.332951e-06     2.160728e-04    -2.3191e-06      0.077 (TRAH MIcro)
  242     dE    -2.596324e-06     3.121821e-04    -4.3976e-05      0.080 (TRAH MIcro)
  242     dE    -2.944907e-06     3.051443e-04    -1.5902e-04      0.075 (TRAH MIcro)
  242     dE    -3.311297e-06     1.957106e-04    -1.9557e-04      0.080 (TRAH MIcro)
  242     dE    -3.448922e-06     2.433591e-04    -2.2531e-04      0.080 (TRAH MIcro)
  242     dE    -3.099555e-06     5.077335e-04    -4.1555e-04      0.062 (TRAH MIcro)
  242     dE    -4.327226e-06     1.854984e-04    -4.4741e-04      0.078 (TRAH MIcro)
  242     dE    -4.507973e-06     7.275519e-05    -4.5196e-04      0.080 (TRAH MIcro)
  242     dE    -4.529816e-06     1.242676e-04    -4.5652e-04      0.080 (TRAH MIcro)
  242     dE    -4.583117e-06     1.195307e-04    -4.6773e-04      0.080 (TRAH MIcro)
  242     dE    -4.633637e-06     1.706124e-04    -4.7834e-04      0.080 (TRAH MIcro)
  243       -295.077849236344     3.573384e-04                     0.080 (TRAH MAcro)   No
  243     dE    -1.304333e-07     9.985065e-05    -1.3043e-07      0.001 (TRAH MIcro)
  243     dE    -1.767126e-07     1.346506e-04    -1.7671e-07      0.001 (TRAH MIcro)
  243     dE    -2.537344e-07     1.270260e-04    -2.5373e-07      0.003 (TRAH MIcro)
  243     dE    -3.228101e-07     1.959077e-04    -3.2280e-07      0.005 (TRAH MIcro)
  243     dE    -7.500441e-07     5.145614e-04    -7.4971e-07      0.021 (TRAH MIcro)
  243     dE    -1.164974e-06     1.857583e-04    -1.1634e-06      0.037 (TRAH MIcro)
  243     dE    -1.233126e-06     8.934005e-05    -1.2312e-06      0.039 (TRAH MIcro)
  243     dE    -1.256574e-06     1.001077e-04    -1.2546e-06      0.040 (TRAH MIcro)
  243     dE    -1.300170e-06     1.327996e-04    -1.2979e-06      0.042 (TRAH MIcro)
  243     dE    -1.367578e-06     1.380039e-04    -1.3649e-06      0.044 (TRAH MIcro)
  243     dE    -1.433106e-06     1.575027e-04    -1.4299e-06      0.047 (TRAH MIcro)
  243     dE    -1.518103e-06     1.341560e-04    -1.5141e-06      0.051 (TRAH MIcro)
  243     dE    -1.590467e-06     1.526262e-04    -1.5857e-06      0.055 (TRAH MIcro)
  243     dE    -1.886107e-06     5.419689e-04    -1.8765e-06      0.072 (TRAH MIcro)
  243     dE    -3.257567e-06     6.376689e-04    -3.8259e-04      0.070 (TRAH MIcro)
  243     dE    -4.542987e-06     2.305218e-04    -5.0235e-04      0.080 (TRAH MIcro)
  243     dE    -4.637802e-06     1.674482e-04    -5.2008e-04      0.080 (TRAH MIcro)
  243     dE    -1.439656e-06     1.084679e-04    -8.0219e-04      0.029 (TRAH MIcro)
  243     dE    -1.789018e-06     1.318733e-04    -8.2959e-04      0.035 (TRAH MIcro)
  243     dE    -2.081835e-06     7.805017e-05    -8.4573e-04      0.039 (TRAH MIcro)
  243     dE    -2.232904e-06     8.048603e-05    -8.5265e-04      0.041 (TRAH MIcro)
  243     dE    -2.367421e-06     4.783436e-05    -8.5855e-04      0.042 (TRAH MIcro)
  243     dE    -2.406112e-06     3.598550e-05    -8.6027e-04      0.043 (TRAH MIcro)
  244       -295.077850492319     1.029844e-04                     0.080 (TRAH MAcro)   No
  244     dE    -2.410512e-08     6.909445e-05    -2.4105e-08      0.000 (TRAH MIcro)
  244     dE    -1.010851e-07     2.195277e-04    -1.0108e-07      0.003 (TRAH MIcro)
  244     dE    -4.188531e-07     2.663131e-04    -4.1873e-07      0.017 (TRAH MIcro)
  244     dE    -6.278134e-07     2.323836e-04    -6.2740e-07      0.026 (TRAH MIcro)
  244     dE    -9.010530e-07     2.441809e-04    -8.9977e-07      0.038 (TRAH MIcro)
  244     dE    -9.966515e-07     7.542421e-05    -9.9490e-07      0.042 (TRAH MIcro)
  244     dE    -1.019318e-06     8.539977e-05    -1.0174e-06      0.043 (TRAH MIcro)
  244     dE    -1.130732e-06     2.158115e-04    -1.1281e-06      0.048 (TRAH MIcro)
  244     dE    -1.371724e-06     2.042266e-04    -1.3668e-06      0.060 (TRAH MIcro)
  244     dE    -1.464402e-06     9.699007e-05    -1.4582e-06      0.065 (TRAH MIcro)
  244     dE    -1.515211e-06     1.427134e-04    -1.5083e-06      0.068 (TRAH MIcro)
  244     dE    -1.751431e-06     3.777305e-04    -5.7478e-06      0.080 (TRAH MIcro)
  244     dE    -2.674362e-06     4.695923e-04    -1.8908e-04      0.080 (TRAH MIcro)
  244     dE    -3.613167e-06     5.560204e-04    -3.7599e-04      0.080 (TRAH MIcro)
  244     dE    -1.735469e-06     1.641309e-04    -6.8166e-04      0.040 (TRAH MIcro)
  244     dE    -2.143289e-06     1.358704e-04    -7.0648e-04      0.046 (TRAH MIcro)
  244     dE    -2.583693e-06     1.846574e-04    -7.2749e-04      0.051 (TRAH MIcro)
  244     dE    -4.098150e-06     4.141926e-04    -7.7793e-04      0.066 (TRAH MIcro)
  244     dE    -4.804829e-06     7.725473e-05    -7.9541e-04      0.071 (TRAH MIcro)
  244     dE    -4.900271e-06     5.026903e-05    -7.9760e-04      0.072 (TRAH MIcro)
  244     dE    -5.062132e-06     1.289240e-04    -8.0110e-04      0.073 (TRAH MIcro)
  244     dE    -5.491947e-06     1.138142e-04    -8.0964e-04      0.076 (TRAH MIcro)
  244     dE    -5.871105e-06     1.423734e-04    -8.1651e-04      0.079 (TRAH MIcro)
  245       -295.077851190537     4.135825e-04                     0.053 (TRAH MAcro)   No
  245     dE    -1.680648e-07     8.506600e-05    -1.6806e-07      0.001 (TRAH MIcro)
  245     dE    -1.977909e-07     1.033984e-04    -1.9779e-07      0.001 (TRAH MIcro)
  245     dE    -2.537033e-07     1.055498e-04    -2.5370e-07      0.002 (TRAH MIcro)
  245     dE    -2.984473e-07     1.448423e-04    -2.9844e-07      0.004 (TRAH MIcro)
  245     dE    -6.034687e-07     4.287821e-04    -6.0329e-07      0.017 (TRAH MIcro)
  245     dE    -1.121929e-06     2.538744e-04    -1.1201e-06      0.040 (TRAH MIcro)
  245     dE    -1.241669e-06     1.076959e-04    -1.2391e-06      0.045 (TRAH MIcro)
  245     dE    -1.267188e-06     7.048092e-05    -1.2645e-06      0.046 (TRAH MIcro)
  245     dE    -1.297592e-06     9.196015e-05    -1.2946e-06      0.048 (TRAH MIcro)
  245     dE    -1.333701e-06     9.354441e-05    -1.3305e-06      0.049 (TRAH MIcro)
  245     dE    -1.372045e-06     1.108790e-04    -1.3684e-06      0.051 (TRAH MIcro)
  245     dE    -1.421888e-06     1.080145e-04    -4.2739e-06      0.053 (TRAH MIcro)
  245     dE    -1.459103e-06     8.362722e-05    -2.0284e-05      0.053 (TRAH MIcro)
  245     dE    -1.510359e-06     1.776433e-04    -4.3387e-05      0.053 (TRAH MIcro)
  245     dE    -1.760913e-06     4.387181e-04    -3.0088e-04      0.047 (TRAH MIcro)
  245     dE    -1.301749e-06     9.266128e-05    -7.3382e-04      0.028 (TRAH MIcro)
  245     dE    -1.354952e-06     3.171291e-05    -7.3838e-04      0.030 (TRAH MIcro)
  246       -295.077852268282     6.923665e-05                           (NR   MAcro)
  246     dE    -1.195119e-08     5.024560e-05                           (NR   MIcro)
  246     dE    -3.951183e-08     1.421863e-04                           (NR   MIcro)
  246     dE    -3.551360e-07     2.643054e-04                           (NR   MIcro)
  246     dE    -5.363857e-07     1.682656e-04                           (NR   MIcro)
  246     dE    -6.912391e-07     2.120255e-04                           (NR   MIcro)
  246     dE    -8.259059e-07     1.108931e-04                           (NR   MIcro)
  246     dE    -8.788677e-07     1.289219e-04                           (NR   MIcro)
  246     dE    -1.123726e-06     2.709419e-04                           (NR   MIcro)
  246     dE    -1.539181e-06     2.689267e-04                           (NR   MIcro)
  246     dE    -1.736234e-06     1.324230e-04                           (NR   MIcro)
  246     dE    -2.033041e-06     4.293977e-04                           (NR   MIcro)
  246     dE    -1.193147e-05     5.091236e-03                           (NR   MIcro)
  246     dE     1.443575e-06     4.568459e-04                           (NR   MIcro)
  246     dE     9.129840e-07     3.095748e-04                           (NR   MIcro)
  246     dE     3.495514e-07     3.337703e-04                           (NR   MIcro)
  246     dE    -3.290323e-09     2.839799e-04                           (NR   MIcro)
  246     dE    -2.981396e-07     3.080645e-04                           (NR   MIcro)
  246     dE    -6.866362e-07     2.611985e-04                           (NR   MIcro)
  246     dE    -7.521862e-07     9.244387e-05                           (NR   MIcro)
  246     dE    -7.820536e-07     1.124918e-04                           (NR   MIcro)
  246     dE    -9.556224e-07     4.754350e-04                           (NR   MIcro)
  246     dE    -1.848086e-06     4.140218e-04                           (NR   MIcro)
  246     dE    -2.098973e-06     1.863447e-04                           (NR   MIcro)
  246     dE    -2.263828e-06     2.009265e-04                           (NR   MIcro)
  247       -295.077849805109     1.269755e-03                     0.064 (TRAH MAcro)   No
  247     dE    -1.372692e-06     1.379325e-04    -1.3727e-06      0.001 (TRAH MIcro)
  247     dE    -1.406893e-06     6.781037e-05    -1.4069e-06      0.001 (TRAH MIcro)
  248       -295.077851211785     6.734392e-05                           (NR   MAcro)
  248     dE    -2.482004e-08     9.785595e-05                           (NR   MIcro)
  248     dE    -4.546531e-07     5.099977e-04                           (NR   MIcro)
  248     dE    -1.991437e-06     6.632529e-04                           (NR   MIcro)
  248     dE    -1.471250e-05     4.925631e-03                           (NR   MIcro)
  248     dE     4.278703e-06     5.341909e-04                           (NR   MIcro)
  248     dE     3.555109e-06     3.784043e-04                           (NR   MIcro)
  248     dE     2.423952e-06     6.830004e-04                           (NR   MIcro)
  248     dE     6.413986e-07     5.181467e-04                           (NR   MIcro)
  248     dE     1.516724e-07     2.061222e-04                           (NR   MIcro)
  248     dE     6.329714e-08     1.020216e-04                           (NR   MIcro)
  248     dE    -2.957822e-08     1.873187e-04                           (NR   MIcro)
  248     dE    -1.681521e-07     1.434094e-04                           (NR   MIcro)
  248     dE    -2.700246e-07     1.525380e-04                           (NR   MIcro)
  248     dE    -3.642243e-07     1.358169e-04                           (NR   MIcro)
  248     dE    -4.050041e-07     6.930797e-05                           (NR   MIcro)
  248     dE    -4.334584e-07     1.281035e-04                           (NR   MIcro)
  248     dE    -5.733083e-07     2.433184e-04                           (NR   MIcro)
  248     dE    -7.609565e-07     1.533596e-04                           (NR   MIcro)
  248     dE    -7.816370e-07     5.049097e-05                           (NR   MIcro)
  248     dE    -8.004773e-07     1.521499e-04                           (NR   MIcro)
  248     dE    -8.833914e-07     2.011044e-04                           (NR   MIcro)
  248     dE    -9.495781e-07     1.151944e-04                           (NR   MIcro)
  248     dE    -1.001324e-06     1.714428e-04                           (NR   MIcro)
  248     dE    -1.055539e-06     6.297919e-05                           (NR   MIcro)
  249       -295.077852174893     2.917827e-04                     0.077 (TRAH MAcro)   No
  249     dE    -8.075322e-08     4.449477e-05    -8.0753e-08      0.000 (TRAH MIcro)
  249     dE    -9.372785e-08     8.073809e-05    -9.3728e-08      0.001 (TRAH MIcro)
  249     dE    -3.296035e-07     4.370685e-04    -3.2955e-07      0.012 (TRAH MIcro)
  249     dE    -2.171079e-06     7.156027e-04    -1.1943e-04      0.073 (TRAH MIcro)
  249     dE    -3.133296e-06     3.960662e-04    -3.8829e-04      0.067 (TRAH MIcro)
  249     dE    -4.670437e-06     5.413030e-04    -5.1884e-04      0.077 (TRAH MIcro)
  249     dE    -5.773351e-06     4.959666e-04    -7.0975e-04      0.077 (TRAH MIcro)
  249     dE    -3.471443e-06     3.549587e-04    -1.0370e-03      0.049 (TRAH MIcro)
  249     dE    -5.988545e-06     4.235749e-04    -1.2284e-03      0.063 (TRAH MIcro)
  249     dE    -7.277926e-06     1.873662e-04    -1.2967e-03      0.068 (TRAH MIcro)
  249     dE    -7.522628e-06     1.010444e-04    -1.3080e-03      0.069 (TRAH MIcro)
  249     dE    -7.868789e-06     2.038956e-04    -1.3231e-03      0.071 (TRAH MIcro)
  249     dE    -8.887818e-06     2.605163e-04    -1.3614e-03      0.075 (TRAH MIcro)
  249     dE    -9.324264e-06     8.487071e-05    -1.3754e-03      0.076 (TRAH MIcro)
  249     dE    -9.434771e-06     8.147487e-05    -1.3786e-03      0.077 (TRAH MIcro)
  249     dE    -9.533334e-06     1.324590e-04    -1.3864e-03      0.077 (TRAH MIcro)
  249     dE    -9.560467e-06     7.055473e-05    -1.3918e-03      0.077 (TRAH MIcro)
  249     dE    -9.580675e-06     8.404788e-05    -1.3959e-03      0.077 (TRAH MIcro)
  249     dE    -9.595038e-06     6.308934e-05    -1.3989e-03      0.077 (TRAH MIcro)
  249     dE    -9.598555e-06     1.959788e-05    -1.3996e-03      0.077 (TRAH MIcro)
  250       -295.077853406630     4.257648e-04                     0.052 (TRAH MAcro)   No
  250     dE    -1.686728e-07     3.033038e-05    -1.6867e-07      0.000 (TRAH MIcro)
  251       -295.077853575174     3.069347e-05                           (NR   MAcro)
  251     dE    -2.344689e-09     2.427104e-05                           (NR   MIcro)
  251     dE    -9.766645e-09     7.799516e-05                           (NR   MIcro)
  251     dE    -6.051023e-08     8.842163e-05                           (NR   MIcro)
  251     dE    -8.704458e-08     7.662445e-05                           (NR   MIcro)
  251     dE    -1.195621e-07     1.021088e-04                           (NR   MIcro)
  251     dE    -1.529937e-07     6.346960e-05                           (NR   MIcro)
  251     dE    -1.831897e-07     1.178217e-04                           (NR   MIcro)
  251     dE    -1.102784e-06     1.015904e-03                           (NR   MIcro)
  251     dE     8.315489e-07     4.330568e-04                           (NR   MIcro)
  251     dE     4.189745e-07     2.216853e-04                           (NR   MIcro)
  251     dE     9.680228e-08     2.651041e-04                           (NR   MIcro)
  251     dE    -1.050281e-08     1.101042e-04                           (NR   MIcro)
  251     dE    -3.714519e-08     5.747024e-05                           (NR   MIcro)
  251     dE    -4.589793e-08     5.455210e-05                           (NR   MIcro)
  251     dE    -5.405853e-08     4.271525e-05                           (NR   MIcro)
  251     dE    -5.949934e-08     5.758906e-05                           (NR   MIcro)
  251     dE    -7.983145e-08     1.229594e-04                           (NR   MIcro)
  251     dE    -1.139660e-07     8.167481e-05                           (NR   MIcro)
  251     dE    -1.196881e-07     2.780621e-05                           (NR   MIcro)
  251     dE    -1.241601e-07     6.060289e-05                           (NR   MIcro)
  251     dE    -2.022578e-07     3.765641e-04                           (NR   MIcro)
  251     dE     4.699364e-07     4.188555e-04                           (NR   MIcro)
  251     dE     2.299472e-07     1.843199e-04                           (NR   MIcro)
  251     dE     1.090002e-07     1.372411e-04                           (NR   MIcro)
  252       -295.077852895899     1.456584e-04                     0.062 (TRAH MAcro)   No
  252     dE    -3.646623e-08     7.805257e-05    -3.6466e-08      0.000 (TRAH MIcro)
  252     dE    -7.873455e-08     1.360773e-04    -7.8734e-08      0.001 (TRAH MIcro)
  252     dE    -2.117436e-07     2.411850e-04    -2.1174e-07      0.006 (TRAH MIcro)
  252     dE    -4.303411e-07     1.892037e-04    -4.3026e-07      0.014 (TRAH MIcro)
  252     dE    -5.245414e-07     1.498335e-04    -5.2438e-07      0.017 (TRAH MIcro)
  252     dE    -5.871172e-07     1.149790e-04    -5.8688e-07      0.020 (TRAH MIcro)
  252     dE    -6.113408e-07     4.325574e-05    -6.1108e-07      0.021 (TRAH MIcro)
  252     dE    -6.244167e-07     9.274437e-05    -6.2413e-07      0.021 (TRAH MIcro)
  252     dE    -6.939894e-07     1.705140e-04    -6.9357e-07      0.025 (TRAH MIcro)
  252     dE    -7.924665e-07     1.209495e-04    -7.9173e-07      0.030 (TRAH MIcro)
  252     dE    -8.296681e-07     1.018453e-04    -8.2877e-07      0.033 (TRAH MIcro)
  252     dE    -9.077664e-07     2.026747e-04    -9.0643e-07      0.038 (TRAH MIcro)
  252     dE    -1.749682e-06     6.360811e-04    -1.7509e-04      0.062 (TRAH MIcro)
  252     dE    -2.377328e-06     3.612311e-04    -3.6978e-04      0.062 (TRAH MIcro)
  252     dE    -1.683985e-06     3.512667e-04    -6.7140e-04      0.039 (TRAH MIcro)
  252     dE    -2.478116e-06     1.646327e-04    -7.2189e-04      0.050 (TRAH MIcro)
  252     dE    -3.207155e-06     2.684087e-04    -7.5542e-04      0.057 (TRAH MIcro)
  252     dE    -4.073041e-06     5.431817e-04    -8.8237e-04      0.062 (TRAH MIcro)
  252     dE    -6.402450e-07     2.502417e-05    -1.4078e-03      0.014 (TRAH MIcro)
  252     dE    -6.485977e-07     1.360802e-05    -1.4103e-03      0.015 (TRAH MIcro)
  253       -295.077853381612     3.167022e-05                           (NR   MAcro)
  253     dE    -4.741082e-09     4.012655e-05                           (NR   MIcro)
  253     dE    -2.100307e-08     1.044335e-04                           (NR   MIcro)
  253     dE    -1.163693e-07     1.203981e-04                           (NR   MIcro)
  253     dE    -1.345994e-07     4.113416e-05                           (NR   MIcro)
  253     dE    -1.440719e-07     6.086656e-05                           (NR   MIcro)
  253     dE    -1.585887e-07     4.836409e-05                           (NR   MIcro)
  253     dE    -1.732287e-07     7.684200e-05                           (NR   MIcro)
  253     dE    -2.285969e-07     1.408705e-04                           (NR   MIcro)
  253     dE    -3.385378e-07     1.473852e-04                           (NR   MIcro)
  253     dE    -4.192483e-07     1.446859e-04                           (NR   MIcro)
  253     dE     6.488833e-07     1.425612e-03                           (NR   MIcro)
  253     dE     3.959351e-11     1.293616e-04                           (NR   MIcro)
  253     dE    -2.878604e-08     5.700308e-05                           (NR   MIcro)
  253     dE    -3.778127e-08     6.955474e-05                           (NR   MIcro)
  253     dE    -5.973452e-08     8.725196e-05                           (NR   MIcro)
  253     dE    -9.073791e-08     1.031079e-04                           (NR   MIcro)
  253     dE    -1.192526e-07     1.027540e-04                           (NR   MIcro)
  253     dE    -1.584709e-07     1.215830e-04                           (NR   MIcro)
  253     dE    -1.700821e-07     4.784578e-05                           (NR   MIcro)
  253     dE    -1.811072e-07     6.670345e-05                           (NR   MIcro)
  253     dE    -2.413753e-07     2.641645e-04                           (NR   MIcro)
  253     dE    -6.605226e-07     2.425635e-04                           (NR   MIcro)
  253     dE    -8.352720e-07     2.276010e-04                           (NR   MIcro)
  253     dE    -5.708353e-05     5.252522e-02                           (NR   MIcro)
  254       -294.639164901236     7.066165e-01                     0.062 (TRAH MAcro)   No
  254     dE    -7.692333e-02     6.823815e-03    -1.1143e+01      0.057 (TRAH MIcro)
  255       -294.716078172313     6.377938e-01                     0.074 (TRAH MAcro)   No
  255     dE    -8.725568e-02     7.088464e-03    -7.5418e+00      0.073 (TRAH MIcro)
  256       -294.803315370408     5.526717e-01                     0.089 (TRAH MAcro)   No
  256     dE    -8.935447e-02     7.474906e-03    -5.0607e+00      0.089 (TRAH MIcro)
  257       -294.892647520374     4.505179e-01                     0.107 (TRAH MAcro)   No
  257     dE    -7.760847e-02     7.656564e-03    -3.4356e+00      0.098 (TRAH MIcro)
  258       -294.970233918052     3.379515e-01                     0.128 (TRAH MAcro)   No
  258     dE    -6.788654e-02     1.073599e-02    -1.5003e+00      0.128 (TRAH MIcro)
  258     dE    -6.795165e-02     7.236981e-04    -1.4990e+00      0.128 (TRAH MIcro)
  259       -295.038147781265     1.918506e-01                     0.154 (TRAH MAcro)   No
  259     dE    -3.277666e-02     1.942536e-02    -2.9519e-01      0.154 (TRAH MIcro)
  259     dE    -3.318466e-02     4.071771e-03    -2.4073e-01      0.152 (TRAH MIcro)
  260       -295.071292666677     3.639352e-02                     0.185 (TRAH MAcro)   No
  260     dE    -3.646549e-03     9.070869e-03    -3.5465e-03      0.168 (TRAH MIcro)
  260     dE    -3.828250e-03     4.275878e-03    -3.7032e-03      0.184 (TRAH MIcro)
  260     dE    -3.920896e-03     4.977518e-03    -1.2192e-02      0.185 (TRAH MIcro)
  260     dE    -3.980680e-03     2.071423e-03    -1.5864e-02      0.185 (TRAH MIcro)
  261       -295.075199964669     4.641386e-03                     0.222 (TRAH MAcro)   No
  261     dE    -1.185868e-04     3.680537e-03    -1.1843e-04      0.036 (TRAH MIcro)
  261     dE    -2.228761e-04     4.966719e-03    -2.2102e-04      0.092 (TRAH MIcro)
  261     dE    -6.611603e-04     5.087104e-03    -5.4077e-03      0.222 (TRAH MIcro)
  261     dE    -6.982235e-04     1.152832e-03    -6.2483e-03      0.222 (TRAH MIcro)
  261     dE    -7.033718e-04     7.514117e-04    -6.3625e-03      0.222 (TRAH MIcro)
  261     dE    -7.065918e-04     8.773039e-04    -6.4604e-03      0.222 (TRAH MIcro)
  261     dE    -7.089062e-04     4.896327e-04    -6.5462e-03      0.222 (TRAH MIcro)
  261     dE    -6.000571e-04     4.480400e-04    -7.9501e-03      0.184 (TRAH MIcro)
  262       -295.075779482804     1.935364e-03                     0.266 (TRAH MAcro)   No
  262     dE    -1.556196e-04     1.007301e-02    -1.5381e-04      0.108 (TRAH MIcro)
  262     dE    -5.768998e-04     4.962893e-03    -3.1489e-03      0.266 (TRAH MIcro)
  262     dE    -6.140475e-04     1.395533e-03    -3.6947e-03      0.266 (TRAH MIcro)
  262     dE    -6.215966e-04     1.325948e-03    -3.8107e-03      0.266 (TRAH MIcro)
  262     dE    -6.307339e-04     1.384739e-03    -3.9826e-03      0.266 (TRAH MIcro)
  262     dE    -6.378503e-04     8.656216e-04    -4.1389e-03      0.266 (TRAH MIcro)
  262     dE    -6.397689e-04     6.308642e-04    -4.1839e-03      0.266 (TRAH MIcro)
  262     dE    -6.414260e-04     4.795454e-04    -4.2250e-03      0.266 (TRAH MIcro)
  262     dE    -6.417821e-04     1.613679e-04    -4.2356e-03      0.266 (TRAH MIcro)
  263       -295.076401432824     2.890910e-03                     0.319 (TRAH MAcro)   No
  263     dE    -4.866261e-05     4.849926e-03    -4.8614e-05      0.032 (TRAH MIcro)
  263     dE    -4.112827e-04     1.008297e-02    -6.4828e-04      0.319 (TRAH MIcro)
  263     dE    -5.349962e-04     1.713679e-03    -1.9280e-03      0.319 (TRAH MIcro)
  263     dE    -5.428922e-04     1.322848e-03    -2.0084e-03      0.319 (TRAH MIcro)
  263     dE    -5.554458e-04     1.877452e-03    -2.1529e-03      0.319 (TRAH MIcro)
  263     dE    -5.304812e-04     1.125296e-03    -2.6426e-03      0.293 (TRAH MIcro)
  263     dE    -5.379230e-04     5.805710e-04    -2.6552e-03      0.296 (TRAH MIcro)
  263     dE    -5.426762e-04     6.623652e-04    -2.6629e-03      0.298 (TRAH MIcro)
  263     dE    -5.478618e-04     5.175256e-04    -2.6703e-03      0.301 (TRAH MIcro)
  263     dE    -5.516164e-04     5.197972e-04    -2.6752e-03      0.302 (TRAH MIcro)
  263     dE    -5.605018e-04     8.292995e-04    -2.6851e-03      0.306 (TRAH MIcro)
  263     dE    -5.668710e-04     3.529778e-04    -2.6913e-03      0.310 (TRAH MIcro)
  263     dE    -5.680909e-04     1.463120e-04    -2.6924e-03      0.310 (TRAH MIcro)
  264       -295.076925809108     3.675402e-03                     0.383 (TRAH MAcro)   No
  264     dE    -2.455882e-05     1.853242e-03    -2.4555e-05      0.012 (TRAH MIcro)
  264     dE    -9.410230e-05     6.259005e-03    -9.3075e-05      0.105 (TRAH MIcro)
  264     dE    -3.361495e-04     4.355939e-03    -3.4233e-04      0.383 (TRAH MIcro)
  264     dE    -3.751655e-04     1.705410e-03    -6.2757e-04      0.382 (TRAH MIcro)
  264     dE    -3.865603e-04     1.468469e-03    -7.0264e-04      0.383 (TRAH MIcro)
  264     dE    -4.165899e-04     4.003368e-03    -1.0527e-03      0.374 (TRAH MIcro)
  264     dE    -4.634139e-04     1.927576e-03    -1.3745e-03      0.383 (TRAH MIcro)
  264     dE    -4.750466e-04     1.678078e-03    -1.4905e-03      0.383 (TRAH MIcro)
  264     dE    -4.850686e-04     1.291830e-03    -1.5939e-03      0.383 (TRAH MIcro)
  264     dE    -4.887063e-04     7.063643e-04    -1.6324e-03      0.383 (TRAH MIcro)
  264     dE    -4.235177e-04     8.754936e-04    -1.8998e-03      0.329 (TRAH MIcro)
  264     dE    -4.386618e-04     8.332750e-04    -1.9165e-03      0.338 (TRAH MIcro)
  264     dE    -4.448149e-04     4.029208e-04    -1.9221e-03      0.341 (TRAH MIcro)
  264     dE    -4.464547e-04     1.784805e-04    -1.9234e-03      0.342 (TRAH MIcro)
  265       -295.077274966961     4.876038e-03                     0.460 (TRAH MAcro)   No
  265     dE    -3.478829e-05     9.893913e-04    -3.4782e-05      0.014 (TRAH MIcro)
  265     dE    -4.263204e-05     1.663864e-03    -4.2607e-05      0.024 (TRAH MIcro)
  265     dE    -8.084923e-05     3.546092e-03    -8.0027e-05      0.101 (TRAH MIcro)
  265     dE    -1.480547e-04     2.187381e-03    -1.4032e-04      0.235 (TRAH MIcro)
  265     dE    -1.568112e-04     6.973093e-04    -1.4751e-04      0.251 (TRAH MIcro)
  265     dE    -1.619344e-04     1.458351e-03    -1.5161e-04      0.261 (TRAH MIcro)
  265     dE    -1.792272e-04     1.698202e-03    -1.6472e-04      0.297 (TRAH MIcro)
  265     dE    -1.900913e-04     1.261234e-03    -1.7236e-04      0.321 (TRAH MIcro)
  265     dE    -1.993839e-04     1.259497e-03    -1.7853e-04      0.342 (TRAH MIcro)
  265     dE    -2.085440e-04     1.108653e-03    -1.8427e-04      0.363 (TRAH MIcro)
  265     dE    -2.156551e-04     9.633909e-04    -1.8850e-04      0.380 (TRAH MIcro)
  265     dE    -2.296456e-04     2.107264e-03    -1.9622e-04      0.413 (TRAH MIcro)
  265     dE    -2.537371e-04     1.933107e-03    -2.3690e-04      0.460 (TRAH MIcro)
  265     dE    -2.596953e-04     5.205228e-04    -2.8049e-04      0.460 (TRAH MIcro)
  265     dE    -2.606364e-04     5.953293e-04    -2.8736e-04      0.460 (TRAH MIcro)
  265     dE    -2.627536e-04     1.024644e-03    -3.0323e-04      0.460 (TRAH MIcro)
  265     dE    -2.681987e-04     1.315260e-03    -3.4690e-04      0.460 (TRAH MIcro)
  265     dE    -2.713159e-04     6.952927e-04    -3.7346e-04      0.460 (TRAH MIcro)
  265     dE    -2.740380e-04     1.113087e-03    -3.9737e-04      0.460 (TRAH MIcro)
  265     dE    -2.716670e-04     2.412604e-04    -4.1460e-04      0.451 (TRAH MIcro)
  266       -295.077534436415     6.350542e-03                     0.552 (TRAH MAcro)   No
  266     dE    -3.555940e-05     5.001394e-04    -3.5558e-05      0.006 (TRAH MIcro)
  267       -295.077570010905     4.997636e-04                     0.662 (TRAH MAcro)   No
  267     dE    -2.212636e-06     1.038656e-03    -2.2125e-06      0.007 (TRAH MIcro)
  267     dE    -1.935361e-05     3.274508e-03    -1.9255e-05      0.071 (TRAH MIcro)
  267     dE    -7.046611e-05     2.411666e-03    -6.6162e-05      0.255 (TRAH MIcro)
  267     dE    -8.556619e-05     1.134061e-03    -7.8356e-05      0.303 (TRAH MIcro)
  267     dE    -9.104980e-05     1.033764e-03    -8.2568e-05      0.321 (TRAH MIcro)
  267     dE    -9.756082e-05     1.178234e-03    -8.7421e-05      0.341 (TRAH MIcro)
  267     dE    -1.046470e-04     1.139318e-03    -9.2508e-05      0.362 (TRAH MIcro)
  267     dE    -1.286647e-04     3.351832e-03    -1.0812e-04      0.436 (TRAH MIcro)
  267     dE    -1.978976e-04     3.324201e-03    -1.4234e-04      0.625 (TRAH MIcro)
  267     dE    -2.241659e-04     1.189674e-03    -1.7744e-04      0.662 (TRAH MIcro)
  267     dE    -2.309180e-04     1.535481e-03    -1.9590e-04      0.662 (TRAH MIcro)
  267     dE    -2.433652e-04     2.277300e-03    -2.3055e-04      0.662 (TRAH MIcro)
  267     dE    -2.565103e-04     1.143304e-03    -2.6817e-04      0.662 (TRAH MIcro)
  267     dE    -2.592021e-04     9.364180e-04    -2.7599e-04      0.662 (TRAH MIcro)
  267     dE    -2.623184e-04     9.721929e-04    -2.8506e-04      0.662 (TRAH MIcro)
  267     dE    -2.604214e-04     9.478324e-04    -2.9775e-04      0.650 (TRAH MIcro)
  267     dE    -2.685516e-04     1.175174e-03    -3.0372e-04      0.662 (TRAH MIcro)
  267     dE    -2.777926e-04     2.528891e-03    -3.3292e-04      0.662 (TRAH MIcro)
  267     dE    -2.813429e-04     4.632167e-04    -3.4452e-04      0.662 (TRAH MIcro)
  267     dE    -2.820229e-04     5.840145e-04    -3.4677e-04      0.662 (TRAH MIcro)
  267     dE    -2.846938e-04     1.359229e-03    -3.5575e-04      0.662 (TRAH MIcro)
  267     dE    -2.940152e-04     1.913576e-03    -3.8904e-04      0.662 (TRAH MIcro)
  267     dE    -2.656641e-04     4.341629e-04    -4.3329e-04      0.597 (TRAH MIcro)
 ---------------------------------
          TRAH Step control 
 ---------------------------------
  predicted energy change =    -2.656640757144e-04
  actual energy  change   =     1.766998394714e-05
  energy change ratio     = -0.066513
  old trust radius        = 0.661893
  new trust radius        = 0.443468
  reject step?            = YES
  268       -295.077552340921     4.997636e-04                     0.443 (TRAH MAcro)  Yes
  269       -295.077552340921     1.409930e-02                     0.443 (TRAH MAcro)   No
  269     dE    -1.678786e-04     7.052211e-04    -1.6785e-04      0.013 (TRAH MIcro)
  270       -295.077720397081     7.021599e-04                     0.532 (TRAH MAcro)   No
  270     dE    -9.090394e-07     3.902536e-04    -9.0903e-07      0.002 (TRAH MIcro)
  270     dE    -2.418150e-06     1.000487e-03    -2.4179e-06      0.011 (TRAH MIcro)
  270     dE    -1.023171e-05     1.443874e-03    -1.0192e-05      0.062 (TRAH MIcro)
  270     dE    -1.492101e-05     8.118777e-04    -1.4791e-05      0.094 (TRAH MIcro)
  270     dE    -1.961044e-05     1.341621e-03    -1.9305e-05      0.126 (TRAH MIcro)
  270     dE    -2.456365e-05     8.158874e-04    -2.3955e-05      0.159 (TRAH MIcro)
  270     dE    -2.775452e-05     1.035545e-03    -2.6873e-05      0.181 (TRAH MIcro)
  270     dE    -4.224866e-05     2.478344e-03    -3.9209e-05      0.278 (TRAH MIcro)
  270     dE    -6.540256e-05     1.804777e-03    -5.5741e-05      0.416 (TRAH MIcro)
  270     dE    -7.685945e-05     9.847672e-04    -6.2678e-05      0.476 (TRAH MIcro)
  270     dE    -9.052218e-05     2.422157e-03    -7.5923e-05      0.532 (TRAH MIcro)
  270     dE    -1.218370e-04     3.427540e-03    -1.9890e-04      0.532 (TRAH MIcro)
  270     dE    -1.519562e-04     2.110278e-03    -3.2074e-04      0.532 (TRAH MIcro)
  270     dE    -1.608461e-04     1.609886e-03    -3.6053e-04      0.530 (TRAH MIcro)
  270     dE    -1.452696e-04     1.724219e-03    -4.4108e-04      0.463 (TRAH MIcro)
  270     dE    -1.704037e-04     1.834695e-03    -4.6239e-04      0.504 (TRAH MIcro)
  270     dE    -2.017854e-04     3.517343e-03    -5.3170e-04      0.531 (TRAH MIcro)
  270     dE    -1.556525e-04     2.947494e-03    -8.0071e-04      0.391 (TRAH MIcro)
  270     dE    -1.954000e-04     7.167657e-04    -8.3175e-04      0.440 (TRAH MIcro)
  270     dE    -2.050463e-04     7.486935e-04    -8.3817e-04      0.451 (TRAH MIcro)
  270     dE    -2.506107e-04     3.185380e-03    -8.6458e-04      0.498 (TRAH MIcro)
  270     dE    -3.082612e-04     1.980274e-03    -9.7209e-04      0.532 (TRAH MIcro)
  270     dE    -3.141734e-04     7.418172e-04    -9.9641e-04      0.532 (TRAH MIcro)
 ---------------------------------
          TRAH Step control 
 ---------------------------------
  predicted energy change =    -3.141734074317e-04
  actual energy  change   =     1.282291003690e-04
  energy change ratio     = -0.408148
  old trust radius        = 0.532162
  new trust radius        = 0.356549
  reject step?            = YES
  271       -295.077592167980     7.021599e-04                     0.357 (TRAH MAcro)  Yes
  272       -295.077592167980     1.337767e-02                     0.357 (TRAH MAcro)   No
  272     dE    -1.525646e-04     7.608196e-04    -1.5254e-04      0.012 (TRAH MIcro)
  273       -295.077744875024     7.576304e-04                     0.428 (TRAH MAcro)   No
  273     dE    -1.286398e-06     5.116681e-04    -1.2864e-06      0.003 (TRAH MIcro)
  273     dE    -2.897855e-06     7.777041e-04    -2.8976e-06      0.009 (TRAH MIcro)
  273     dE    -4.974494e-06     6.501697e-04    -4.9725e-06      0.020 (TRAH MIcro)
  273     dE    -8.905672e-06     1.473014e-03    -8.8870e-06      0.046 (TRAH MIcro)
  273     dE    -3.106114e-05     3.135836e-03    -2.9920e-05      0.195 (TRAH MIcro)
  273     dE    -4.583384e-05     8.957809e-04    -4.2386e-05      0.285 (TRAH MIcro)
  273     dE    -4.812055e-05     5.709127e-04    -4.4187e-05      0.298 (TRAH MIcro)
  273     dE    -5.219949e-05     1.368964e-03    -4.7311e-05      0.321 (TRAH MIcro)
  273     dE    -6.660125e-05     2.132987e-03    -5.7402e-05      0.400 (TRAH MIcro)
  273     dE    -8.745343e-05     1.992852e-03    -1.5777e-04      0.428 (TRAH MIcro)
  273     dE    -1.017106e-04     1.866425e-03    -2.4964e-04      0.428 (TRAH MIcro)
  273     dE    -1.086493e-04     1.147836e-03    -2.9509e-04      0.428 (TRAH MIcro)
  273     dE    -1.122578e-04     8.519552e-04    -3.1892e-04      0.428 (TRAH MIcro)
  273     dE    -1.002846e-04     1.834859e-03    -4.0032e-04      0.368 (TRAH MIcro)
  273     dE    -1.291515e-04     1.637461e-03    -4.3377e-04      0.428 (TRAH MIcro)
  273     dE    -1.316375e-04     5.289440e-04    -4.5112e-04      0.428 (TRAH MIcro)
  273     dE    -1.327264e-04     7.921454e-04    -4.5973e-04      0.428 (TRAH MIcro)
  273     dE    -1.390532e-04     2.298876e-03    -5.0414e-04      0.428 (TRAH MIcro)
  273     dE    -1.447280e-04     7.942863e-04    -5.4571e-04      0.428 (TRAH MIcro)
  273     dE    -1.463858e-04     7.399112e-04    -5.5798e-04      0.428 (TRAH MIcro)
  273     dE    -1.479080e-04     8.011246e-04    -5.6936e-04      0.428 (TRAH MIcro)
  273     dE    -1.491844e-04     4.916688e-04    -5.7898e-04      0.428 (TRAH MIcro)
  273     dE    -1.503073e-04     8.157976e-04    -5.8749e-04      0.428 (TRAH MIcro)
  274       -295.077757643657     7.488130e-03                     0.287 (TRAH MAcro)   No
  274     dE    -4.772215e-05     4.953051e-04    -4.7720e-05      0.007 (TRAH MIcro)
  275       -295.077805380890     4.937467e-04                     0.344 (TRAH MAcro)   No
  275     dE    -5.497403e-07     3.165371e-04    -5.4974e-07      0.002 (TRAH MIcro)
  275     dE    -1.423942e-06     5.652570e-04    -1.4239e-06      0.007 (TRAH MIcro)
  275     dE    -2.435183e-06     4.718725e-04    -2.4346e-06      0.015 (TRAH MIcro)
  275     dE    -3.848762e-06     7.786504e-04    -3.8456e-06      0.029 (TRAH MIcro)
  275     dE    -8.254518e-06     1.102098e-03    -8.2102e-06      0.073 (TRAH MIcro)
  275     dE    -1.015254e-05     3.919681e-04    -1.0065e-05      0.093 (TRAH MIcro)
  275     dE    -1.057954e-05     2.935610e-04    -1.0480e-05      0.097 (TRAH MIcro)
  275     dE    -1.135313e-05     6.565768e-04    -1.1228e-05      0.106 (TRAH MIcro)
  275     dE    -1.368210e-05     9.561642e-04    -1.3445e-05      0.133 (TRAH MIcro)
  275     dE    -1.610358e-05     4.894352e-04    -1.5689e-05      0.163 (TRAH MIcro)
  275     dE    -1.705560e-05     5.116437e-04    -1.6551e-05      0.175 (TRAH MIcro)
  275     dE    -1.789910e-05     4.223159e-04    -1.7304e-05      0.185 (TRAH MIcro)
  275     dE    -1.846122e-05     3.721873e-04    -1.7800e-05      0.193 (TRAH MIcro)
  275     dE    -1.968647e-05     7.771461e-04    -1.8863e-05      0.209 (TRAH MIcro)
  275     dE    -2.366687e-05     8.610047e-04    -2.2137e-05      0.263 (TRAH MIcro)
  275     dE    -2.458136e-05     3.480489e-04    -2.2849e-05      0.275 (TRAH MIcro)
  275     dE    -2.569769e-05     9.238592e-04    -2.3699e-05      0.290 (TRAH MIcro)
  275     dE    -3.265472e-05     1.969362e-03    -5.8127e-05      0.344 (TRAH MIcro)
  275     dE    -3.648841e-05     6.926492e-04    -9.9785e-05      0.344 (TRAH MIcro)
  275     dE    -3.734174e-05     4.440864e-04    -1.0913e-04      0.344 (TRAH MIcro)
  275     dE    -3.777968e-05     4.116341e-04    -1.1394e-04      0.344 (TRAH MIcro)
  275     dE    -3.811332e-05     2.754439e-04    -1.1761e-04      0.344 (TRAH MIcro)
  275     dE    -3.841202e-05     4.139336e-04    -1.2092e-04      0.344 (TRAH MIcro)
  276       -295.077829702624     2.830702e-03                     0.344 (TRAH MAcro)   No
  276     dE    -6.907350e-06     2.656979e-04    -6.9073e-06      0.003 (TRAH MIcro)
  277       -295.077836611771     2.661635e-04                     0.413 (TRAH MAcro)   No
  277     dE    -1.705476e-07     1.773157e-04    -1.7055e-07      0.001 (TRAH MIcro)
  277     dE    -5.366932e-07     3.308368e-04    -5.3668e-07      0.005 (TRAH MIcro)
  277     dE    -8.517152e-07     2.661323e-04    -8.5165e-07      0.009 (TRAH MIcro)
  277     dE    -1.400933e-06     5.030184e-04    -1.4005e-06      0.018 (TRAH MIcro)
  277     dE    -2.722974e-06     4.878634e-04    -2.7184e-06      0.041 (TRAH MIcro)
  277     dE    -3.065786e-06     1.794265e-04    -3.0590e-06      0.047 (TRAH MIcro)
  277     dE    -3.186019e-06     2.004461e-04    -3.1783e-06      0.049 (TRAH MIcro)
  277     dE    -3.491566e-06     3.595625e-04    -3.4811e-06      0.055 (TRAH MIcro)
  277     dE    -4.076926e-06     3.935686e-04    -4.0587e-06      0.067 (TRAH MIcro)
  277     dE    -4.419625e-06     2.094197e-04    -4.3951e-06      0.075 (TRAH MIcro)
  277     dE    -4.646692e-06     2.972127e-04    -4.6172e-06      0.080 (TRAH MIcro)
  277     dE    -5.194847e-06     4.326101e-04    -5.1501e-06      0.093 (TRAH MIcro)
  277     dE    -6.023863e-06     6.511560e-04    -5.9459e-06      0.115 (TRAH MIcro)
  277     dE    -1.118404e-05     1.808901e-03    -1.0523e-05      0.251 (TRAH MIcro)
  277     dE    -2.719653e-05     1.234308e-03    -7.1301e-05      0.413 (TRAH MIcro)
  277     dE    -2.869562e-05     4.264593e-04    -8.0766e-05      0.413 (TRAH MIcro)
  277     dE    -3.059866e-05     1.609481e-03    -9.2804e-05      0.413 (TRAH MIcro)
  277     dE    -3.961212e-05     2.013362e-03    -1.5036e-04      0.413 (TRAH MIcro)
  277     dE    -4.421785e-05     8.653393e-04    -1.8008e-04      0.413 (TRAH MIcro)
  277     dE    -4.581713e-05     6.997053e-04    -1.9044e-04      0.413 (TRAH MIcro)
  277     dE    -2.790351e-05     3.729155e-04    -2.3033e-04      0.282 (TRAH MIcro)
  277     dE    -2.900335e-05     2.427017e-04    -2.3299e-04      0.288 (TRAH MIcro)
  277     dE    -3.051150e-05     5.359860e-04    -2.3644e-04      0.296 (TRAH MIcro)
  278       -295.077841845349     3.288037e-03                     0.277 (TRAH MAcro)   No
  278     dE    -9.242377e-06     2.870924e-04    -9.2423e-06      0.003 (TRAH MIcro)
  279       -295.077851091339     2.875580e-04                     0.332 (TRAH MAcro)   No
  279     dE    -1.713503e-07     1.543398e-04    -1.7135e-07      0.001 (TRAH MIcro)
  279     dE    -4.564366e-07     2.985448e-04    -4.5643e-07      0.004 (TRAH MIcro)
  279     dE    -7.280536e-07     2.417054e-04    -7.2801e-07      0.008 (TRAH MIcro)
  279     dE    -1.037871e-06     3.444635e-04    -1.0377e-06      0.013 (TRAH MIcro)
  279     dE    -1.701070e-06     3.884680e-04    -1.6999e-06      0.026 (TRAH MIcro)
  279     dE    -1.928255e-06     1.293918e-04    -1.9265e-06      0.030 (TRAH MIcro)
  279     dE    -1.977384e-06     9.513280e-05    -1.9755e-06      0.031 (TRAH MIcro)
  279     dE    -2.074357e-06     2.501817e-04    -2.0721e-06      0.033 (TRAH MIcro)
  279     dE    -2.504174e-06     4.744165e-04    -2.4992e-06      0.044 (TRAH MIcro)
  279     dE    -3.234669e-06     2.804936e-04    -3.2199e-06      0.068 (TRAH MIcro)
  279     dE    -3.550631e-06     3.621662e-04    -3.5290e-06      0.078 (TRAH MIcro)
  279     dE    -3.852593e-06     2.700168e-04    -3.8225e-06      0.089 (TRAH MIcro)
  279     dE    -4.117937e-06     3.330283e-04    -4.0788e-06      0.098 (TRAH MIcro)
  279     dE    -5.797008e-06     1.501660e-03    -5.6553e-06      0.158 (TRAH MIcro)
  279     dE    -2.257830e-05     2.065221e-03    -1.2216e-04      0.332 (TRAH MIcro)
  279     dE    -2.045239e-05     6.941494e-04    -1.7839e-04      0.270 (TRAH MIcro)
  279     dE    -2.862519e-05     1.341319e-03    -1.9932e-04      0.319 (TRAH MIcro)
  279     dE    -3.890931e-05     2.362774e-03    -2.8132e-04      0.332 (TRAH MIcro)
  279     dE    -1.878879e-05     3.676422e-04    -3.7971e-04      0.191 (TRAH MIcro)
  279     dE    -2.004468e-05     2.720760e-04    -3.8565e-04      0.198 (TRAH MIcro)
  279     dE    -2.139071e-05     3.908028e-04    -3.9159e-04      0.204 (TRAH MIcro)
  279     dE    -2.269833e-05     2.291205e-04    -3.9701e-04      0.210 (TRAH MIcro)
  279     dE    -2.432791e-05     5.416811e-04    -4.0328e-04      0.218 (TRAH MIcro)
  280       -295.077855224632     1.927712e-03                     0.222 (TRAH MAcro)   No
  280     dE    -3.232948e-06     2.471986e-04    -3.2329e-06      0.002 (TRAH MIcro)
  280     dE    -3.380153e-06     1.681074e-04    -3.3801e-06      0.002 (TRAH MIcro)
  281       -295.077858606623     1.682130e-04                     0.267 (TRAH MAcro)   No
  281     dE    -9.251257e-08     1.503165e-04    -9.2513e-08      0.001 (TRAH MIcro)
  281     dE    -3.301831e-07     2.327991e-04    -3.3018e-07      0.004 (TRAH MIcro)
  281     dE    -5.001986e-07     1.971903e-04    -5.0017e-07      0.007 (TRAH MIcro)
  281     dE    -7.840400e-07     3.913765e-04    -7.8390e-07      0.013 (TRAH MIcro)
  281     dE    -1.312731e-06     1.169829e-04    -1.3119e-06      0.026 (TRAH MIcro)
  281     dE    -1.352906e-06     1.002112e-04    -1.3520e-06      0.027 (TRAH MIcro)
  281     dE    -1.456806e-06     2.194248e-04    -1.4556e-06      0.029 (TRAH MIcro)
  281     dE    -1.613055e-06     1.419345e-04    -1.6112e-06      0.033 (TRAH MIcro)
  281     dE    -1.656049e-06     7.071843e-05    -1.6540e-06      0.035 (TRAH MIcro)
  281     dE    -1.675484e-06     6.557117e-05    -1.6734e-06      0.035 (TRAH MIcro)
  281     dE    -1.695031e-06     7.278139e-05    -1.6928e-06      0.036 (TRAH MIcro)
  281     dE    -1.720147e-06     7.499959e-05    -1.7178e-06      0.037 (TRAH MIcro)
  281     dE    -1.804189e-06     2.406442e-04    -1.8013e-06      0.040 (TRAH MIcro)
  281     dE    -2.160058e-06     3.230191e-04    -2.1524e-06      0.060 (TRAH MIcro)
  281     dE    -2.346686e-06     1.105669e-04    -2.3346e-06      0.072 (TRAH MIcro)
  281     dE    -2.387691e-06     1.084725e-04    -2.3745e-06      0.075 (TRAH MIcro)
  281     dE    -2.588410e-06     3.477546e-04    -2.5684e-06      0.088 (TRAH MIcro)
  281     dE    -4.768712e-06     1.122686e-03    -4.5067e-06      0.241 (TRAH MIcro)
  281     dE    -8.197368e-06     8.644489e-04    -5.0916e-05      0.267 (TRAH MIcro)
  281     dE    -1.222829e-05     1.136344e-03    -1.1210e-04      0.267 (TRAH MIcro)
  281     dE    -1.333277e-05     4.902458e-04    -1.2884e-04      0.267 (TRAH MIcro)
  281     dE    -1.364775e-05     5.445255e-04    -1.3999e-04      0.262 (TRAH MIcro)
  281     dE    -7.119187e-06     1.139313e-03    -2.0882e-04      0.146 (TRAH MIcro)
  282       -295.077860892116     1.437596e-03                     0.267 (TRAH MAcro)   No
  282     dE    -1.205780e-06     2.627298e-04    -1.2058e-06      0.001 (TRAH MIcro)
  282     dE    -1.309863e-06     1.446110e-04    -1.3099e-06      0.002 (TRAH MIcro)
  282     dE    -1.462077e-06     3.758378e-04    -1.4621e-06      0.004 (TRAH MIcro)
  282     dE    -1.750858e-06     3.123409e-04    -1.7507e-06      0.009 (TRAH MIcro)
  282     dE    -2.032792e-06     3.460311e-04    -2.0323e-06      0.015 (TRAH MIcro)
  282     dE    -2.307106e-06     3.601388e-04    -2.3060e-06      0.022 (TRAH MIcro)
  282     dE    -2.502869e-06     1.444914e-04    -2.5011e-06      0.026 (TRAH MIcro)
  282     dE    -2.528378e-06     5.984995e-05    -2.5265e-06      0.027 (TRAH MIcro)
  283       -295.077863842799     8.987888e-05                           (NR   MAcro)
  283     dE    -5.948717e-08     2.011278e-04                           (NR   MIcro)
  283     dE    -3.123361e-07     3.932473e-04                           (NR   MIcro)
  283     dE    -7.397706e-07     2.212881e-04                           (NR   MIcro)
  283     dE    -8.255412e-07     1.235956e-04                           (NR   MIcro)
  283     dE    -8.889751e-07     1.286529e-04                           (NR   MIcro)
  283     dE    -9.140413e-07     6.560077e-05                           (NR   MIcro)
  283     dE    -9.357915e-07     1.015596e-04                           (NR   MIcro)
  283     dE    -1.010469e-06     2.090905e-04                           (NR   MIcro)
  283     dE    -1.107201e-06     9.181730e-05                           (NR   MIcro)
  283     dE    -1.118854e-06     3.479082e-05                           (NR   MIcro)
  283     dE    -1.125734e-06     7.805363e-05                           (NR   MIcro)
  283     dE    -1.159469e-06     1.142191e-04                           (NR   MIcro)
  283     dE    -1.198688e-06     1.023818e-04                           (NR   MIcro)
  283     dE    -1.226090e-06     8.983716e-05                           (NR   MIcro)
  283     dE    -1.271081e-06     1.507641e-04                           (NR   MIcro)
  283     dE    -1.309006e-06     1.128206e-04                           (NR   MIcro)
  283     dE    -1.395641e-06     2.126885e-04                           (NR   MIcro)
  283     dE    -1.750514e-06     4.077748e-04                           (NR   MIcro)
  283     dE    -2.005186e-06     1.202429e-04                           (NR   MIcro)
  283     dE    -2.044968e-06     9.219731e-05                           (NR   MIcro)
  283     dE    -2.120108e-06     2.074304e-04                           (NR   MIcro)
  283     dE    -3.053180e-06     5.563584e-04                           (NR   MIcro)
  283     dE    -5.034937e-06     1.036988e-03                           (NR   MIcro)
  283     dE     6.269153e-05     1.592460e-02                           (NR   MIcro)
  284       -294.775208406310     5.896217e-01                     0.320 (TRAH MAcro)   No
  284     dE    -2.585447e-01     2.604135e-02    -7.2357e-01      0.318 (TRAH MIcro)
  284     dE    -2.588935e-01     3.185157e-03    -7.2512e-01      0.318 (TRAH MIcro)
  285       -295.032601122453     2.237746e-01                     0.384 (TRAH MAcro)   No
  285     dE    -4.400174e-02     1.591334e-02    -4.2161e-02      0.209 (TRAH MIcro)
  285     dE    -4.427319e-02     4.525108e-03    -4.2524e-02      0.203 (TRAH MIcro)
  286       -295.076698607264     8.723126e-03                     0.461 (TRAH MAcro)   No
  286     dE    -1.166591e-04     3.706666e-03    -1.1662e-04      0.019 (TRAH MIcro)
  286     dE    -1.649023e-04     3.520774e-03    -1.6470e-04      0.035 (TRAH MIcro)
  286     dE    -2.304662e-04     2.708133e-03    -2.2899e-04      0.080 (TRAH MIcro)
  286     dE    -2.718065e-04     3.777523e-03    -2.6792e-04      0.120 (TRAH MIcro)
  286     dE    -4.052264e-04     5.657214e-03    -3.7923e-04      0.262 (TRAH MIcro)
  286     dE    -5.204871e-04     3.108187e-03    -4.5763e-04      0.371 (TRAH MIcro)
  286     dE    -5.486425e-04     9.061350e-04    -4.7460e-04      0.395 (TRAH MIcro)
  286     dE    -5.519770e-04     5.595809e-04    -4.7656e-04      0.398 (TRAH MIcro)
  287       -295.077080108290     6.225086e-03                     0.461 (TRAH MAcro)   No
  287     dE    -4.185531e-05     1.033893e-03    -4.1851e-05      0.010 (TRAH MIcro)
  287     dE    -4.531796e-05     1.012181e-03    -4.5309e-05      0.014 (TRAH MIcro)
  287     dE    -5.795303e-05     2.302145e-03    -5.7828e-05      0.046 (TRAH MIcro)
  287     dE    -7.648151e-05     1.634978e-03    -7.5731e-05      0.100 (TRAH MIcro)
  287     dE    -8.486337e-05     7.714955e-04    -8.3577e-05      0.124 (TRAH MIcro)
  287     dE    -8.868189e-05     1.030921e-03    -8.7080e-05      0.136 (TRAH MIcro)
  287     dE    -9.662553e-05     1.442649e-03    -9.4179e-05      0.161 (TRAH MIcro)
  287     dE    -1.070101e-04     1.590831e-03    -1.0302e-04      0.197 (TRAH MIcro)
  287     dE    -1.250975e-04     2.488002e-03    -1.1713e-04      0.261 (TRAH MIcro)
  287     dE    -1.727152e-04     2.669114e-03    -1.4748e-04      0.414 (TRAH MIcro)
  287     dE    -1.937698e-04     1.389996e-03    -1.7891e-04      0.461 (TRAH MIcro)
  287     dE    -2.062587e-04     2.193091e-03    -2.4831e-04      0.461 (TRAH MIcro)
  287     dE    -2.387532e-04     3.227108e-03    -4.3819e-04      0.460 (TRAH MIcro)
  287     dE    -2.387587e-04     7.527049e-04    -5.3851e-04      0.433 (TRAH MIcro)
  287     dE    -2.441845e-04     6.804356e-04    -5.4240e-04      0.440 (TRAH MIcro)
  287     dE    -2.609464e-04     1.662571e-03    -5.6482e-04      0.461 (TRAH MIcro)
  287     dE    -2.688207e-04     1.277106e-03    -6.1415e-04      0.461 (TRAH MIcro)
  287     dE    -2.758924e-04     1.445886e-03    -6.6002e-04      0.461 (TRAH MIcro)
  287     dE    -2.822900e-04     9.043207e-04    -7.0254e-04      0.461 (TRAH MIcro)
  287     dE    -2.835640e-04     3.550189e-04    -7.1111e-04      0.461 (TRAH MIcro)
  288       -295.077259252004     7.335277e-03                     0.461 (TRAH MAcro)   No
  288     dE    -4.581581e-05     4.464449e-04    -4.5814e-05      0.007 (TRAH MIcro)
  289       -295.077305083767     4.455963e-04                     0.553 (TRAH MAcro)   No
  289     dE    -2.087517e-06     1.164306e-03    -2.0874e-06      0.008 (TRAH MIcro)
  289     dE    -1.934380e-05     3.638655e-03    -1.9206e-05      0.085 (TRAH MIcro)
  289     dE    -8.445865e-05     2.806770e-03    -7.5520e-05      0.344 (TRAH MIcro)
  289     dE    -1.024928e-04     1.243894e-03    -8.8187e-05      0.403 (TRAH MIcro)
  289     dE    -1.147231e-04     1.790995e-03    -9.6103e-05      0.440 (TRAH MIcro)
  289     dE    -1.285214e-04     1.317244e-03    -1.0443e-04      0.480 (TRAH MIcro)
  289     dE    -1.414029e-04     1.830172e-03    -1.1168e-04      0.516 (TRAH MIcro)
  289     dE    -1.769716e-04     3.146057e-03    -1.9682e-04      0.553 (TRAH MIcro)
  289     dE    -1.947696e-04     1.464665e-03    -2.6373e-04      0.553 (TRAH MIcro)
  289     dE    -1.991696e-04     6.687600e-04    -2.8060e-04      0.553 (TRAH MIcro)
  289     dE    -2.019090e-04     1.314411e-03    -2.9113e-04      0.553 (TRAH MIcro)
  289     dE    -2.159048e-04     2.679962e-03    -3.4826e-04      0.553 (TRAH MIcro)
  289     dE    -2.414565e-04     2.296157e-03    -4.6247e-04      0.553 (TRAH MIcro)
  289     dE    -2.492383e-04     1.504292e-03    -4.9838e-04      0.553 (TRAH MIcro)
  289     dE    -2.566772e-04     1.480224e-03    -5.3280e-04      0.553 (TRAH MIcro)
  289     dE    -2.588830e-04     6.724082e-04    -5.4307e-04      0.553 (TRAH MIcro)
  289     dE    -2.615239e-04     1.450622e-03    -5.5542e-04      0.553 (TRAH MIcro)
  289     dE    -2.252343e-04     2.496196e-03    -6.6095e-04      0.475 (TRAH MIcro)
  289     dE    -2.586566e-04     6.290478e-04    -6.7578e-04      0.518 (TRAH MIcro)
  289     dE    -2.659679e-04     5.898297e-04    -6.7863e-04      0.526 (TRAH MIcro)
  289     dE    -2.763170e-04     8.634591e-04    -6.8239e-04      0.539 (TRAH MIcro)
  289     dE    -2.900763e-04     7.841652e-04    -6.9136e-04      0.553 (TRAH MIcro)
  289     dE    -2.910098e-04     2.064481e-04    -6.9583e-04      0.553 (TRAH MIcro)
  290       -295.077394953125     9.769569e-03                     0.553 (TRAH MAcro)   No
  290     dE    -8.101215e-05     5.267564e-04    -8.1006e-05      0.009 (TRAH MIcro)
  291       -295.077475989664     5.208462e-04                     0.664 (TRAH MAcro)   No
  291     dE    -1.531250e-06     8.468047e-04    -1.5312e-06      0.005 (TRAH MIcro)
  291     dE    -1.112972e-05     2.810295e-03    -1.1103e-05      0.049 (TRAH MIcro)
  291     dE    -8.745328e-05     4.520706e-03    -7.7180e-05      0.365 (TRAH MIcro)
  291     dE    -1.737695e-04     3.412337e-03    -1.2710e-04      0.606 (TRAH MIcro)
  291     dE    -2.475831e-04     3.754672e-03    -2.4811e-04      0.664 (TRAH MIcro)
  291     dE    -2.676442e-04     1.443092e-03    -3.0228e-04      0.659 (TRAH MIcro)
  291     dE    -2.790921e-04     1.830511e-03    -3.2126e-04      0.664 (TRAH MIcro)
  291     dE    -3.122510e-04     3.814811e-03    -4.0507e-04      0.661 (TRAH MIcro)
  291     dE    -3.222135e-04     1.830973e-03    -4.9253e-04      0.631 (TRAH MIcro)
  291     dE    -3.465485e-04     1.234374e-03    -5.0626e-04      0.654 (TRAH MIcro)
  291     dE    -3.657857e-04     2.674251e-03    -5.3537e-04      0.664 (TRAH MIcro)
  291     dE    -3.927099e-04     2.977962e-03    -6.0800e-04      0.664 (TRAH MIcro)
  291     dE    -4.139101e-04     1.678494e-03    -6.6728e-04      0.664 (TRAH MIcro)
  291     dE    -4.212306e-04     1.617888e-03    -6.8806e-04      0.664 (TRAH MIcro)
  291     dE    -4.291295e-04     1.349907e-03    -7.1072e-04      0.664 (TRAH MIcro)
  291     dE    -3.014674e-04     1.003753e-03    -7.9258e-04      0.515 (TRAH MIcro)
  291     dE    -3.224877e-04     1.607402e-03    -8.0427e-04      0.535 (TRAH MIcro)
  291     dE    -3.774086e-04     1.883671e-03    -8.2914e-04      0.583 (TRAH MIcro)
  291     dE    -3.891305e-04     3.368397e-04    -8.3361e-04      0.593 (TRAH MIcro)
  291     dE    -3.911579e-04     3.478643e-04    -8.3436e-04      0.595 (TRAH MIcro)
  291     dE    -3.991402e-04     1.186232e-03    -8.3722e-04      0.602 (TRAH MIcro)
  291     dE    -4.222348e-04     5.477545e-04    -8.4456e-04      0.621 (TRAH MIcro)
  291     dE    -4.270629e-04     3.508275e-04    -8.4594e-04      0.625 (TRAH MIcro)
 ---------------------------------
          TRAH Step control 
 ---------------------------------
  predicted energy change =    -4.270628725165e-04
  actual energy  change   =     6.953463162063e-05
  energy change ratio     = -0.162821
  old trust radius        = 0.663981
  new trust radius        = 0.444867
  reject step?            = YES
  292       -295.077406455032     5.208462e-04                     0.445 (TRAH MAcro)  Yes
  293       -295.077406455032     1.547305e-02                     0.445 (TRAH MAcro)   No
  293     dE    -2.043887e-04     1.006549e-03    -2.0434e-04      0.015 (TRAH MIcro)
  294       -295.077611010791     1.007460e-03                     0.534 (TRAH MAcro)   No
  294     dE    -1.728077e-06     4.645987e-04    -1.7281e-06      0.003 (TRAH MIcro)
  294     dE    -4.313523e-06     1.190680e-03    -4.3129e-06      0.012 (TRAH MIcro)
  294     dE    -1.460691e-05     1.535809e-03    -1.4553e-05      0.061 (TRAH MIcro)
  294     dE    -2.278418e-05     1.425533e-03    -2.2555e-05      0.101 (TRAH MIcro)
  294     dE    -3.596904e-05     2.074451e-03    -3.5004e-05      0.166 (TRAH MIcro)
  294     dE    -4.415524e-05     8.624402e-04    -4.2367e-05      0.205 (TRAH MIcro)
  294     dE    -4.593466e-05     5.513874e-04    -4.3924e-05      0.214 (TRAH MIcro)
  294     dE    -5.030501e-05     1.566370e-03    -4.7670e-05      0.235 (TRAH MIcro)
  294     dE    -7.270640e-05     3.097348e-03    -6.4876e-05      0.347 (TRAH MIcro)
  294     dE    -1.192710e-04     1.873172e-03    -1.0501e-04      0.534 (TRAH MIcro)
  294     dE    -1.261696e-04     9.843319e-04    -1.3320e-04      0.534 (TRAH MIcro)
  294     dE    -1.309863e-04     1.262351e-03    -1.5303e-04      0.534 (TRAH MIcro)
  294     dE    -1.372709e-04     1.073825e-03    -1.7908e-04      0.534 (TRAH MIcro)
  294     dE    -1.423127e-04     1.393694e-03    -2.0027e-04      0.534 (TRAH MIcro)
  294     dE    -1.575083e-04     2.374646e-03    -2.6618e-04      0.534 (TRAH MIcro)
  294     dE    -1.558567e-04     6.843778e-04    -3.0133e-04      0.511 (TRAH MIcro)
  294     dE    -1.583403e-04     3.882134e-04    -3.0299e-04      0.516 (TRAH MIcro)
  294     dE    -1.622842e-04     1.426527e-03    -3.0553e-04      0.524 (TRAH MIcro)
  294     dE    -1.765107e-04     2.071151e-03    -3.5585e-04      0.534 (TRAH MIcro)
  294     dE    -1.378730e-04     1.461826e-03    -4.8953e-04      0.408 (TRAH MIcro)
  294     dE    -1.664528e-04     1.357573e-03    -5.0454e-04      0.464 (TRAH MIcro)
  294     dE    -2.088825e-04     1.282099e-03    -5.2431e-04      0.534 (TRAH MIcro)
  294     dE    -2.127011e-04     8.687826e-04    -5.4338e-04      0.534 (TRAH MIcro)
 ---------------------------------
          TRAH Step control 
 ---------------------------------
  predicted energy change =    -2.127011392266e-04
  actual energy  change   =     2.615951927964e-06
  energy change ratio     = -0.012299
  old trust radius        = 0.533841
  new trust radius        = 0.357673
  reject step?            = YES
  295       -295.077608394839     1.007460e-03                     0.358 (TRAH MAcro)  Yes
  296       -295.077608394839     1.017619e-02                     0.358 (TRAH MAcro)   No
  296     dE    -8.814283e-05     6.555188e-04    -8.8135e-05      0.009 (TRAH MIcro)
  297       -295.077696582145     6.523949e-04                     0.429 (TRAH MAcro)   No
  297     dE    -1.256743e-06     5.536045e-04    -1.2567e-06      0.003 (TRAH MIcro)
  297     dE    -3.265632e-06     8.156821e-04    -3.2652e-06      0.011 (TRAH MIcro)
  297     dE    -4.948101e-06     5.261475e-04    -4.9461e-06      0.020 (TRAH MIcro)
  297     dE    -6.698088e-06     8.036053e-04    -6.6913e-06      0.032 (TRAH MIcro)
  297     dE    -9.681055e-06     6.925235e-04    -9.6536e-06      0.053 (TRAH MIcro)
  297     dE    -1.080480e-05     5.064724e-04    -1.0764e-05      0.062 (TRAH MIcro)
  297     dE    -1.487758e-05     1.740261e-03    -1.4743e-05      0.095 (TRAH MIcro)
  297     dE    -7.045974e-05     3.256306e-03    -1.1991e-04      0.429 (TRAH MIcro)
  297     dE    -8.253616e-05     1.027843e-03    -1.8916e-04      0.429 (TRAH MIcro)
  297     dE    -8.489932e-05     6.118417e-04    -2.0273e-04      0.429 (TRAH MIcro)
  297     dE    -8.689851e-05     7.360693e-04    -2.1425e-04      0.429 (TRAH MIcro)
  297     dE    -8.837771e-05     6.240978e-04    -2.2289e-04      0.429 (TRAH MIcro)
  297     dE    -9.099371e-05     1.218931e-03    -2.3847e-04      0.429 (TRAH MIcro)
  297     dE    -9.826560e-05     1.791945e-03    -2.8390e-04      0.429 (TRAH MIcro)
  297     dE    -9.107863e-05     7.466612e-04    -3.5003e-04      0.381 (TRAH MIcro)
  297     dE    -9.298439e-05     3.780398e-04    -3.5241e-04      0.386 (TRAH MIcro)
  297     dE    -9.590985e-05     8.563595e-04    -3.5589e-04      0.393 (TRAH MIcro)
  297     dE    -1.114864e-04     1.504568e-03    -3.7447e-04      0.429 (TRAH MIcro)
  297     dE    -1.132056e-04     4.080310e-04    -3.8709e-04      0.429 (TRAH MIcro)
  297     dE    -1.138486e-04     5.796787e-04    -3.9188e-04      0.429 (TRAH MIcro)
  297     dE    -1.143258e-04     2.219165e-04    -3.9548e-04      0.429 (TRAH MIcro)
  297     dE    -1.144479e-04     1.506553e-04    -3.9639e-04      0.429 (TRAH MIcro)
  297     dE    -1.146152e-04     3.232228e-04    -3.9765e-04      0.429 (TRAH MIcro)
  298       -295.077719197886     7.344856e-03                     0.288 (TRAH MAcro)   No
  298     dE    -4.545675e-05     3.712522e-04    -4.5455e-05      0.006 (TRAH MIcro)
  299       -295.077764668660     3.668611e-04                     0.345 (TRAH MAcro)   No
  299     dE    -2.541233e-07     2.060807e-04    -2.5412e-07      0.001 (TRAH MIcro)
  299     dE    -6.975575e-07     5.600551e-04    -6.9753e-07      0.006 (TRAH MIcro)
  299     dE    -3.929701e-06     1.040651e-03    -3.9217e-06      0.045 (TRAH MIcro)
  299     dE    -7.110260e-06     7.684519e-04    -7.0599e-06      0.084 (TRAH MIcro)
  299     dE    -1.086052e-05     1.175901e-03    -1.0678e-05      0.131 (TRAH MIcro)
  299     dE    -1.397382e-05     5.807614e-04    -1.3589e-05      0.168 (TRAH MIcro)
  299     dE    -1.498457e-05     4.247381e-04    -1.4513e-05      0.180 (TRAH MIcro)
  299     dE    -1.690991e-05     9.580195e-04    -1.6240e-05      0.203 (TRAH MIcro)
  299     dE    -2.160160e-05     1.134940e-03    -2.0249e-05      0.258 (TRAH MIcro)
  299     dE    -2.623219e-05     6.785587e-04    -2.3920e-05      0.311 (TRAH MIcro)
  299     dE    -2.859261e-05     9.203966e-04    -2.5682e-05      0.337 (TRAH MIcro)
  299     dE    -3.370866e-05     1.549429e-03    -6.6757e-05      0.345 (TRAH MIcro)
  299     dE    -4.402735e-05     1.460585e-03    -1.6656e-04      0.345 (TRAH MIcro)
  299     dE    -4.734984e-05     9.964216e-04    -2.0376e-04      0.343 (TRAH MIcro)
  299     dE    -5.096427e-05     9.485753e-04    -2.3567e-04      0.345 (TRAH MIcro)
  299     dE    -5.240743e-05     5.634049e-04    -2.5024e-04      0.345 (TRAH MIcro)
  299     dE    -5.331536e-05     7.368352e-04    -2.6325e-04      0.343 (TRAH MIcro)
  299     dE    -5.814876e-05     1.828056e-03    -3.0932e-04      0.345 (TRAH MIcro)
  299     dE    -4.200502e-05     2.501648e-04    -3.8725e-04      0.259 (TRAH MIcro)
  299     dE    -4.239349e-05     1.409890e-04    -3.8820e-04      0.260 (TRAH MIcro)
  299     dE    -4.282066e-05     3.499092e-04    -3.8923e-04      0.262 (TRAH MIcro)
  299     dE    -4.597634e-05     4.939753e-04    -3.9612e-04      0.273 (TRAH MIcro)
  299     dE    -4.941274e-05     4.238433e-04    -4.0253e-04      0.285 (TRAH MIcro)
  300       -295.077787831421     2.366009e-03                     0.345 (TRAH MAcro)   No
  300     dE    -5.127943e-06     2.900978e-04    -5.1279e-06      0.002 (TRAH MIcro)
  300     dE    -5.522696e-06     3.422724e-04    -5.5226e-06      0.004 (TRAH MIcro)
  300     dE    -6.090166e-06     2.703253e-04    -6.0898e-06      0.007 (TRAH MIcro)
  300     dE    -6.481277e-06     4.186215e-04    -6.4804e-06      0.011 (TRAH MIcro)
  300     dE    -8.270741e-06     1.021833e-03    -8.2610e-06      0.034 (TRAH MIcro)
  300     dE    -1.360629e-05     7.069405e-04    -1.3457e-05      0.105 (TRAH MIcro)
  300     dE    -1.455111e-05     2.932472e-04    -1.4352e-05      0.118 (TRAH MIcro)
  300     dE    -1.503945e-05     3.969811e-04    -1.4811e-05      0.124 (TRAH MIcro)
  300     dE    -1.650386e-05     6.688990e-04    -1.6170e-05      0.144 (TRAH MIcro)
  300     dE    -1.797139e-05     4.594319e-04    -1.7501e-05      0.164 (TRAH MIcro)
  300     dE    -1.880766e-05     3.976585e-04    -1.8246e-05      0.176 (TRAH MIcro)
  300     dE    -2.028352e-05     6.420311e-04    -1.9531e-05      0.196 (TRAH MIcro)
  300     dE    -2.192323e-05     6.470297e-04    -2.0916e-05      0.219 (TRAH MIcro)
  300     dE    -2.811385e-05     2.050137e-03    -2.5714e-05      0.306 (TRAH MIcro)
  300     dE    -4.967709e-05     1.995913e-03    -2.1341e-04      0.343 (TRAH MIcro)
  300     dE    -5.539955e-05     6.017219e-04    -2.6660e-04      0.345 (TRAH MIcro)
  300     dE    -5.585087e-05     3.089055e-04    -2.7101e-04      0.345 (TRAH MIcro)
  300     dE    -5.663802e-05     7.986020e-04    -2.7875e-04      0.345 (TRAH MIcro)
  300     dE    -5.963182e-05     1.412990e-03    -3.0865e-04      0.345 (TRAH MIcro)
  300     dE    -3.569554e-05     3.702416e-04    -4.0676e-04      0.215 (TRAH MIcro)
  300     dE    -3.816520e-05     6.739019e-04    -4.1278e-04      0.226 (TRAH MIcro)
  300     dE    -4.104526e-05     1.741086e-04    -4.1899e-04      0.237 (TRAH MIcro)
  301       -295.077810475196     2.290414e-03                     0.345 (TRAH MAcro)   No
  301     dE    -4.545016e-06     1.906205e-04    -4.5450e-06      0.002 (TRAH MIcro)
  302       -295.077815021201     1.911500e-04                     0.414 (TRAH MAcro)   No
  302     dE    -1.770610e-07     2.547036e-04    -1.7706e-07      0.001 (TRAH MIcro)
  302     dE    -1.683658e-06     9.879602e-04    -1.6830e-06      0.019 (TRAH MIcro)
  302     dE    -4.190759e-06     4.723169e-04    -4.1801e-06      0.051 (TRAH MIcro)
  302     dE    -4.865874e-06     3.738488e-04    -4.8489e-06      0.059 (TRAH MIcro)
  302     dE    -5.866312e-06     5.231761e-04    -5.8360e-06      0.072 (TRAH MIcro)
  302     dE    -6.555927e-06     3.426242e-04    -6.5129e-06      0.081 (TRAH MIcro)
  302     dE    -7.482389e-06     6.875382e-04    -7.4168e-06      0.094 (TRAH MIcro)
  302     dE    -1.053232e-05     7.805151e-04    -1.0333e-05      0.139 (TRAH MIcro)
  302     dE    -1.190276e-05     3.724044e-04    -1.1608e-05      0.159 (TRAH MIcro)
  302     dE    -1.257668e-05     4.680107e-04    -1.2226e-05      0.169 (TRAH MIcro)
  302     dE    -1.461950e-05     9.610029e-04    -1.4056e-05      0.200 (TRAH MIcro)
  302     dE    -1.909001e-05     1.057855e-03    -1.7816e-05      0.267 (TRAH MIcro)
  302     dE    -2.161217e-05     5.172836e-04    -1.9786e-05      0.304 (TRAH MIcro)
  302     dE    -2.293729e-05     6.365353e-04    -2.0777e-05      0.322 (TRAH MIcro)
  302     dE    -2.604513e-05     8.712840e-04    -2.2986e-05      0.365 (TRAH MIcro)
  302     dE    -2.903791e-05     1.053030e-03    -2.4968e-05      0.404 (TRAH MIcro)
  302     dE    -4.048518e-05     3.200490e-03    -9.7626e-05      0.414 (TRAH MIcro)
  302     dE    -4.787739e-05     7.110075e-04    -1.4883e-04      0.414 (TRAH MIcro)
  302     dE    -4.137763e-05     2.119332e-04    -1.7037e-04      0.358 (TRAH MIcro)
  302     dE    -4.186049e-05     3.625245e-04    -1.7109e-04      0.360 (TRAH MIcro)
  302     dE    -4.472820e-05     7.407542e-04    -1.7510e-04      0.375 (TRAH MIcro)
  302     dE    -5.232033e-05     1.098536e-03    -1.8413e-04      0.411 (TRAH MIcro)
  302     dE    -5.487130e-05     5.464959e-04    -1.9954e-04      0.414 (TRAH MIcro)
  303       -295.077816993824     5.714156e-03                     0.277 (TRAH MAcro)   No
  303     dE    -2.820455e-05     3.695083e-04    -2.8204e-05      0.005 (TRAH MIcro)
  304       -295.077845209661     3.679983e-04                     0.333 (TRAH MAcro)   No
  304     dE    -4.970491e-07     3.538194e-04    -4.9705e-07      0.002 (TRAH MIcro)
  304     dE    -9.461572e-07     2.883647e-04    -9.4614e-07      0.005 (TRAH MIcro)
  304     dE    -1.184117e-06     2.299887e-04    -1.1841e-06      0.007 (TRAH MIcro)
  304     dE    -1.776265e-06     5.489237e-04    -1.7759e-06      0.015 (TRAH MIcro)
  304     dE    -4.215984e-06     7.227946e-04    -4.2044e-06      0.052 (TRAH MIcro)
  304     dE    -5.146389e-06     2.787737e-04    -5.1234e-06      0.067 (TRAH MIcro)
  304     dE    -5.474675e-06     2.968601e-04    -5.4463e-06      0.072 (TRAH MIcro)
  304     dE    -6.496850e-06     6.307762e-04    -6.4459e-06      0.089 (TRAH MIcro)
  304     dE    -7.610140e-06     4.437370e-04    -7.5225e-06      0.108 (TRAH MIcro)
  304     dE    -8.082429e-06     2.413046e-04    -7.9748e-06      0.116 (TRAH MIcro)
  304     dE    -8.419475e-06     3.268848e-04    -8.2957e-06      0.122 (TRAH MIcro)
  304     dE    -8.741745e-06     2.620207e-04    -8.6008e-06      0.128 (TRAH MIcro)
  304     dE    -9.131418e-06     4.164157e-04    -8.9674e-06      0.135 (TRAH MIcro)
  304     dE    -1.078537e-05     9.492327e-04    -1.0489e-05      0.168 (TRAH MIcro)
  304     dE    -1.487826e-05     7.678888e-04    -1.3988e-05      0.252 (TRAH MIcro)
  304     dE    -1.561870e-05     2.882464e-04    -1.4578e-05      0.267 (TRAH MIcro)
  304     dE    -1.586791e-05     2.633328e-04    -1.4774e-05      0.272 (TRAH MIcro)
  304     dE    -1.686257e-05     1.234332e-03    -1.5539e-05      0.292 (TRAH MIcro)
  304     dE    -2.023509e-05     6.878415e-04    -3.1097e-05      0.333 (TRAH MIcro)
  304     dE    -2.163609e-05     7.564912e-04    -4.6710e-05      0.333 (TRAH MIcro)
  304     dE    -2.330527e-05     6.858410e-04    -6.5554e-05      0.333 (TRAH MIcro)
  304     dE    -2.377085e-05     2.055830e-04    -7.0844e-05      0.333 (TRAH MIcro)
  304     dE    -2.391906e-05     2.798368e-04    -7.2533e-05      0.333 (TRAH MIcro)
  305       -295.077853909356     3.261236e-03                     0.333 (TRAH MAcro)   No
  305     dE    -9.046536e-06     2.092113e-04    -9.0465e-06      0.003 (TRAH MIcro)
  306       -295.077862959119     2.092631e-04                     0.400 (TRAH MAcro)   No
  306     dE    -1.383666e-07     1.923492e-04    -1.3837e-07      0.001 (TRAH MIcro)
  306     dE    -6.705171e-07     5.738713e-04    -6.7047e-07      0.008 (TRAH MIcro)
  306     dE    -1.745832e-06     3.510932e-04    -1.7448e-06      0.024 (TRAH MIcro)
  306     dE    -2.119154e-06     2.795844e-04    -2.1173e-06      0.030 (TRAH MIcro)
  306     dE    -2.569589e-06     3.253428e-04    -2.5661e-06      0.037 (TRAH MIcro)
  306     dE    -2.774323e-06     1.573883e-04    -2.7698e-06      0.040 (TRAH MIcro)
  306     dE    -2.979097e-06     3.420729e-04    -2.9734e-06      0.044 (TRAH MIcro)
  306     dE    -4.345610e-06     6.575070e-04    -4.3234e-06      0.072 (TRAH MIcro)
  306     dE    -5.400783e-06     3.867371e-04    -5.3524e-06      0.095 (TRAH MIcro)
  306     dE    -5.849071e-06     3.084737e-04    -5.7850e-06      0.105 (TRAH MIcro)
  306     dE    -6.790567e-06     7.150885e-04    -6.6828e-06      0.127 (TRAH MIcro)
  306     dE    -9.404620e-06     1.086966e-03    -9.0836e-06      0.188 (TRAH MIcro)
  306     dE    -1.383863e-05     1.047594e-03    -1.2792e-05      0.286 (TRAH MIcro)
  306     dE    -1.869117e-05     1.582403e-03    -1.6318e-05      0.381 (TRAH MIcro)
  306     dE    -2.372413e-05     1.054296e-03    -4.4179e-05      0.400 (TRAH MIcro)
  306     dE    -2.719851e-05     1.621435e-03    -6.7716e-05      0.400 (TRAH MIcro)
  306     dE    -4.420576e-05     3.142504e-03    -1.8436e-04      0.400 (TRAH MIcro)
  306     dE    -6.583645e-05     1.896892e-03    -3.3409e-04      0.400 (TRAH MIcro)
  306     dE    -6.856658e-05     4.300355e-04    -3.5295e-04      0.400 (TRAH MIcro)
  306     dE    -6.899020e-05     3.341079e-04    -3.5588e-04      0.400 (TRAH MIcro)
  306     dE    -6.964210e-05     6.958299e-04    -3.6039e-04      0.400 (TRAH MIcro)
  306     dE    -7.149473e-05     8.935591e-04    -3.7329e-04      0.400 (TRAH MIcro)
  306     dE    -7.312127e-05     5.411770e-04    -3.8473e-04      0.400 (TRAH MIcro)
 ---------------------------------
          TRAH Step control 
 ---------------------------------
  predicted energy change =    -7.312126767910e-05
  actual energy  change   =     4.073846264419e-05
  energy change ratio     = -0.557136
  old trust radius        = 0.399523
  new trust radius        = 0.267681
  reject step?            = YES
  307       -295.077822220656     2.092631e-04                     0.268 (TRAH MAcro)  Yes
  308       -295.077822220656     8.011910e-03                     0.268 (TRAH MAcro)   No
  308     dE    -5.434020e-05     4.802740e-04    -5.4337e-05      0.007 (TRAH MIcro)
  309       -295.077876579135     4.789000e-04                     0.321 (TRAH MAcro)   No
  309     dE    -4.700126e-07     2.907930e-04    -4.7001e-07      0.001 (TRAH MIcro)
  309     dE    -7.784578e-07     2.795193e-04    -7.7845e-07      0.003 (TRAH MIcro)
  309     dE    -9.231951e-07     1.190110e-04    -9.2318e-07      0.004 (TRAH MIcro)
  309     dE    -1.041275e-06     2.418286e-04    -1.0412e-06      0.006 (TRAH MIcro)
  309     dE    -2.034838e-06     7.700056e-04    -2.0332e-06      0.029 (TRAH MIcro)
  309     dE    -3.261938e-06     3.301313e-04    -3.2513e-06      0.057 (TRAH MIcro)
  309     dE    -3.555610e-06     2.305761e-04    -3.5410e-06      0.064 (TRAH MIcro)
  309     dE    -4.221429e-06     5.429830e-04    -4.1945e-06      0.080 (TRAH MIcro)
  309     dE    -5.267049e-06     4.898225e-04    -5.2087e-06      0.106 (TRAH MIcro)
  309     dE    -6.200551e-06     4.388294e-04    -6.0990e-06      0.129 (TRAH MIcro)
  309     dE    -7.255366e-06     5.127540e-04    -7.0848e-06      0.155 (TRAH MIcro)
  309     dE    -7.826632e-06     3.113872e-04    -7.6087e-06      0.169 (TRAH MIcro)
  309     dE    -8.365157e-06     4.993627e-04    -8.0955e-06      0.183 (TRAH MIcro)
  309     dE    -1.214905e-05     1.986735e-03    -1.1305e-05      0.273 (TRAH MIcro)
  309     dE    -2.458332e-05     1.584630e-03    -2.2323e-04      0.262 (TRAH MIcro)
  309     dE    -3.010498e-05     3.841954e-04    -2.3850e-04      0.291 (TRAH MIcro)
  309     dE    -3.155787e-05     4.318368e-04    -2.4207e-04      0.298 (TRAH MIcro)
  309     dE    -3.599090e-05     1.150908e-03    -2.5201e-04      0.318 (TRAH MIcro)
  309     dE    -3.906086e-05     7.448825e-04    -2.7926e-04      0.321 (TRAH MIcro)
  309     dE    -4.090985e-05     9.345194e-04    -2.9966e-04      0.321 (TRAH MIcro)
  309     dE    -4.321641e-05     8.322959e-04    -3.2532e-04      0.321 (TRAH MIcro)
  309     dE    -4.401401e-05     2.347160e-04    -3.3422e-04      0.321 (TRAH MIcro)
  309     dE    -4.413456e-05     1.610370e-04    -3.3557e-04      0.321 (TRAH MIcro)
 ---------------------------------
          TRAH Step control 
 ---------------------------------
  predicted energy change =    -4.413455574500e-05
  actual energy  change   =     5.779018977137e-06
  energy change ratio     = -0.130941
  old trust radius        = 0.321217
  new trust radius        = 0.215215
  reject step?            = YES
  310       -295.077870800116     4.789000e-04                     0.215 (TRAH MAcro)  Yes
  311       -295.077870800116     4.127911e-03                     0.215 (TRAH MAcro)   No
  311     dE    -1.446165e-05     2.103278e-04    -1.4461e-05      0.004 (TRAH MIcro)
  312       -295.077885263171     2.090554e-04                     0.215 (TRAH MAcro)   No
  312     dE    -1.093713e-07     1.615283e-04    -1.0937e-07      0.001 (TRAH MIcro)
  312     dE    -3.613900e-07     3.837541e-04    -3.6138e-07      0.005 (TRAH MIcro)
  312     dE    -1.018371e-06     2.971707e-04    -1.0181e-06      0.017 (TRAH MIcro)
  312     dE    -1.206865e-06     1.627279e-04    -1.2064e-06      0.020 (TRAH MIcro)
  312     dE    -1.389226e-06     2.667387e-04    -1.3884e-06      0.024 (TRAH MIcro)
  312     dE    -1.645375e-06     2.129473e-04    -1.6440e-06      0.029 (TRAH MIcro)
  312     dE    -1.863283e-06     2.695334e-04    -1.8611e-06      0.034 (TRAH MIcro)
  312     dE    -2.494886e-06     4.790912e-04    -2.4886e-06      0.050 (TRAH MIcro)
  312     dE    -2.992151e-06     2.410917e-04    -2.9801e-06      0.064 (TRAH MIcro)
  312     dE    -3.138979e-06     1.379151e-04    -3.1247e-06      0.068 (TRAH MIcro)
  312     dE    -3.408980e-06     4.557927e-04    -3.3898e-06      0.075 (TRAH MIcro)
  312     dE    -4.406459e-06     6.663895e-04    -4.3583e-06      0.105 (TRAH MIcro)
  312     dE    -5.720115e-06     4.443419e-04    -5.6002e-06      0.146 (TRAH MIcro)
  312     dE    -6.215586e-06     4.750740e-04    -6.0569e-06      0.162 (TRAH MIcro)
  312     dE    -7.000472e-06     4.815014e-04    -6.7654e-06      0.186 (TRAH MIcro)
  312     dE    -8.009984e-06     7.313183e-04    -9.4376e-06      0.215 (TRAH MIcro)
  312     dE    -1.038492e-05     1.035981e-03    -6.8207e-05      0.215 (TRAH MIcro)
  312     dE    -1.708045e-05     1.878035e-03    -2.3720e-04      0.215 (TRAH MIcro)
  312     dE    -1.207086e-05     2.195403e-04    -3.3747e-04      0.151 (TRAH MIcro)
  312     dE    -1.230632e-05     1.035342e-04    -3.3916e-04      0.153 (TRAH MIcro)
  312     dE    -1.244439e-05     1.754624e-04    -3.4013e-04      0.154 (TRAH MIcro)
  312     dE    -1.371837e-05     2.925640e-04    -3.4827e-04      0.163 (TRAH MIcro)
  312     dE    -1.475975e-05     2.165162e-04    -3.5406e-04      0.170 (TRAH MIcro)
  313       -295.077888642522     1.501306e-03                     0.144 (TRAH MAcro)   No
  313     dE    -2.009188e-06     1.548340e-04    -2.0092e-06      0.001 (TRAH MIcro)
  313     dE    -2.103411e-06     1.577019e-04    -2.1034e-06      0.002 (TRAH MIcro)
  313     dE    -2.220915e-06     1.204861e-04    -2.2209e-06      0.003 (TRAH MIcro)
  314       -295.077890866202     1.215653e-04                     0.173 (TRAH MAcro)   No
  314     dE    -3.858283e-08     9.871580e-05    -3.8583e-08      0.001 (TRAH MIcro)
  314     dE    -1.246248e-07     2.234424e-04    -1.2462e-07      0.003 (TRAH MIcro)
  314     dE    -4.019258e-07     2.455189e-04    -4.0188e-07      0.011 (TRAH MIcro)
  314     dE    -7.729125e-07     3.600343e-04    -7.7253e-07      0.022 (TRAH MIcro)
  314     dE    -1.539074e-06     4.374366e-04    -1.5357e-06      0.047 (TRAH MIcro)
  314     dE    -1.875614e-06     1.729621e-04    -1.8694e-06      0.058 (TRAH MIcro)
  314     dE    -1.945126e-06     1.050123e-04    -1.9382e-06      0.060 (TRAH MIcro)
  314     dE    -2.048483e-06     2.408708e-04    -2.0404e-06      0.063 (TRAH MIcro)
  314     dE    -2.653105e-06     4.612118e-04    -2.6343e-06      0.084 (TRAH MIcro)
  314     dE    -3.234852e-06     3.212485e-04    -3.1987e-06      0.106 (TRAH MIcro)
  314     dE    -3.781752e-06     5.093606e-04    -3.7215e-06      0.127 (TRAH MIcro)
  314     dE    -5.797356e-06     8.279700e-04    -3.6080e-05      0.173 (TRAH MIcro)
  314     dE    -7.945869e-06     6.715746e-04    -1.1746e-04      0.173 (TRAH MIcro)
  314     dE    -7.164126e-06     6.640181e-04    -2.4427e-04      0.128 (TRAH MIcro)
  314     dE    -1.068840e-05     4.468366e-04    -2.7901e-04      0.159 (TRAH MIcro)
  314     dE    -1.117563e-05     1.249103e-04    -2.8290e-04      0.163 (TRAH MIcro)
  314     dE    -1.130493e-05     1.184314e-04    -2.8390e-04      0.164 (TRAH MIcro)
  314     dE    -1.176762e-05     4.687842e-04    -2.8737e-04      0.167 (TRAH MIcro)
  314     dE    -1.296156e-05     4.012301e-04    -3.0949e-04      0.173 (TRAH MIcro)
  314     dE    -1.317699e-05     2.221343e-04    -3.1822e-04      0.173 (TRAH MIcro)
  314     dE    -1.328062e-05     1.937714e-04    -3.2248e-04      0.173 (TRAH MIcro)
  314     dE    -1.335210e-05     6.822550e-05    -3.2542e-04      0.173 (TRAH MIcro)
  314     dE    -1.336645e-05     6.226349e-05    -3.2602e-04      0.173 (TRAH MIcro)
  315       -295.077894959767     1.216315e-03                     0.173 (TRAH MAcro)   No
  315     dE    -1.260509e-06     7.964262e-05    -1.2605e-06      0.001 (TRAH MIcro)
  316       -295.077896220623     8.005197e-05                           (NR   MAcro)
  316     dE    -3.037144e-08     1.131407e-04                           (NR   MIcro)
  316     dE    -2.013732e-07     3.680367e-04                           (NR   MIcro)
  316     dE    -8.232698e-07     2.896520e-04                           (NR   MIcro)
  316     dE    -1.080832e-06     2.300284e-04                           (NR   MIcro)
  316     dE    -1.356780e-06     2.453957e-04                           (NR   MIcro)
  316     dE    -1.455708e-06     1.026657e-04                           (NR   MIcro)
  316     dE    -1.502002e-06     1.299037e-04                           (NR   MIcro)
  316     dE    -2.083665e-06     6.685261e-04                           (NR   MIcro)
  316     dE    -4.993116e-06     1.079853e-03                           (NR   MIcro)
  316     dE    -1.006950e-05     1.111197e-03                           (NR   MIcro)
  316     dE    -1.727727e-05     2.070470e-03                           (NR   MIcro)
  316     dE     2.374591e-05     5.081561e-03                           (NR   MIcro)
  316     dE     4.336639e-06     9.483158e-04                           (NR   MIcro)
  316     dE     2.741590e-06     6.119605e-04                           (NR   MIcro)
  316     dE     1.476290e-06     5.770776e-04                           (NR   MIcro)
  316     dE     1.194221e-06     3.253906e-04                           (NR   MIcro)
  316     dE     7.657936e-07     4.149508e-04                           (NR   MIcro)
  316     dE     1.818941e-07     4.637770e-04                           (NR   MIcro)
  316     dE     1.310683e-09     1.137473e-04                           (NR   MIcro)
  316     dE    -3.720190e-08     9.484605e-05                           (NR   MIcro)
  316     dE    -1.273292e-07     2.618074e-04                           (NR   MIcro)
  316     dE    -4.228228e-07     2.554979e-04                           (NR   MIcro)
  316     dE    -7.004419e-07     3.307957e-04                           (NR   MIcro)
  316     dE    -1.534877e-06     4.028006e-04                           (NR   MIcro)
  317       -295.077896742687     5.190157e-04                     0.208 (TRAH MAcro)   No
  317     dE    -3.276316e-07     1.668330e-04    -3.2763e-07      0.001 (TRAH MIcro)
  317     dE    -4.776484e-07     2.387506e-04    -4.7765e-07      0.002 (TRAH MIcro)
  317     dE    -1.041192e-06     5.019970e-04    -1.0411e-06      0.011 (TRAH MIcro)
  317     dE    -1.697158e-06     3.461909e-04    -1.6964e-06      0.022 (TRAH MIcro)
  317     dE    -1.930547e-06     1.544910e-04    -1.9293e-06      0.026 (TRAH MIcro)
  317     dE    -1.991401e-06     1.186753e-04    -1.9900e-06      0.027 (TRAH MIcro)
  317     dE    -2.069130e-06     1.446191e-04    -2.0675e-06      0.028 (TRAH MIcro)
  317     dE    -2.127827e-06     1.333043e-04    -2.1260e-06      0.029 (TRAH MIcro)
  317     dE    -2.278654e-06     3.361077e-04    -2.2762e-06      0.033 (TRAH MIcro)
  317     dE    -2.911344e-06     2.984741e-04    -2.9031e-06      0.053 (TRAH MIcro)
  317     dE    -3.104601e-06     1.855285e-04    -3.0933e-06      0.060 (TRAH MIcro)
  317     dE    -3.275226e-06     2.792349e-04    -3.2607e-06      0.067 (TRAH MIcro)
  317     dE    -5.232563e-06     1.523229e-03    -5.1253e-06      0.145 (TRAH MIcro)
  317     dE    -9.151000e-06     6.471871e-04    -6.4763e-05      0.208 (TRAH MIcro)
  317     dE    -1.051007e-05     6.590080e-04    -9.9109e-05      0.208 (TRAH MIcro)
  317     dE    -1.173268e-05     7.336418e-04    -1.4291e-04      0.201 (TRAH MIcro)
  317     dE    -1.337144e-05     5.359380e-04    -1.7296e-04      0.207 (TRAH MIcro)
  317     dE    -1.522099e-05     1.131978e-03    -2.1898e-04      0.208 (TRAH MIcro)
  317     dE    -1.057388e-05     3.375690e-04    -3.2567e-04      0.140 (TRAH MIcro)
  317     dE    -1.131896e-05     1.784051e-04    -3.3170e-04      0.146 (TRAH MIcro)
  317     dE    -1.144260e-05     6.383769e-05    -3.3265e-04      0.147 (TRAH MIcro)
  317     dE    -1.157521e-05     1.382390e-04    -3.3365e-04      0.148 (TRAH MIcro)
  317     dE    -1.216209e-05     2.624419e-04    -3.3785e-04      0.152 (TRAH MIcro)
  318       -295.077901899446     9.701811e-04                     0.208 (TRAH MAcro)   No
  318     dE    -8.391528e-07     1.140811e-04    -8.3915e-07      0.001 (TRAH MIcro)
  318     dE    -8.652697e-07     6.152803e-05    -8.6527e-07      0.001 (TRAH MIcro)
  319       -295.077902765078     6.168086e-05                           (NR   MAcro)
  319     dE    -1.725225e-08     7.369847e-05                           (NR   MIcro)
  319     dE    -1.021107e-07     1.597355e-04                           (NR   MIcro)
  319     dE    -1.972709e-07     1.486942e-04                           (NR   MIcro)
  319     dE    -3.466869e-07     2.585831e-04                           (NR   MIcro)
  319     dE    -6.283813e-07     1.421426e-04                           (NR   MIcro)
  319     dE    -6.837620e-07     9.503270e-05                           (NR   MIcro)
  319     dE    -7.271263e-07     1.174919e-04                           (NR   MIcro)
  319     dE    -9.370287e-07     3.490409e-04                           (NR   MIcro)
  319     dE    -1.174839e-06     1.577767e-04                           (NR   MIcro)
  319     dE    -1.245182e-06     1.473978e-04                           (NR   MIcro)
  319     dE    -1.460245e-06     3.299072e-04                           (NR   MIcro)
  319     dE    -2.258593e-06     6.012785e-04                           (NR   MIcro)
  319     dE    -5.478805e-06     1.759205e-03                           (NR   MIcro)
  319     dE     1.116281e-05     2.466729e-03                           (NR   MIcro)
  319     dE     4.882951e-06     7.500523e-04                           (NR   MIcro)
  319     dE     3.822925e-06     5.227594e-04                           (NR   MIcro)
  319     dE     1.983232e-06     8.755692e-04                           (NR   MIcro)
  319     dE     2.025882e-07     4.277937e-04                           (NR   MIcro)
  319     dE     6.884463e-08     1.170303e-04                           (NR   MIcro)
  319     dE    -1.914035e-08     2.739858e-04                           (NR   MIcro)
  319     dE    -2.481783e-07     3.706139e-04                           (NR   MIcro)
  319     dE    -6.811670e-07     3.769707e-04                           (NR   MIcro)
  319     dE    -1.253190e-06     5.747972e-04                           (NR   MIcro)
  319     dE    -2.728106e-06     3.387200e-04                           (NR   MIcro)
  320       -295.077902937733     1.118669e-03                     0.249 (TRAH MAcro)   No
  320     dE    -1.139249e-06     1.964039e-04    -1.1392e-06      0.001 (TRAH MIcro)
  320     dE    -1.265684e-06     1.883108e-04    -1.2657e-06      0.002 (TRAH MIcro)
  320     dE    -2.287502e-06     6.783083e-04    -2.2869e-06      0.016 (TRAH MIcro)
  320     dE    -3.237793e-06     3.136360e-04    -3.2347e-06      0.031 (TRAH MIcro)
  320     dE    -3.447706e-06     1.556087e-04    -3.4437e-06      0.034 (TRAH MIcro)
  320     dE    -3.501297e-06     1.099127e-04    -3.4971e-06      0.035 (TRAH MIcro)
  321       -295.077906137213     1.313663e-04                     0.299 (TRAH MAcro)   No
  321     dE    -4.501613e-08     1.049942e-04    -4.5016e-08      0.001 (TRAH MIcro)
  321     dE    -1.451669e-07     2.210983e-04    -1.4517e-07      0.003 (TRAH MIcro)
  321     dE    -3.475266e-07     2.102645e-04    -3.4750e-07      0.008 (TRAH MIcro)
  321     dE    -4.843682e-07     1.577509e-04    -4.8429e-07      0.012 (TRAH MIcro)
  321     dE    -5.888000e-07     1.528125e-04    -5.8866e-07      0.016 (TRAH MIcro)
  321     dE    -6.420788e-07     9.584597e-05    -6.4189e-07      0.017 (TRAH MIcro)
  321     dE    -6.700966e-07     8.045669e-05    -6.6988e-07      0.018 (TRAH MIcro)
  321     dE    -7.689005e-07     3.176034e-04    -7.6853e-07      0.022 (TRAH MIcro)
  321     dE    -2.804171e-06     1.856989e-03    -2.7611e-06      0.125 (TRAH MIcro)
  321     dE    -1.953416e-05     1.014311e-03    -1.5533e-04      0.299 (TRAH MIcro)
  321     dE    -2.182200e-05     6.161870e-04    -1.8157e-04      0.299 (TRAH MIcro)
  321     dE    -2.386034e-05     8.827058e-04    -2.0497e-04      0.299 (TRAH MIcro)
  321     dE    -1.362723e-05     5.352614e-04    -2.7722e-04      0.190 (TRAH MIcro)
  321     dE    -1.778337e-05     6.732245e-04    -3.0289e-04      0.214 (TRAH MIcro)
  321     dE    -3.447317e-05     1.402777e-03    -3.7005e-04      0.283 (TRAH MIcro)
  321     dE    -4.077351e-05     5.698871e-04    -4.0154e-04      0.299 (TRAH MIcro)
  321     dE    -4.200018e-05     6.700117e-04    -4.1597e-04      0.299 (TRAH MIcro)
  321     dE    -4.690585e-05     1.956435e-03    -4.7396e-04      0.299 (TRAH MIcro)
  321     dE    -5.086788e-05     5.684137e-04    -5.2109e-04      0.299 (TRAH MIcro)
  321     dE    -5.145421e-05     3.258822e-04    -5.2808e-04      0.299 (TRAH MIcro)
  321     dE    -5.179337e-05     3.911746e-04    -5.3214e-04      0.299 (TRAH MIcro)
  321     dE    -5.295949e-05     7.907199e-04    -5.4610e-04      0.299 (TRAH MIcro)
  321     dE    -1.582523e-05     4.139980e-04    -6.1015e-04      0.149 (TRAH MIcro)
  322       -295.077907036721     1.062739e-03                     0.200 (TRAH MAcro)   No
  322     dE    -1.020659e-06     1.865026e-04    -1.0207e-06      0.001 (TRAH MIcro)
  322     dE    -1.116077e-06     1.579751e-04    -1.1161e-06      0.002 (TRAH MIcro)
  322     dE    -1.202126e-06     9.824081e-05    -1.2021e-06      0.002 (TRAH MIcro)
  323       -295.077908240586     9.806743e-05                           (NR   MAcro)
  323     dE    -1.051790e-08     4.763998e-05                           (NR   MIcro)
  323     dE    -3.239629e-08     1.556205e-04                           (NR   MIcro)
  323     dE    -1.909048e-07     2.496784e-04                           (NR   MIcro)
  323     dE    -2.969227e-07     1.158772e-04                           (NR   MIcro)
  323     dE    -3.291175e-07     9.789049e-05                           (NR   MIcro)
  323     dE    -3.573578e-07     6.969576e-05                           (NR   MIcro)
  323     dE    -3.733099e-07     6.536061e-05                           (NR   MIcro)
  323     dE    -4.038264e-07     1.304839e-04                           (NR   MIcro)
  323     dE    -4.760387e-07     1.745495e-04                           (NR   MIcro)
  323     dE    -5.360292e-07     8.299051e-05                           (NR   MIcro)
  323     dE    -5.619678e-07     1.251135e-04                           (NR   MIcro)
  323     dE    -7.025657e-07     3.192830e-04                           (NR   MIcro)
  323     dE    -1.309606e-06     5.166313e-04                           (NR   MIcro)
  323     dE    -1.830008e-06     3.227925e-04                           (NR   MIcro)
  323     dE    -2.542133e-06     9.605468e-04                           (NR   MIcro)
  323     dE     1.040167e-05     4.032996e-03                           (NR   MIcro)
  323     dE     1.206181e-06     6.996019e-04                           (NR   MIcro)
  323     dE     2.149660e-07     4.096540e-04                           (NR   MIcro)
  323     dE    -7.005469e-08     1.243456e-04                           (NR   MIcro)
  323     dE    -9.818570e-08     6.609540e-05                           (NR   MIcro)
  323     dE    -1.467290e-07     1.909460e-04                           (NR   MIcro)
  323     dE    -3.938863e-07     2.818686e-04                           (NR   MIcro)
  323     dE    -5.404236e-07     1.158912e-04                           (NR   MIcro)
  323     dE    -5.728602e-07     8.849299e-05                           (NR   MIcro)
  324       -295.077909047160     1.154463e-04                     0.240 (TRAH MAcro)   No
  324     dE    -2.509751e-08     6.599071e-05    -2.5098e-08      0.000 (TRAH MIcro)
  324     dE    -6.005763e-08     1.260463e-04    -6.0058e-08      0.001 (TRAH MIcro)
  324     dE    -1.230481e-07     1.142485e-04    -1.2305e-07      0.004 (TRAH MIcro)
  324     dE    -1.809641e-07     1.514814e-04    -1.8096e-07      0.006 (TRAH MIcro)
  324     dE    -3.185664e-07     1.857391e-04    -3.1851e-07      0.013 (TRAH MIcro)
  324     dE    -3.669511e-07     5.677495e-05    -3.6686e-07      0.015 (TRAH MIcro)
  324     dE    -3.760873e-07     4.128711e-05    -3.7599e-07      0.016 (TRAH MIcro)
  324     dE    -3.876631e-07     7.861506e-05    -3.8756e-07      0.016 (TRAH MIcro)
  324     dE    -4.328287e-07     1.700540e-04    -4.3267e-07      0.019 (TRAH MIcro)
  324     dE    -4.857972e-07     7.506664e-05    -4.8554e-07      0.023 (TRAH MIcro)
  324     dE    -5.130178e-07     9.399240e-05    -5.1270e-07      0.025 (TRAH MIcro)
  324     dE    -5.430669e-07     9.412943e-05    -5.4266e-07      0.027 (TRAH MIcro)
  324     dE    -5.807879e-07     1.183894e-04    -5.8024e-07      0.031 (TRAH MIcro)
  324     dE    -6.849018e-07     2.245679e-04    -6.8379e-07      0.040 (TRAH MIcro)
  324     dE    -1.223459e-06     5.155279e-04    -1.2124e-06      0.095 (TRAH MIcro)
  324     dE    -1.761835e-06     3.534635e-04    -1.7228e-06      0.151 (TRAH MIcro)
  324     dE    -2.852079e-06     8.763864e-04    -5.3692e-06      0.240 (TRAH MIcro)
  324     dE    -9.768820e-06     2.197850e-03    -1.5729e-04      0.222 (TRAH MIcro)
  324     dE    -5.704432e-06     3.483793e-04    -3.0273e-04      0.123 (TRAH MIcro)
  324     dE    -6.953998e-06     2.478326e-04    -3.1765e-04      0.135 (TRAH MIcro)
  324     dE    -8.168002e-06     4.556514e-04    -3.2999e-04      0.145 (TRAH MIcro)
  324     dE    -1.266763e-05     6.683847e-04    -3.6446e-04      0.176 (TRAH MIcro)
  324     dE    -1.865082e-05     7.971847e-04    -3.9581e-04      0.209 (TRAH MIcro)
 ---------------------------------
          TRAH Step control 
 ---------------------------------
  predicted energy change =    -1.865081956609e-05
  actual energy  change   =     5.592420279754e-06
  energy change ratio     = -0.299849
  old trust radius        = 0.240397
  new trust radius        = 0.161066
  reject step?            = YES
  325       -295.077903454740     1.154463e-04                     0.161 (TRAH MAcro)  Yes
  326       -295.077903454740     1.818584e-03                     0.161 (TRAH MAcro)   No
  326     dE    -3.295689e-06     4.182303e-04    -3.2957e-06      0.002 (TRAH MIcro)
  326     dE    -3.769864e-06     3.517017e-04    -3.7698e-06      0.003 (TRAH MIcro)
  326     dE    -4.204052e-06     1.714367e-04    -4.2039e-06      0.005 (TRAH MIcro)
  327       -295.077907666118     1.712106e-04                     0.193 (TRAH MAcro)   No
  327     dE    -4.878326e-08     1.178420e-04    -4.8783e-08      0.001 (TRAH MIcro)
  327     dE    -1.887559e-07     3.667756e-04    -1.8875e-07      0.004 (TRAH MIcro)
  327     dE    -5.903133e-07     2.930413e-04    -5.9019e-07      0.014 (TRAH MIcro)
  327     dE    -7.590730e-07     1.733291e-04    -7.5881e-07      0.019 (TRAH MIcro)
  327     dE    -8.544976e-07     1.858548e-04    -8.5411e-07      0.021 (TRAH MIcro)
  327     dE    -9.328955e-07     1.124414e-04    -9.3238e-07      0.024 (TRAH MIcro)
  327     dE    -9.855561e-07     1.476188e-04    -9.8493e-07      0.025 (TRAH MIcro)
  327     dE    -1.209478e-06     4.268388e-04    -1.2082e-06      0.033 (TRAH MIcro)
  327     dE    -1.977585e-06     5.963113e-04    -1.9695e-06      0.064 (TRAH MIcro)
  327     dE    -2.943677e-06     3.944357e-04    -2.9113e-06      0.105 (TRAH MIcro)
  327     dE    -3.457629e-06     5.133775e-04    -3.4024e-06      0.127 (TRAH MIcro)
  327     dE    -7.209114e-06     1.557956e-03    -6.7029e-05      0.193 (TRAH MIcro)
  327     dE    -1.140510e-05     8.396884e-04    -2.8244e-04      0.166 (TRAH MIcro)
  327     dE    -1.464649e-05     4.079001e-04    -3.0651e-04      0.187 (TRAH MIcro)
  327     dE    -1.779443e-05     1.597478e-03    -3.7249e-04      0.193 (TRAH MIcro)
  327     dE    -8.684684e-06     4.821944e-04    -5.8248e-04      0.106 (TRAH MIcro)
  327     dE    -1.248052e-05     5.978324e-04    -6.3113e-04      0.127 (TRAH MIcro)
  327     dE    -1.906484e-05     6.686609e-04    -6.8784e-04      0.155 (TRAH MIcro)
  327     dE    -2.269679e-05     2.484979e-04    -7.1130e-04      0.168 (TRAH MIcro)
  327     dE    -2.372312e-05     2.313226e-04    -7.1727e-04      0.172 (TRAH MIcro)
  327     dE    -2.674378e-05     6.194510e-04    -7.3326e-04      0.181 (TRAH MIcro)
  327     dE    -3.227762e-05     7.143577e-04    -7.9500e-04      0.193 (TRAH MIcro)
  327     dE    -3.295909e-05     2.337315e-04    -8.1512e-04      0.193 (TRAH MIcro)
 ---------------------------------
          TRAH Step control 
 ---------------------------------
  predicted energy change =    -3.295908815664e-05
  actual energy  change   =     3.849775964682e-06
  energy change ratio     = -0.116805
  old trust radius        = 0.193279
  new trust radius        = 0.129497
  reject step?            = YES
  328       -295.077903816342     1.712106e-04                     0.129 (TRAH MAcro)  Yes
  329       -295.077903816342     2.464211e-03                     0.129 (TRAH MAcro)   No
  329     dE    -5.153882e-06     1.676084e-04    -5.1539e-06      0.002 (TRAH MIcro)
  330       -295.077908969667     1.676843e-04                     0.155 (TRAH MAcro)   No
  330     dE    -4.129625e-08     7.106225e-05    -4.1296e-08      0.000 (TRAH MIcro)
  330     dE    -8.604912e-08     1.457271e-04    -8.6049e-08      0.001 (TRAH MIcro)
  330     dE    -1.675671e-07     1.247515e-04    -1.6756e-07      0.004 (TRAH MIcro)
  330     dE    -2.556962e-07     1.852416e-04    -2.5568e-07      0.007 (TRAH MIcro)
  330     dE    -5.597177e-07     3.412551e-04    -5.5951e-07      0.019 (TRAH MIcro)
  330     dE    -7.516058e-07     1.216384e-04    -7.5105e-07      0.027 (TRAH MIcro)
  330     dE    -7.827388e-07     6.077563e-05    -7.8210e-07      0.029 (TRAH MIcro)
  330     dE    -8.026805e-07     8.818923e-05    -8.0199e-07      0.029 (TRAH MIcro)
  330     dE    -8.610423e-07     1.703901e-04    -8.6016e-07      0.032 (TRAH MIcro)
  330     dE    -9.885123e-07     1.264239e-04    -9.8705e-07      0.038 (TRAH MIcro)
  330     dE    -1.019782e-06     7.714128e-05    -1.0181e-06      0.040 (TRAH MIcro)
  330     dE    -1.039243e-06     7.545661e-05    -1.0375e-06      0.041 (TRAH MIcro)
  330     dE    -1.054059e-06     5.191739e-05    -1.0522e-06      0.042 (TRAH MIcro)
  330     dE    -1.064241e-06     6.549402e-05    -1.0623e-06      0.043 (TRAH MIcro)
  330     dE    -1.139898e-06     2.851335e-04    -1.1373e-06      0.048 (TRAH MIcro)
  330     dE    -1.302212e-06     1.893178e-04    -1.2975e-06      0.060 (TRAH MIcro)
  330     dE    -1.373058e-06     1.027747e-04    -1.3671e-06      0.066 (TRAH MIcro)
  330     dE    -1.381711e-06     4.779969e-05    -1.3756e-06      0.067 (TRAH MIcro)
  330     dE    -1.396786e-06     9.017080e-05    -1.3903e-06      0.068 (TRAH MIcro)
  330     dE    -1.454303e-06     1.926827e-04    -1.4465e-06      0.074 (TRAH MIcro)
  330     dE    -1.521011e-06     1.196403e-04    -1.5113e-06      0.080 (TRAH MIcro)
  330     dE    -1.583903e-06     1.480756e-04    -1.5721e-06      0.087 (TRAH MIcro)
  330     dE    -1.634794e-06     7.675174e-05    -1.6210e-06      0.092 (TRAH MIcro)
  331       -295.077910793518     2.919746e-04                     0.186 (TRAH MAcro)   No
  331     dE    -8.687125e-08     5.389483e-05    -8.6871e-08      0.000 (TRAH MIcro)
  331     dE    -1.128325e-07     1.142526e-04    -1.1283e-07      0.001 (TRAH MIcro)
  331     dE    -2.047494e-07     1.533148e-04    -2.0474e-07      0.005 (TRAH MIcro)
  331     dE    -2.470896e-07     6.492232e-05    -2.4708e-07      0.007 (TRAH MIcro)
  331     dE    -2.618886e-07     5.812435e-05    -2.6188e-07      0.007 (TRAH MIcro)
  331     dE    -2.872838e-07     9.712756e-05    -2.8726e-07      0.008 (TRAH MIcro)
  331     dE    -3.346946e-07     1.065429e-04    -3.3465e-07      0.011 (TRAH MIcro)
  331     dE    -3.886555e-07     1.390674e-04    -3.8857e-07      0.014 (TRAH MIcro)
  331     dE    -4.964455e-07     1.595368e-04    -4.9620e-07      0.022 (TRAH MIcro)
  331     dE    -5.384268e-07     5.661181e-05    -5.3809e-07      0.025 (TRAH MIcro)
  331     dE    -5.459927e-07     3.173980e-05    -5.4563e-07      0.026 (TRAH MIcro)
  331     dE    -5.586162e-07     9.002547e-05    -5.5822e-07      0.027 (TRAH MIcro)
  331     dE    -6.269342e-07     1.937851e-04    -6.2628e-07      0.032 (TRAH MIcro)
  331     dE    -7.142983e-07     1.190188e-04    -7.1312e-07      0.041 (TRAH MIcro)
  331     dE    -7.493151e-07     8.422308e-05    -7.4785e-07      0.044 (TRAH MIcro)
  331     dE    -7.784650e-07     8.463161e-05    -7.7673e-07      0.047 (TRAH MIcro)
  331     dE    -7.848677e-07     2.927913e-05    -7.8307e-07      0.048 (TRAH MIcro)
  331     dE    -7.916218e-07     8.510148e-05    -7.8976e-07      0.049 (TRAH MIcro)
  331     dE    -8.585999e-07     3.349515e-04    -8.5590e-07      0.056 (TRAH MIcro)
  331     dE    -1.688636e-06     9.005647e-04    -1.6432e-06      0.166 (TRAH MIcro)
  331     dE    -2.644221e-06     3.220602e-04    -3.7420e-05      0.170 (TRAH MIcro)
  331     dE    -3.358770e-06     3.733869e-04    -5.0222e-05      0.186 (TRAH MIcro)
  331     dE    -3.032573e-06     5.370461e-04    -9.4557e-05      0.138 (TRAH MIcro)
 ---------------------------------
          TRAH Step control 
 ---------------------------------
  predicted energy change =    -3.032572990220e-06
  actual energy  change   =     2.475263272572e-06
  energy change ratio     = -0.816225
  old trust radius        = 0.186476
  new trust radius        = 0.124939
  reject step?            = YES
  332       -295.077908318255     2.919746e-04                     0.125 (TRAH MAcro)  Yes
  333       -295.077908318255     9.400365e-04                     0.125 (TRAH MAcro)   No
  333     dE    -8.687613e-07     2.407271e-04    -8.6876e-07      0.001 (TRAH MIcro)
  333     dE    -1.023686e-06     1.779030e-04    -1.0237e-06      0.002 (TRAH MIcro)
  333     dE    -1.332207e-06     3.304130e-04    -1.3322e-06      0.006 (TRAH MIcro)
  333     dE    -1.603333e-06     2.440467e-04    -1.6032e-06      0.010 (TRAH MIcro)
  333     dE    -1.935499e-06     3.559882e-04    -1.9350e-06      0.016 (TRAH MIcro)
  333     dE    -2.256920e-06     2.961173e-04    -2.2558e-06      0.023 (TRAH MIcro)
  333     dE    -2.393610e-06     1.259921e-04    -2.3921e-06      0.026 (TRAH MIcro)
  333     dE    -2.421268e-06     9.745855e-05    -2.4196e-06      0.026 (TRAH MIcro)
  333     dE    -2.497447e-06     2.418511e-04    -2.4955e-06      0.028 (TRAH MIcro)
  333     dE    -3.234784e-06     8.070727e-04    -3.2259e-06      0.052 (TRAH MIcro)
  333     dE    -4.025073e-06     2.791808e-04    -3.9971e-06      0.084 (TRAH MIcro)
  333     dE    -4.239560e-06     2.536149e-04    -4.2037e-06      0.092 (TRAH MIcro)
  333     dE    -4.598801e-06     4.180147e-04    -4.5468e-06      0.107 (TRAH MIcro)
  333     dE    -5.176073e-06     3.488571e-04    -1.4744e-05      0.125 (TRAH MIcro)
  333     dE    -6.044355e-06     7.509971e-04    -7.8451e-05      0.125 (TRAH MIcro)
  333     dE    -6.552156e-06     4.947326e-04    -2.9645e-04      0.096 (TRAH MIcro)
  333     dE    -8.388132e-06     2.851639e-04    -3.1867e-04      0.116 (TRAH MIcro)
  333     dE    -8.871926e-06     1.656987e-04    -3.2359e-04      0.120 (TRAH MIcro)
  333     dE    -9.408201e-06     2.865414e-04    -3.3217e-04      0.125 (TRAH MIcro)
  333     dE    -9.697442e-06     3.030586e-04    -3.5444e-04      0.125 (TRAH MIcro)
  333     dE    -9.808526e-06     1.030711e-04    -3.6306e-04      0.125 (TRAH MIcro)
  333     dE    -9.845507e-06     9.813121e-05    -3.6594e-04      0.125 (TRAH MIcro)
  333     dE    -9.906537e-06     1.692360e-04    -3.7073e-04      0.125 (TRAH MIcro)
  334       -295.077912206217     6.153604e-04                     0.125 (TRAH MAcro)   No
  334     dE    -3.547393e-07     9.077006e-05    -3.5474e-07      0.001 (TRAH MIcro)
  334     dE    -3.769428e-07     6.837664e-05    -3.7694e-07      0.001 (TRAH MIcro)
  334     dE    -4.421880e-07     1.535661e-04    -4.4218e-07      0.003 (TRAH MIcro)
  334     dE    -5.157878e-07     1.207293e-04    -5.1577e-07      0.006 (TRAH MIcro)
  334     dE    -5.859867e-07     1.380481e-04    -5.8594e-07      0.009 (TRAH MIcro)
  334     dE    -6.798783e-07     1.432253e-04    -6.7977e-07      0.013 (TRAH MIcro)
  334     dE    -7.265681e-07     7.988903e-05    -7.2641e-07      0.015 (TRAH MIcro)
  334     dE    -7.646378e-07     1.310408e-04    -7.6443e-07      0.017 (TRAH MIcro)
  334     dE    -9.057507e-07     2.572366e-04    -9.0524e-07      0.024 (TRAH MIcro)
  334     dE    -1.177182e-06     2.321390e-04    -1.1754e-06      0.039 (TRAH MIcro)
  334     dE    -1.281627e-06     1.251324e-04    -1.2790e-06      0.045 (TRAH MIcro)
  334     dE    -1.481402e-06     3.836622e-04    -1.4766e-06      0.057 (TRAH MIcro)
  334     dE    -6.214024e-06     1.619691e-03    -2.5163e-04      0.125 (TRAH MIcro)
  334     dE    -1.058940e-05     8.156157e-04    -5.5325e-04      0.125 (TRAH MIcro)
  334     dE    -1.251313e-05     6.444860e-04    -6.8508e-04      0.125 (TRAH MIcro)
  334     dE    -1.364344e-05     4.136426e-04    -7.6232e-04      0.125 (TRAH MIcro)
  334     dE    -1.391054e-05     2.341247e-04    -7.8055e-04      0.125 (TRAH MIcro)
  334     dE    -2.694370e-06     2.322329e-04    -9.6392e-04      0.043 (TRAH MIcro)
  334     dE    -3.803577e-06     2.680759e-04    -1.0176e-03      0.053 (TRAH MIcro)
  334     dE    -4.179626e-06     6.964738e-05    -1.0313e-03      0.056 (TRAH MIcro)
  334     dE    -4.255802e-06     5.915723e-05    -1.0338e-03      0.056 (TRAH MIcro)
  335       -295.077913581009     2.238850e-04                     0.125 (TRAH MAcro)   No
  335     dE    -5.170479e-08     3.683375e-05    -5.1705e-08      0.000 (TRAH MIcro)
  335     dE    -6.286474e-08     7.854230e-05    -6.2865e-08      0.001 (TRAH MIcro)
  335     dE    -1.551813e-07     2.244164e-04    -1.5518e-07      0.006 (TRAH MIcro)
  335     dE    -2.430132e-07     1.009301e-04    -2.4298e-07      0.011 (TRAH MIcro)
  335     dE    -2.934850e-07     1.215786e-04    -2.9342e-07      0.014 (TRAH MIcro)
  335     dE    -3.382934e-07     6.412469e-05    -3.3819e-07      0.017 (TRAH MIcro)
  335     dE    -3.535057e-07     6.670365e-05    -3.5339e-07      0.018 (TRAH MIcro)
  335     dE    -3.956328e-07     1.509276e-04    -3.9546e-07      0.021 (TRAH MIcro)
  335     dE    -8.848373e-07     6.639572e-04    -8.8173e-07      0.059 (TRAH MIcro)
  335     dE    -2.644875e-06     4.407353e-04    -1.0785e-04      0.108 (TRAH MIcro)
  335     dE    -3.875415e-06     4.754243e-04    -1.4886e-04      0.125 (TRAH MIcro)
  335     dE    -3.464233e-06     6.614228e-04    -2.9755e-04      0.090 (TRAH MIcro)
  335     dE    -8.212845e-06     8.879447e-04    -4.4636e-04      0.124 (TRAH MIcro)
  335     dE    -3.107179e-06     4.793064e-04    -6.6502e-04      0.061 (TRAH MIcro)
  335     dE    -5.491533e-06     3.252691e-04    -7.5497e-04      0.079 (TRAH MIcro)
  335     dE    -6.811365e-06     2.524502e-04    -7.8976e-04      0.088 (TRAH MIcro)
  335     dE    -7.380772e-06     2.180003e-04    -8.0273e-04      0.091 (TRAH MIcro)
  335     dE    -9.369537e-06     5.831596e-04    -8.4094e-04      0.101 (TRAH MIcro)
  335     dE    -1.160649e-05     2.264408e-04    -8.7489e-04      0.111 (TRAH MIcro)
  335     dE    -1.203332e-05     9.792235e-05    -8.8060e-04      0.113 (TRAH MIcro)
  335     dE    -1.237543e-05     2.052704e-04    -8.8494e-04      0.114 (TRAH MIcro)
  335     dE    -1.506182e-05     2.526476e-04    -9.1373e-04      0.125 (TRAH MIcro)
  335     dE    -1.529638e-05     1.683225e-04    -9.2419e-04      0.125 (TRAH MIcro)
  336       -295.077913648609     1.127097e-03                     0.084 (TRAH MAcro)   No
  336     dE    -1.130170e-06     1.230961e-04    -1.1302e-06      0.001 (TRAH MIcro)
  336     dE    -1.168092e-06     8.235819e-05    -1.1681e-06      0.001 (TRAH MIcro)
  337       -295.077914816334     8.265529e-05                           (NR   MAcro)
  337     dE    -2.002579e-08     6.397400e-05                           (NR   MIcro)
  337     dE    -4.923399e-08     6.064935e-05                           (NR   MIcro)
  337     dE    -6.112801e-08     5.532803e-05                           (NR   MIcro)
  337     dE    -9.372806e-08     1.596694e-04                           (NR   MIcro)
  337     dE    -3.344245e-07     1.042517e-04                           (NR   MIcro)
  337     dE    -3.518489e-07     3.724190e-05                           (NR   MIcro)
  337     dE    -3.656739e-07     7.548721e-05                           (NR   MIcro)
  337     dE    -3.985387e-07     8.103901e-05                           (NR   MIcro)
  337     dE    -4.287482e-07     7.761665e-05                           (NR   MIcro)
  337     dE    -4.923405e-07     1.272567e-04                           (NR   MIcro)
  337     dE    -5.316731e-07     7.635400e-05                           (NR   MIcro)
  337     dE    -5.673954e-07     1.114329e-04                           (NR   MIcro)
  337     dE    -7.331274e-07     3.138282e-04                           (NR   MIcro)
  337     dE    -1.861385e-06     8.022602e-04                           (NR   MIcro)
  337     dE    -3.832123e-06     4.705388e-04                           (NR   MIcro)
  337     dE    -4.531635e-06     4.186439e-04                           (NR   MIcro)
  337     dE    -6.243823e-06     8.410967e-04                           (NR   MIcro)
  337     dE    -1.504211e-05     2.245330e-03                           (NR   MIcro)
  337     dE     1.422701e-05     3.296430e-03                           (NR   MIcro)
  337     dE     1.047870e-06     4.885425e-04                           (NR   MIcro)
  337     dE     8.120329e-07     1.355953e-04                           (NR   MIcro)
  337     dE     7.401830e-07     1.838806e-04                           (NR   MIcro)
  337     dE     5.348079e-07     5.623770e-04                           (NR   MIcro)
  337     dE     1.879478e-07     2.828954e-04                           (NR   MIcro)
  338       -295.077913480126     3.332914e-04                     0.100 (TRAH MAcro)   No
  338     dE    -7.926984e-08     8.527373e-05    -7.9270e-08      0.000 (TRAH MIcro)
  338     dE    -1.142023e-07     1.459103e-04    -1.1420e-07      0.001 (TRAH MIcro)
  338     dE    -2.005036e-07     1.796036e-04    -2.0050e-07      0.003 (TRAH MIcro)
  338     dE    -2.825277e-07     1.676752e-04    -2.8252e-07      0.006 (TRAH MIcro)
  338     dE    -5.164942e-07     4.213819e-04    -5.1637e-07      0.016 (TRAH MIcro)
  338     dE    -7.557493e-07     1.765021e-04    -7.5527e-07      0.025 (TRAH MIcro)
  338     dE    -8.353309e-07     1.456570e-04    -8.3466e-07      0.028 (TRAH MIcro)
  338     dE    -9.133720e-07     2.592770e-04    -9.1246e-07      0.032 (TRAH MIcro)
  338     dE    -1.461428e-06     4.752033e-04    -1.4568e-06      0.056 (TRAH MIcro)
  338     dE    -2.084927e-06     3.296329e-04    -2.0696e-06      0.086 (TRAH MIcro)
  338     dE    -2.366436e-06     2.861758e-04    -2.3433e-06      0.099 (TRAH MIcro)
  338     dE    -2.892107e-06     4.853076e-04    -5.6991e-05      0.100 (TRAH MIcro)
  338     dE    -3.657297e-06     4.589114e-04    -1.6499e-04      0.096 (TRAH MIcro)
  338     dE    -4.277169e-06     3.016088e-04    -2.1099e-04      0.100 (TRAH MIcro)
  338     dE    -4.662759e-06     3.571478e-04    -2.5476e-04      0.100 (TRAH MIcro)
  338     dE    -4.877654e-06     1.438797e-04    -2.7939e-04      0.100 (TRAH MIcro)
  338     dE    -4.938929e-06     1.310510e-04    -2.8645e-04      0.100 (TRAH MIcro)
  338     dE    -3.266932e-06     2.634826e-04    -3.9605e-04      0.068 (TRAH MIcro)
  338     dE    -3.959810e-06     1.424262e-04    -4.1894e-04      0.076 (TRAH MIcro)
  338     dE    -4.070840e-06     6.332469e-05    -4.2203e-04      0.078 (TRAH MIcro)
  338     dE    -4.113465e-06     5.538586e-05    -4.2316e-04      0.078 (TRAH MIcro)
  338     dE    -4.198912e-06     8.265303e-05    -4.2542e-04      0.079 (TRAH MIcro)
  338     dE    -4.282611e-06     7.985494e-05    -4.2753e-04      0.080 (TRAH MIcro)
  339       -295.077915165540     3.050769e-04                     0.100 (TRAH MAcro)   No
  339     dE    -9.849181e-08     6.447387e-05    -9.8492e-08      0.000 (TRAH MIcro)
  339     dE    -1.164921e-07     8.117615e-05    -1.1649e-07      0.001 (TRAH MIcro)
  339     dE    -1.593935e-07     8.182867e-05    -1.5939e-07      0.002 (TRAH MIcro)
  339     dE    -1.887233e-07     1.056382e-04    -1.8872e-07      0.004 (TRAH MIcro)
  339     dE    -2.780028e-07     1.451069e-04    -2.7798e-07      0.008 (TRAH MIcro)
  339     dE    -3.322104e-07     6.951883e-05    -3.3217e-07      0.011 (TRAH MIcro)
  339     dE    -3.447890e-07     4.170084e-05    -3.4474e-07      0.012 (TRAH MIcro)
  339     dE    -3.629208e-07     9.180327e-05    -3.6286e-07      0.013 (TRAH MIcro)
  339     dE    -4.110782e-07     9.511260e-05    -4.1097e-07      0.016 (TRAH MIcro)
  339     dE    -4.333877e-07     5.036809e-05    -4.3325e-07      0.018 (TRAH MIcro)
  339     dE    -4.443452e-07     5.217295e-05    -4.4419e-07      0.019 (TRAH MIcro)
  339     dE    -4.569760e-07     5.242821e-05    -4.5680e-07      0.020 (TRAH MIcro)
  339     dE    -4.691360e-07     5.458251e-05    -4.6894e-07      0.021 (TRAH MIcro)
  339     dE    -4.995143e-07     1.136943e-04    -4.9924e-07      0.023 (TRAH MIcro)
  339     dE    -5.782349e-07     1.278564e-04    -5.7767e-07      0.031 (TRAH MIcro)
  339     dE    -6.085053e-07     4.925521e-05    -6.0778e-07      0.035 (TRAH MIcro)
  339     dE    -6.191196e-07     6.075802e-05    -6.1833e-07      0.036 (TRAH MIcro)
  339     dE    -7.081992e-07     2.865354e-04    -7.0668e-07      0.046 (TRAH MIcro)
  339     dE    -1.187263e-06     4.871852e-04    -7.3855e-06      0.100 (TRAH MIcro)
  339     dE    -1.385238e-06     1.639045e-04    -2.9524e-05      0.100 (TRAH MIcro)
  339     dE    -1.437240e-06     1.618570e-04    -3.5346e-05      0.100 (TRAH MIcro)
  339     dE    -1.490967e-06     9.435456e-05    -4.1368e-05      0.100 (TRAH MIcro)
  339     dE    -1.519297e-06     1.270484e-04    -4.4546e-05      0.100 (TRAH MIcro)
  340       -295.077916445369     3.226424e-04                     0.121 (TRAH MAcro)   No
  340     dE    -9.144480e-08     6.029385e-05    -9.1445e-08      0.000 (TRAH MIcro)
  340     dE    -1.057791e-07     7.292952e-05    -1.0578e-07      0.001 (TRAH MIcro)
  340     dE    -1.380871e-07     9.719948e-05    -1.3809e-07      0.002 (TRAH MIcro)
  340     dE    -1.615775e-07     9.646426e-05    -1.6158e-07      0.003 (TRAH MIcro)
  340     dE    -2.440873e-07     2.183488e-04    -2.4407e-07      0.008 (TRAH MIcro)
  340     dE    -3.094628e-07     7.033302e-05    -3.0942e-07      0.012 (TRAH MIcro)
  340     dE    -3.195064e-07     3.901265e-05    -3.1945e-07      0.013 (TRAH MIcro)
  340     dE    -3.255037e-07     5.487976e-05    -3.2545e-07      0.013 (TRAH MIcro)
  340     dE    -3.416529e-07     8.282208e-05    -3.4158e-07      0.014 (TRAH MIcro)
  340     dE    -3.676671e-07     7.798071e-05    -3.6757e-07      0.016 (TRAH MIcro)
  340     dE    -3.748683e-07     3.154329e-05    -3.7476e-07      0.017 (TRAH MIcro)
  341       -295.077916866143     4.307496e-05                           (NR   MAcro)
  341     dE    -8.019712e-09     6.043442e-05                           (NR   MIcro)
  341     dE    -3.378227e-08     1.122663e-04                           (NR   MIcro)
  341     dE    -7.135351e-08     7.387587e-05                           (NR   MIcro)
  341     dE    -8.775885e-08     6.063823e-05                           (NR   MIcro)
  341     dE    -1.079556e-07     7.228814e-05                           (NR   MIcro)
  341     dE    -1.201066e-07     5.075686e-05                           (NR   MIcro)
  341     dE    -1.319689e-07     6.963838e-05                           (NR   MIcro)
  341     dE    -1.621255e-07     1.200080e-04                           (NR   MIcro)
  341     dE    -1.839373e-07     3.931879e-05                           (NR   MIcro)
  341     dE    -1.867877e-07     1.879510e-05                           (NR   MIcro)
  341     dE    -1.914958e-07     6.308331e-05                           (NR   MIcro)
  341     dE    -2.114539e-07     8.197460e-05                           (NR   MIcro)
  341     dE    -2.437172e-07     1.172544e-04                           (NR   MIcro)
  341     dE    -2.909272e-07     1.151017e-04                           (NR   MIcro)
  341     dE    -3.532456e-07     1.333866e-04                           (NR   MIcro)
  341     dE    -3.713339e-07     5.466679e-05                           (NR   MIcro)
  341     dE    -3.857785e-07     9.081597e-05                           (NR   MIcro)
  341     dE    -6.058838e-07     6.687927e-04                           (NR   MIcro)
  341     dE    -8.739367e-05     3.096549e-02                           (NR   MIcro)
  341     dE     3.546553e-06     8.842141e-04                           (NR   MIcro)
  341     dE     1.461264e-06     7.074463e-04                           (NR   MIcro)
  341     dE     2.214256e-07     3.082297e-04                           (NR   MIcro)
  341     dE     9.769699e-09     1.780411e-04                           (NR   MIcro)
  341     dE    -1.040435e-07     1.370516e-04                           (NR   MIcro)
  342       -295.077916875651     1.428102e-04                     0.145 (TRAH MAcro)   No
  342     dE    -2.853831e-08     6.128929e-05    -2.8538e-08      0.000 (TRAH MIcro)
  342     dE    -4.073959e-08     5.599886e-05    -4.0740e-08      0.001 (TRAH MIcro)
  342     dE    -5.592829e-08     8.808277e-05    -5.5928e-08      0.001 (TRAH MIcro)
  342     dE    -7.230995e-08     7.390368e-05    -7.2310e-08      0.002 (TRAH MIcro)
  342     dE    -1.071930e-07     1.555479e-04    -1.0719e-07      0.005 (TRAH MIcro)
  342     dE    -1.964950e-07     1.557068e-04    -1.9647e-07      0.012 (TRAH MIcro)
  342     dE    -2.315810e-07     6.235107e-05    -2.3153e-07      0.015 (TRAH MIcro)
  342     dE    -2.384923e-07     4.152649e-05    -2.3843e-07      0.016 (TRAH MIcro)
  342     dE    -2.599418e-07     1.312202e-04    -2.5986e-07      0.018 (TRAH MIcro)
  342     dE    -3.299202e-07     1.944955e-04    -3.2972e-07      0.024 (TRAH MIcro)
  342     dE    -4.134816e-07     1.488902e-04    -4.1302e-07      0.033 (TRAH MIcro)
  342     dE    -4.958837e-07     1.814120e-04    -4.9498e-07      0.043 (TRAH MIcro)
  342     dE    -6.290528e-07     2.171770e-04    -6.2694e-07      0.058 (TRAH MIcro)
  342     dE    -8.265772e-07     3.373654e-04    -8.2117e-07      0.081 (TRAH MIcro)
  342     dE    -2.490848e-06     8.536920e-04    -5.7569e-05      0.145 (TRAH MIcro)
  342     dE    -4.326798e-06     5.410337e-04    -1.5024e-04      0.145 (TRAH MIcro)
  342     dE    -2.235702e-06     1.097890e-04    -2.0262e-04      0.086 (TRAH MIcro)
  342     dE    -2.518548e-06     2.626760e-04    -2.1068e-04      0.091 (TRAH MIcro)
  342     dE    -4.244168e-06     3.918612e-04    -2.4668e-04      0.117 (TRAH MIcro)
  342     dE    -5.459753e-06     2.266644e-04    -2.6459e-04      0.130 (TRAH MIcro)
  342     dE    -5.949098e-06     1.500715e-04    -2.7079e-04      0.135 (TRAH MIcro)
  342     dE    -6.464372e-06     1.960040e-04    -2.7682e-04      0.140 (TRAH MIcro)
  342     dE    -6.866313e-06     1.522432e-04    -2.8116e-04      0.144 (TRAH MIcro)
 ---------------------------------
          TRAH Step control 
 ---------------------------------
  predicted energy change =    -6.866313429796e-06
  actual energy  change   =     1.404877082223e-06
  energy change ratio     = -0.204604
  old trust radius        = 0.144649
  new trust radius        = 0.096915
  reject step?            = YES
  343       -295.077915470774     1.428102e-04                     0.097 (TRAH MAcro)  Yes
  344       -295.077915470774     7.809951e-04                     0.097 (TRAH MAcro)   No
  344     dE    -5.778258e-07     1.330560e-04    -5.7783e-07      0.001 (TRAH MIcro)
  344     dE    -6.360816e-07     1.293229e-04    -6.3608e-07      0.001 (TRAH MIcro)
  344     dE    -8.367872e-07     1.980583e-04    -8.3677e-07      0.005 (TRAH MIcro)
  344     dE    -9.804897e-07     1.982263e-04    -9.8042e-07      0.008 (TRAH MIcro)
  344     dE    -1.282037e-06     3.221441e-04    -1.2817e-06      0.016 (TRAH MIcro)
  344     dE    -1.551390e-06     1.527300e-04    -1.5505e-06      0.024 (TRAH MIcro)
  344     dE    -1.603232e-06     7.290615e-05    -1.6022e-06      0.025 (TRAH MIcro)
  345       -295.077917014590     8.413706e-05                           (NR   MAcro)
  345     dE    -2.975468e-08     1.015140e-04                           (NR   MIcro)
  345     dE    -1.303148e-07     2.260379e-04                           (NR   MIcro)
  345     dE    -2.514698e-07     1.011830e-04                           (NR   MIcro)
  345     dE    -2.896130e-07     9.106881e-05                           (NR   MIcro)
  345     dE    -3.440600e-07     9.646373e-05                           (NR   MIcro)
  345     dE    -3.742619e-07     8.595736e-05                           (NR   MIcro)
  345     dE    -4.332452e-07     1.724939e-04                           (NR   MIcro)
  345     dE    -6.993535e-07     2.495722e-04                           (NR   MIcro)
  345     dE    -8.333147e-07     1.153365e-04                           (NR   MIcro)
  345     dE    -8.881459e-07     1.259184e-04                           (NR   MIcro)
  345     dE    -1.461120e-06     7.700349e-04                           (NR   MIcro)
  345     dE     1.681506e-05     5.666656e-03                           (NR   MIcro)
  345     dE     2.989056e-06     5.913220e-04                           (NR   MIcro)
  345     dE     2.150037e-06     4.096719e-04                           (NR   MIcro)
  345     dE     1.263630e-06     4.913455e-04                           (NR   MIcro)
  345     dE     6.792770e-07     4.634653e-04                           (NR   MIcro)
  345     dE     1.139140e-07     4.155129e-04                           (NR   MIcro)
  345     dE    -3.322515e-07     2.901281e-04                           (NR   MIcro)
  345     dE    -3.700094e-07     4.781373e-05                           (NR   MIcro)
  345     dE    -3.846941e-07     8.748620e-05                           (NR   MIcro)
  345     dE    -4.741385e-07     2.535266e-04                           (NR   MIcro)
  345     dE    -7.636335e-07     2.490649e-04                           (NR   MIcro)
  345     dE    -8.930845e-07     1.297482e-04                           (NR   MIcro)
  345     dE    -9.513860e-07     9.773557e-05                           (NR   MIcro)
  346       -295.077918101620     1.491706e-04                     0.116 (TRAH MAcro)   No
  346     dE    -2.996732e-08     5.302519e-05    -2.9967e-08      0.000 (TRAH MIcro)
  346     dE    -4.322645e-08     6.785176e-05    -4.3226e-08      0.001 (TRAH MIcro)
  346     dE    -7.697983e-08     9.638798e-05    -7.6979e-08      0.002 (TRAH MIcro)
  346     dE    -1.135938e-07     1.077839e-04    -1.1359e-07      0.004 (TRAH MIcro)
  346     dE    -1.959768e-07     1.743210e-04    -1.9596e-07      0.009 (TRAH MIcro)
  346     dE    -3.048715e-07     1.399883e-04    -3.0479e-07      0.016 (TRAH MIcro)
  346     dE    -3.379267e-07     5.116347e-05    -3.3781e-07      0.018 (TRAH MIcro)
  346     dE    -3.445076e-07     5.268854e-05    -3.4439e-07      0.019 (TRAH MIcro)
  346     dE    -3.675516e-07     1.328932e-04    -3.6740e-07      0.020 (TRAH MIcro)
  346     dE    -7.206602e-07     5.909213e-04    -7.1875e-07      0.052 (TRAH MIcro)
  346     dE    -2.961016e-06     6.436081e-04    -1.2503e-04      0.116 (TRAH MIcro)
  346     dE    -2.501190e-06     3.299943e-04    -2.4344e-04      0.082 (TRAH MIcro)
  346     dE    -4.623020e-06     5.247837e-04    -2.9687e-04      0.109 (TRAH MIcro)
  346     dE    -5.669819e-06     3.860559e-04    -3.3785e-04      0.116 (TRAH MIcro)
  346     dE    -6.735507e-06     7.998914e-04    -4.2153e-04      0.116 (TRAH MIcro)
  346     dE    -2.523318e-06     1.773093e-04    -5.7630e-04      0.058 (TRAH MIcro)
  346     dE    -2.732932e-06     9.374374e-05    -5.8680e-04      0.061 (TRAH MIcro)
  346     dE    -3.231220e-06     3.665283e-04    -6.0863e-04      0.066 (TRAH MIcro)
  346     dE    -6.478334e-06     4.274406e-04    -6.9674e-04      0.091 (TRAH MIcro)
  346     dE    -8.094227e-06     2.123904e-04    -7.2460e-04      0.101 (TRAH MIcro)
  346     dE    -8.449945e-06     9.601019e-05    -7.3001e-04      0.103 (TRAH MIcro)
  346     dE    -8.772340e-06     1.251574e-04    -7.3466e-04      0.105 (TRAH MIcro)
  346     dE    -9.177367e-06     1.399986e-04    -7.4013e-04      0.107 (TRAH MIcro)
 ---------------------------------
          TRAH Step control 
 ---------------------------------
  predicted energy change =    -9.177367426554e-06
  actual energy  change   =     1.144063219272e-06
  energy change ratio     = -0.124661
  old trust radius        = 0.116298
  new trust radius        = 0.077920
  reject step?            = YES
  347       -295.077916957557     1.491706e-04                     0.078 (TRAH MAcro)  Yes
  348       -295.077916957557     6.765635e-04                     0.078 (TRAH MAcro)   No
  348     dE    -4.376707e-07     1.104585e-04    -4.3767e-07      0.001 (TRAH MIcro)
  348     dE    -4.713759e-07     8.992313e-05    -4.7138e-07      0.001 (TRAH MIcro)
  348     dE    -5.709643e-07     1.468995e-04    -5.7096e-07      0.003 (TRAH MIcro)
  348     dE    -6.582817e-07     1.778841e-04    -6.5826e-07      0.006 (TRAH MIcro)
  348     dE    -8.678328e-07     2.674062e-04    -8.6768e-07      0.013 (TRAH MIcro)
  348     dE    -1.119004e-06     1.837590e-04    -1.1184e-06      0.023 (TRAH MIcro)
  348     dE    -1.174902e-06     6.527351e-05    -1.1742e-06      0.025 (TRAH MIcro)
  349       -295.077918106725     8.552353e-05                           (NR   MAcro)
  349     dE    -1.635747e-08     5.710877e-05                           (NR   MIcro)
  349     dE    -4.531478e-08     1.181208e-04                           (NR   MIcro)
  349     dE    -1.160810e-07     1.105830e-04                           (NR   MIcro)
  349     dE    -1.475950e-07     6.884038e-05                           (NR   MIcro)
  349     dE    -1.706193e-07     7.367410e-05                           (NR   MIcro)
  349     dE    -1.995237e-07     8.946406e-05                           (NR   MIcro)
  349     dE    -2.344768e-07     9.345499e-05                           (NR   MIcro)
  349     dE    -3.117961e-07     1.836044e-04                           (NR   MIcro)
  349     dE    -4.486977e-07     1.493923e-04                           (NR   MIcro)
  349     dE    -4.902098e-07     5.555126e-05                           (NR   MIcro)
  349     dE    -5.224530e-07     1.314640e-04                           (NR   MIcro)
  349     dE    -7.459390e-07     3.522093e-04                           (NR   MIcro)
  349     dE    -4.684339e-06     2.100665e-03                           (NR   MIcro)
  349     dE     3.174708e-06     9.912776e-04                           (NR   MIcro)
  349     dE     1.049672e-06     4.588844e-04                           (NR   MIcro)
  349     dE     7.750292e-07     2.027521e-04                           (NR   MIcro)
  349     dE     6.225745e-07     2.565619e-04                           (NR   MIcro)
  349     dE     1.870005e-07     4.311731e-04                           (NR   MIcro)
  349     dE     9.725130e-08     6.429061e-05                           (NR   MIcro)
  349     dE     9.123687e-08     3.273613e-05                           (NR   MIcro)
  349     dE     8.899210e-08     3.033663e-05                           (NR   MIcro)
  349     dE     8.038840e-08     7.657420e-05                           (NR   MIcro)
  349     dE     5.367181e-08     8.565188e-05                           (NR   MIcro)
  349     dE     3.602405e-08     5.760075e-05                           (NR   MIcro)
  350       -295.077917765732     9.863858e-05                           (NR   MAcro)
  350     dE    -1.818602e-08     5.211721e-05                           (NR   MIcro)
  350     dE    -3.542661e-08     8.435532e-05                           (NR   MIcro)
  350     dE    -6.568194e-08     7.182985e-05                           (NR   MIcro)
  350     dE    -1.050778e-07     1.563224e-04                           (NR   MIcro)
  350     dE    -3.951728e-07     3.762667e-04                           (NR   MIcro)
  350     dE    -6.066730e-07     1.346671e-04                           (NR   MIcro)
  350     dE    -6.601444e-07     9.202295e-05                           (NR   MIcro)
  350     dE    -7.105822e-07     1.756161e-04                           (NR   MIcro)
  350     dE    -1.050762e-06     5.788795e-04                           (NR   MIcro)
  350     dE    -3.757617e-06     7.017931e-04                           (NR   MIcro)
  350     dE    -7.129295e-06     1.755630e-03                           (NR   MIcro)
  350     dE    -8.304647e-05     1.449231e-02                           (NR   MIcro)
  350     dE     1.240215e-05     2.539502e-03                           (NR   MIcro)
  350     dE     3.242143e-06     9.551762e-04                           (NR   MIcro)
  350     dE     1.617497e-06     4.572724e-04                           (NR   MIcro)
  350     dE     1.417815e-06     1.443095e-04                           (NR   MIcro)
  350     dE     1.347819e-06     1.496294e-04                           (NR   MIcro)
  350     dE     1.174509e-06     3.492733e-04                           (NR   MIcro)
  350     dE     1.034265e-06     1.141077e-04                           (NR   MIcro)
  350     dE     1.000562e-06     9.487445e-05                           (NR   MIcro)
  350     dE     9.762814e-07     8.119842e-05                           (NR   MIcro)
  350     dE     9.561907e-07     6.138996e-05                           (NR   MIcro)
  350     dE     9.382759e-07     9.125974e-05                           (NR   MIcro)
  350     dE     8.261362e-07     2.287640e-04                           (NR   MIcro)
  351       -295.077914497634     4.019383e-04                     0.094 (TRAH MAcro)   No
  351     dE    -1.976639e-07     1.118513e-04    -1.9766e-07      0.001 (TRAH MIcro)
  351     dE    -2.488104e-07     1.336312e-04    -2.4881e-07      0.001 (TRAH MIcro)
  351     dE    -4.827038e-07     3.291230e-04    -4.8268e-07      0.007 (TRAH MIcro)
  351     dE    -8.463968e-07     2.561179e-04    -8.4618e-07      0.016 (TRAH MIcro)
  351     dE    -1.205467e-06     2.675102e-04    -1.2047e-06      0.026 (TRAH MIcro)
  351     dE    -1.463322e-06     2.294418e-04    -1.4618e-06      0.033 (TRAH MIcro)
  351     dE    -1.630754e-06     1.399809e-04    -1.6285e-06      0.037 (TRAH MIcro)
  351     dE    -1.738243e-06     1.960361e-04    -1.7354e-06      0.040 (TRAH MIcro)
  351     dE    -2.178019e-06     5.133311e-04    -2.1717e-06      0.054 (TRAH MIcro)
  351     dE    -3.985753e-06     3.972856e-04    -8.4315e-05      0.094 (TRAH MIcro)
  351     dE    -4.263175e-06     1.629892e-04    -1.2059e-04      0.094 (TRAH MIcro)
  351     dE    -4.403869e-06     2.108938e-04    -1.3912e-04      0.094 (TRAH MIcro)
  351     dE    -4.646266e-06     2.305517e-04    -1.7139e-04      0.094 (TRAH MIcro)
  351     dE    -4.524195e-06     1.609495e-04    -2.2360e-04      0.086 (TRAH MIcro)
  351     dE    -4.940216e-06     2.657341e-04    -2.3282e-04      0.091 (TRAH MIcro)
  351     dE    -5.186585e-06     1.222576e-04    -2.4638e-04      0.094 (TRAH MIcro)
  351     dE    -5.224152e-06     9.206731e-05    -2.5181e-04      0.094 (TRAH MIcro)
  351     dE    -5.342393e-06     3.459657e-04    -2.6918e-04      0.094 (TRAH MIcro)
  351     dE    -5.594113e-06     1.834515e-04    -3.0817e-04      0.094 (TRAH MIcro)
  351     dE    -5.641522e-06     8.112339e-05    -3.1581e-04      0.094 (TRAH MIcro)
  351     dE    -5.651147e-06     5.146512e-05    -3.1736e-04      0.094 (TRAH MIcro)
  351     dE    -5.665993e-06     8.288529e-05    -3.1976e-04      0.094 (TRAH MIcro)
  351     dE    -5.667542e-06     1.402563e-04    -3.2818e-04      0.093 (TRAH MIcro)
  352       -295.077917448930     4.569710e-04                     0.094 (TRAH MAcro)   No
  352     dE    -1.944317e-07     7.168831e-05    -1.9443e-07      0.001 (TRAH MIcro)
  352     dE    -2.131144e-07     7.568763e-05    -2.1311e-07      0.001 (TRAH MIcro)
  352     dE    -2.638342e-07     1.236181e-04    -2.6383e-07      0.002 (TRAH MIcro)
  352     dE    -3.138856e-07     1.395972e-04    -3.1388e-07      0.005 (TRAH MIcro)
  352     dE    -4.104461e-07     1.916647e-04    -4.1041e-07      0.009 (TRAH MIcro)
  352     dE    -5.715286e-07     1.833380e-04    -5.7136e-07      0.017 (TRAH MIcro)
  352     dE    -6.072457e-07     5.237336e-05    -6.0703e-07      0.019 (TRAH MIcro)
  352     dE    -6.170577e-07     5.911702e-05    -6.1683e-07      0.019 (TRAH MIcro)
  352     dE    -6.480761e-07     1.406845e-04    -6.4779e-07      0.021 (TRAH MIcro)
  352     dE    -7.349337e-07     1.547459e-04    -7.3442e-07      0.026 (TRAH MIcro)
  352     dE    -7.797944e-07     7.535462e-05    -7.7912e-07      0.029 (TRAH MIcro)
  352     dE    -8.017243e-07     8.613222e-05    -8.0095e-07      0.031 (TRAH MIcro)
  352     dE    -8.326346e-07     1.027955e-04    -8.3171e-07      0.033 (TRAH MIcro)
  352     dE    -8.675679e-07     1.248275e-04    -8.6645e-07      0.036 (TRAH MIcro)
  352     dE    -9.576269e-07     1.903948e-04    -9.5583e-07      0.043 (TRAH MIcro)
  352     dE    -1.063710e-06     1.432669e-04    -1.0608e-06      0.053 (TRAH MIcro)
  352     dE    -1.093126e-06     8.015587e-05    -1.0898e-06      0.055 (TRAH MIcro)
  352     dE    -1.135960e-06     1.593045e-04    -1.1320e-06      0.059 (TRAH MIcro)
  352     dE    -1.360240e-06     3.678002e-04    -1.3514e-06      0.081 (TRAH MIcro)
  352     dE    -1.505065e-06     9.312221e-05    -4.0328e-06      0.094 (TRAH MIcro)
  352     dE    -1.526515e-06     6.988376e-05    -6.9736e-06      0.094 (TRAH MIcro)
  352     dE    -1.544692e-06     5.915418e-05    -9.4727e-06      0.094 (TRAH MIcro)
  352     dE    -1.556783e-06     5.366427e-05    -1.1139e-05      0.094 (TRAH MIcro)
  353       -295.077918776963     3.572527e-04                     0.112 (TRAH MAcro)   No
  353     dE    -1.218104e-07     5.309249e-05    -1.2181e-07      0.000 (TRAH MIcro)
  353     dE    -1.328758e-07     5.814790e-05    -1.3288e-07      0.001 (TRAH MIcro)
  353     dE    -1.964688e-07     1.675283e-04    -1.9647e-07      0.004 (TRAH MIcro)
  353     dE    -2.825993e-07     1.193790e-04    -2.8258e-07      0.008 (TRAH MIcro)
  353     dE    -3.607879e-07     1.623699e-04    -3.6074e-07      0.012 (TRAH MIcro)
  353     dE    -4.681752e-07     9.436108e-05    -4.6802e-07      0.018 (TRAH MIcro)
  353     dE    -4.870471e-07     4.360677e-05    -4.8687e-07      0.019 (TRAH MIcro)
  353     dE    -4.952758e-07     4.450300e-05    -4.9509e-07      0.020 (TRAH MIcro)
  353     dE    -5.176130e-07     9.709430e-05    -5.1739e-07      0.021 (TRAH MIcro)
  353     dE    -5.550234e-07     6.406359e-05    -5.5472e-07      0.023 (TRAH MIcro)
  353     dE    -5.666949e-07     3.313749e-05    -5.6636e-07      0.024 (TRAH MIcro)
  354       -295.077919156272     5.497798e-05                           (NR   MAcro)
  354     dE    -1.277387e-08     6.772048e-05                           (NR   MIcro)
  354     dE    -4.672201e-08     1.189967e-04                           (NR   MIcro)
  354     dE    -1.072747e-07     9.713502e-05                           (NR   MIcro)
  354     dE    -1.586923e-07     1.294782e-04                           (NR   MIcro)
  354     dE    -2.279629e-07     9.721659e-05                           (NR   MIcro)
  354     dE    -2.494164e-07     5.434972e-05                           (NR   MIcro)
  354     dE    -2.649078e-07     7.616200e-05                           (NR   MIcro)
  354     dE    -3.069369e-07     1.152111e-04                           (NR   MIcro)
  354     dE    -3.311506e-07     4.047427e-05                           (NR   MIcro)
  354     dE    -3.342680e-07     1.693329e-05                           (NR   MIcro)
  354     dE    -3.362118e-07     2.237969e-05                           (NR   MIcro)
  354     dE    -3.386225e-07     2.492653e-05                           (NR   MIcro)
  354     dE    -3.424743e-07     3.749938e-05                           (NR   MIcro)
  354     dE    -3.533401e-07     7.315162e-05                           (NR   MIcro)
  354     dE    -3.910412e-07     1.005637e-04                           (NR   MIcro)
  354     dE    -4.052629e-07     3.441427e-05                           (NR   MIcro)
  354     dE    -4.098158e-07     4.159791e-05                           (NR   MIcro)
  354     dE    -4.866147e-07     3.930680e-04                           (NR   MIcro)
  354     dE    -9.805762e-07     3.840109e-04                           (NR   MIcro)
  354     dE    -1.321815e-06     3.411382e-04                           (NR   MIcro)
  354     dE    -1.913328e-06     8.583521e-04                           (NR   MIcro)
  354     dE     2.240985e-07     5.312865e-04                           (NR   MIcro)
  354     dE    -2.168554e-07     2.255943e-04                           (NR   MIcro)
  354     dE    -3.252124e-07     1.232864e-04                           (NR   MIcro)
  355       -295.077919291487     1.309265e-04                     0.112 (TRAH MAcro)   No
  355     dE    -3.351084e-08     7.626747e-05    -3.3511e-08      0.000 (TRAH MIcro)
  355     dE    -5.325522e-08     6.620203e-05    -5.3255e-08      0.001 (TRAH MIcro)
  355     dE    -6.966486e-08     7.131270e-05    -6.9665e-08      0.001 (TRAH MIcro)
  355     dE    -8.451154e-08     6.282947e-05    -8.4511e-08      0.002 (TRAH MIcro)
  355     dE    -1.296149e-07     1.932678e-04    -1.2961e-07      0.005 (TRAH MIcro)
  355     dE    -2.510004e-07     1.485482e-04    -2.5095e-07      0.014 (TRAH MIcro)
  355     dE    -2.875433e-07     5.944496e-05    -2.8746e-07      0.017 (TRAH MIcro)
  355     dE    -2.908301e-07     1.782898e-05    -2.9075e-07      0.017 (TRAH MIcro)
  355     dE    -2.929207e-07     3.636997e-05    -2.9284e-07      0.017 (TRAH MIcro)
  355     dE    -3.074415e-07     8.337862e-05    -3.0734e-07      0.018 (TRAH MIcro)
  355     dE    -3.190448e-07     4.203315e-05    -3.1892e-07      0.019 (TRAH MIcro)
  355     dE    -3.253175e-07     4.904593e-05    -3.2519e-07      0.020 (TRAH MIcro)
  355     dE    -3.339053e-07     4.580779e-05    -3.3376e-07      0.021 (TRAH MIcro)
  355     dE    -3.393834e-07     3.492343e-05    -3.3922e-07      0.022 (TRAH MIcro)
  355     dE    -3.537246e-07     1.081743e-04    -3.5353e-07      0.024 (TRAH MIcro)
  355     dE    -5.068000e-07     3.593449e-04    -5.0555e-07      0.050 (TRAH MIcro)
  355     dE    -1.220415e-06     4.190621e-04    -3.4140e-05      0.112 (TRAH MIcro)
  355     dE    -1.548300e-06     3.539569e-04    -6.2252e-05      0.112 (TRAH MIcro)
  355     dE    -1.464480e-06     3.438322e-04    -1.5155e-04      0.078 (TRAH MIcro)
  355     dE    -3.181290e-06     4.123658e-04    -2.0142e-04      0.112 (TRAH MIcro)
  355     dE    -3.501344e-06     2.264923e-04    -2.2855e-04      0.112 (TRAH MIcro)
  355     dE    -3.716068e-06     2.441906e-04    -2.4673e-04      0.112 (TRAH MIcro)
  355     dE    -3.935829e-06     2.418361e-04    -2.6533e-04      0.112 (TRAH MIcro)
 ---------------------------------
          TRAH Step control 
 ---------------------------------
  predicted energy change =    -3.935829047977e-06
  actual energy  change   =     5.622181902254e-07
  energy change ratio     = -0.142846
  old trust radius        = 0.112204
  new trust radius        = 0.075177
  reject step?            = YES
  356       -295.077918729269     1.309265e-04                     0.075 (TRAH MAcro)  Yes
  357       -295.077918729269     4.663482e-04                     0.075 (TRAH MAcro)   No
  357     dE    -2.421289e-07     1.295457e-04    -2.4213e-07      0.001 (TRAH MIcro)
  357     dE    -3.122725e-07     1.588932e-04    -3.1227e-07      0.001 (TRAH MIcro)
  357     dE    -4.676378e-07     1.559286e-04    -4.6763e-07      0.004 (TRAH MIcro)
  357     dE    -5.421319e-07     1.517122e-04    -5.4211e-07      0.006 (TRAH MIcro)
  357     dE    -6.804542e-07     2.279269e-04    -6.8039e-07      0.010 (TRAH MIcro)
  357     dE    -7.689415e-07     8.980352e-05    -7.6882e-07      0.013 (TRAH MIcro)
  357     dE    -7.907112e-07     6.789668e-05    -7.9057e-07      0.013 (TRAH MIcro)
  357     dE    -8.377995e-07     1.790701e-04    -8.3761e-07      0.015 (TRAH MIcro)
  357     dE    -1.018001e-06     2.078622e-04    -1.0175e-06      0.023 (TRAH MIcro)
  357     dE    -1.113815e-06     1.057087e-04    -1.1130e-06      0.027 (TRAH MIcro)
  357     dE    -1.175710e-06     1.801072e-04    -1.1746e-06      0.031 (TRAH MIcro)
  357     dE    -1.330489e-06     2.244238e-04    -1.3285e-06      0.039 (TRAH MIcro)
  357     dE    -1.645358e-06     4.003976e-04    -1.6401e-06      0.057 (TRAH MIcro)
  357     dE    -3.010803e-06     8.035774e-04    -2.1523e-04      0.075 (TRAH MIcro)
  357     dE    -3.189575e-06     2.320264e-04    -4.1591e-04      0.064 (TRAH MIcro)
  357     dE    -3.628367e-06     1.671207e-04    -4.3198e-04      0.069 (TRAH MIcro)
  357     dE    -3.968506e-06     2.490504e-04    -4.4310e-04      0.073 (TRAH MIcro)
  357     dE    -4.799240e-06     6.922847e-04    -5.7957e-04      0.075 (TRAH MIcro)
  357     dE    -1.749896e-06     7.202051e-05    -9.5006e-04      0.030 (TRAH MIcro)
  357     dE    -1.798173e-06     3.202332e-05    -9.5423e-04      0.030 (TRAH MIcro)
  358       -295.077919764847     8.167166e-05                           (NR   MAcro)
  358     dE    -1.126160e-08     3.496394e-05                           (NR   MIcro)
  358     dE    -2.151704e-08     7.257838e-05                           (NR   MIcro)
  358     dE    -5.878821e-08     8.718891e-05                           (NR   MIcro)
  358     dE    -8.686923e-08     9.649402e-05                           (NR   MIcro)
  358     dE    -1.322643e-07     1.025353e-04                           (NR   MIcro)
  358     dE    -1.513569e-07     3.687835e-05                           (NR   MIcro)
  358     dE    -1.554341e-07     2.862539e-05                           (NR   MIcro)
  358     dE    -1.622921e-07     5.307698e-05                           (NR   MIcro)
  358     dE    -1.779701e-07     6.204939e-05                           (NR   MIcro)
  358     dE    -1.862336e-07     2.491294e-05                           (NR   MIcro)
  358     dE    -1.894529e-07     3.126847e-05                           (NR   MIcro)
  358     dE    -1.946051e-07     4.143811e-05                           (NR   MIcro)
  358     dE    -2.052025e-07     5.416972e-05                           (NR   MIcro)
  358     dE    -2.213849e-07     8.960111e-05                           (NR   MIcro)
  358     dE    -2.552013e-07     8.975315e-05                           (NR   MIcro)
  358     dE    -2.792085e-07     7.453352e-05                           (NR   MIcro)
  358     dE    -3.122060e-07     1.422685e-04                           (NR   MIcro)
  358     dE    -6.210515e-08     4.650979e-04                           (NR   MIcro)
  358     dE    -1.325182e-07     5.699247e-05                           (NR   MIcro)
  358     dE    -1.361561e-07     2.384160e-05                           (NR   MIcro)
  358     dE    -1.393078e-07     5.498901e-05                           (NR   MIcro)
  358     dE    -1.479821e-07     3.342249e-05                           (NR   MIcro)
  358     dE    -1.566923e-07     6.924693e-05                           (NR   MIcro)
  358     dE    -1.810168e-07     6.371579e-05                           (NR   MIcro)
  359       -295.077920013959     7.160389e-05                           (NR   MAcro)
  359     dE    -1.038947e-08     3.616441e-05                           (NR   MIcro)
  359     dE    -1.648059e-08     3.970840e-05                           (NR   MIcro)
  359     dE    -3.886101e-08     1.124497e-04                           (NR   MIcro)
  359     dE    -8.189888e-08     9.633442e-05                           (NR   MIcro)
  359     dE    -1.266605e-07     1.185938e-04                           (NR   MIcro)
  359     dE    -1.755649e-07     9.481897e-05                           (NR   MIcro)
  359     dE    -1.953956e-07     4.039561e-05                           (NR   MIcro)
  359     dE    -1.985713e-07     2.749348e-05                           (NR   MIcro)
  359     dE    -2.069614e-07     8.398335e-05                           (NR   MIcro)
  359     dE     1.150728e-06     2.694899e-03                           (NR   MIcro)
  359     dE    -2.434383e-08     1.205940e-04                           (NR   MIcro)
  359     dE    -5.493519e-08     7.768654e-05                           (NR   MIcro)
  359     dE    -7.320664e-08     6.150681e-05                           (NR   MIcro)
  359     dE    -7.966776e-08     3.256560e-05                           (NR   MIcro)
  359     dE    -8.921705e-08     7.706208e-05                           (NR   MIcro)
  359     dE    -1.040243e-07     5.408732e-05                           (NR   MIcro)
  359     dE    -1.077950e-07     2.548615e-05                           (NR   MIcro)
  359     dE    -1.107407e-07     5.281049e-05                           (NR   MIcro)
  359     dE    -1.279286e-07     7.635852e-05                           (NR   MIcro)
  359     dE    -1.424118e-07     5.594103e-05                           (NR   MIcro)
  359     dE    -1.473605e-07     2.495582e-05                           (NR   MIcro)
  359     dE    -1.496124e-07     2.271084e-05                           (NR   MIcro)
  359     dE    -1.511585e-07     1.775221e-05                           (NR   MIcro)
  359     dE    -1.524745e-07     1.998079e-05                           (NR   MIcro)
  360       -295.077920209147     3.281503e-05                           (NR   MAcro)
  360     dE    -5.574076e-09     4.778189e-05                           (NR   MIcro)
  360     dE    -2.374235e-08     9.120420e-05                           (NR   MIcro)
  360     dE    -6.159473e-08     8.455652e-05                           (NR   MIcro)
  360     dE    -9.441804e-08     9.986234e-05                           (NR   MIcro)
  360     dE    -1.308563e-07     7.529533e-05                           (NR   MIcro)
  360     dE    -1.415480e-07     3.129612e-05                           (NR   MIcro)
  360     dE    -1.436029e-07     1.659648e-05                           (NR   MIcro)
  360     dE    -1.459541e-07     3.496305e-05                           (NR   MIcro)
  360     dE    -1.550455e-07     6.081267e-05                           (NR   MIcro)
  360     dE    -1.665840e-07     3.255280e-05                           (NR   MIcro)
  360     dE    -1.743467e-07     5.485353e-05                           (NR   MIcro)
  360     dE    -1.939970e-07     8.731371e-05                           (NR   MIcro)
  360     dE    -2.735447e-07     2.090128e-04                           (NR   MIcro)
  360     dE     7.599320e-07     1.387410e-03                           (NR   MIcro)
  360     dE    -4.237352e-08     1.206387e-04                           (NR   MIcro)
  360     dE    -5.783431e-08     4.247075e-05                           (NR   MIcro)
  360     dE    -6.555859e-08     5.655729e-05                           (NR   MIcro)
  360     dE    -1.047199e-07     1.732609e-04                           (NR   MIcro)
  360     dE    -1.322652e-07     4.798503e-05                           (NR   MIcro)
  360     dE    -1.353082e-07     2.267815e-05                           (NR   MIcro)
  360     dE    -1.371546e-07     3.082788e-05                           (NR   MIcro)
  360     dE    -1.390342e-07     1.664823e-05                           (NR   MIcro)
  360     dE    -1.407502e-07     3.027304e-05                           (NR   MIcro)
  360     dE    -1.481491e-07     6.307324e-05                           (NR   MIcro)
  361       -295.077920375251     6.801293e-05                           (NR   MAcro)
  361     dE    -8.501240e-09     3.593804e-05                           (NR   MIcro)
  361     dE    -1.561472e-08     4.820636e-05                           (NR   MIcro)
  361     dE    -4.147694e-08     1.289305e-04                           (NR   MIcro)
  361     dE    -8.298416e-08     9.424896e-05                           (NR   MIcro)
  361     dE    -1.310009e-07     1.544564e-04                           (NR   MIcro)
  361     dE    -1.924974e-07     9.518466e-05                           (NR   MIcro)
  361     dE    -2.089448e-07     4.055353e-05                           (NR   MIcro)
  361     dE    -2.128624e-07     3.708139e-05                           (NR   MIcro)
  361     dE    -2.260528e-07     1.029738e-04                           (NR   MIcro)
  361     dE     6.329247e-07     1.766162e-03                           (NR   MIcro)
  361     dE    -9.737212e-09     1.265715e-04                           (NR   MIcro)
  361     dE    -4.365938e-08     9.022227e-05                           (NR   MIcro)
  361     dE    -6.555423e-08     7.049804e-05                           (NR   MIcro)
  361     dE    -7.476378e-08     4.299596e-05                           (NR   MIcro)
  361     dE    -8.839743e-08     8.189963e-05                           (NR   MIcro)
  361     dE    -1.035572e-07     4.181218e-05                           (NR   MIcro)
  361     dE    -1.063824e-07     2.056738e-05                           (NR   MIcro)
  361     dE    -1.096352e-07     5.038384e-05                           (NR   MIcro)
  361     dE    -1.253871e-07     6.793351e-05                           (NR   MIcro)
  361     dE    -1.360718e-07     4.260329e-05                           (NR   MIcro)
  361     dE    -1.398415e-07     2.343237e-05                           (NR   MIcro)
  361     dE    -1.424089e-07     2.454159e-05                           (NR   MIcro)
  361     dE    -1.446391e-07     2.295620e-05                           (NR   MIcro)
  361     dE    -1.471473e-07     2.929335e-05                           (NR   MIcro)
  362       -295.077920525922     4.197480e-05                           (NR   MAcro)
  362     dE    -5.860886e-09     3.954572e-05                           (NR   MIcro)
  362     dE    -1.674871e-08     6.549126e-05                           (NR   MIcro)
  362     dE    -3.915807e-08     6.917478e-05                           (NR   MIcro)
  362     dE    -6.667970e-08     9.910922e-05                           (NR   MIcro)
  362     dE    -1.119713e-07     9.751422e-05                           (NR   MIcro)
  362     dE    -1.315160e-07     4.144080e-05                           (NR   MIcro)
  362     dE    -1.352145e-07     2.203282e-05                           (NR   MIcro)
  362     dE    -1.390910e-07     4.316451e-05                           (NR   MIcro)
  362     dE    -1.508662e-07     6.059833e-05                           (NR   MIcro)
  362     dE    -1.601241e-07     2.716812e-05                           (NR   MIcro)
  362     dE    -1.645981e-07     3.728233e-05                           (NR   MIcro)
  362     dE    -1.736272e-07     5.582097e-05                           (NR   MIcro)
  362     dE    -1.928093e-07     7.867001e-05                           (NR   MIcro)
  362     dE    -2.491068e-07     1.966317e-04                           (NR   MIcro)
  362     dE     3.697112e-07     6.396997e-04                           (NR   MIcro)
  362     dE     8.939014e-08     1.418229e-04                           (NR   MIcro)
  362     dE     2.134494e-08     1.422970e-04                           (NR   MIcro)
  362     dE    -7.970888e-08     1.862582e-04                           (NR   MIcro)
  362     dE    -1.063101e-07     4.371445e-05                           (NR   MIcro)
  362     dE    -1.088704e-07     2.046074e-05                           (NR   MIcro)
  362     dE    -1.118899e-07     4.894076e-05                           (NR   MIcro)
  362     dE    -1.165304e-07     3.474957e-05                           (NR   MIcro)
  362     dE    -1.236005e-07     6.178861e-05                           (NR   MIcro)
  362     dE    -1.416466e-07     9.114417e-05                           (NR   MIcro)
  363       -295.077920648065     9.567203e-05                           (NR   MAcro)
  363     dE    -1.298547e-08     4.139756e-05                           (NR   MIcro)
  363     dE    -2.016524e-08     4.608935e-05                           (NR   MIcro)
  363     dE    -3.837958e-08     1.181316e-04                           (NR   MIcro)
  363     dE    -6.822289e-08     8.316002e-05                           (NR   MIcro)
  363     dE    -1.116700e-07     1.777550e-04                           (NR   MIcro)
  363     dE    -2.054275e-07     1.414062e-04                           (NR   MIcro)
  363     dE    -2.311809e-07     5.106160e-05                           (NR   MIcro)
  363     dE    -2.367688e-07     4.310147e-05                           (NR   MIcro)
  363     dE    -2.534410e-07     1.040005e-04                           (NR   MIcro)
  363     dE    -6.748099e-07     9.162851e-04                           (NR   MIcro)
  363     dE     4.187264e-07     4.297498e-04                           (NR   MIcro)
  363     dE     1.251049e-07     2.220203e-04                           (NR   MIcro)
  363     dE     1.652002e-08     1.362804e-04                           (NR   MIcro)
  363     dE    -2.447270e-08     9.538379e-05                           (NR   MIcro)
  363     dE    -7.087789e-08     1.150698e-04                           (NR   MIcro)
  363     dE    -9.775373e-08     4.897242e-05                           (NR   MIcro)
  363     dE    -1.017652e-07     2.262732e-05                           (NR   MIcro)
  363     dE    -1.056156e-07     4.752884e-05                           (NR   MIcro)
  363     dE    -1.203250e-07     5.970576e-05                           (NR   MIcro)
  363     dE    -1.281284e-07     3.255285e-05                           (NR   MIcro)
  363     dE    -1.309790e-07     2.268827e-05                           (NR   MIcro)
  363     dE    -1.342257e-07     2.954804e-05                           (NR   MIcro)
  363     dE    -1.377726e-07     3.049507e-05                           (NR   MIcro)
  363     dE    -1.431418e-07     4.620686e-05                           (NR   MIcro)
  364       -295.077920779812     5.675915e-05                           (NR   MAcro)
  364     dE    -7.673542e-09     3.706456e-05                           (NR   MIcro)
  364     dE    -1.502226e-08     4.887487e-05                           (NR   MIcro)
  364     dE    -2.722080e-08     5.002926e-05                           (NR   MIcro)
  364     dE    -4.372949e-08     8.002252e-05                           (NR   MIcro)
  364     dE    -8.475045e-08     1.138639e-04                           (NR   MIcro)
  364     dE    -1.172961e-07     5.757536e-05                           (NR   MIcro)
  364     dE    -1.237294e-07     2.863604e-05                           (NR   MIcro)
  364     dE    -1.299517e-07     5.505483e-05                           (NR   MIcro)
  364     dE    -1.498808e-07     7.652494e-05                           (NR   MIcro)
  364     dE    -1.658259e-07     3.943512e-05                           (NR   MIcro)
  364     dE    -1.733241e-07     4.771944e-05                           (NR   MIcro)
  364     dE    -1.875085e-07     7.171080e-05                           (NR   MIcro)
  364     dE    -2.166517e-07     1.026306e-04                           (NR   MIcro)
  364     dE    -3.419807e-07     3.584180e-04                           (NR   MIcro)
  364     dE     9.694203e-08     2.705926e-04                           (NR   MIcro)
  364     dE     2.186496e-08     7.815078e-05                           (NR   MIcro)
  364     dE     7.847744e-10     8.486881e-05                           (NR   MIcro)
  364     dE    -5.512112e-08     1.833616e-04                           (NR   MIcro)
  364     dE    -8.775204e-08     5.373967e-05                           (NR   MIcro)
  364     dE    -9.103419e-08     2.176877e-05                           (NR   MIcro)
  364     dE    -9.384499e-08     4.416237e-05                           (NR   MIcro)
  364     dE    -9.719533e-08     2.950930e-05                           (NR   MIcro)
  364     dE    -1.021761e-07     5.090702e-05                           (NR   MIcro)
  364     dE    -1.193617e-07     1.090003e-04                           (NR   MIcro)
  365       -295.077920872165     1.133721e-04                     0.075 (TRAH MAcro)   No
  365     dE    -1.633355e-08     4.430551e-05    -1.6334e-08      0.000 (TRAH MIcro)
  365     dE    -2.359270e-08     4.459468e-05    -2.3593e-08      0.000 (TRAH MIcro)
  365     dE    -3.778598e-08     1.042518e-04    -3.7786e-08      0.001 (TRAH MIcro)
  365     dE    -6.038925e-08     7.277845e-05    -6.0389e-08      0.003 (TRAH MIcro)
  365     dE    -9.584807e-08     1.690834e-04    -9.5844e-08      0.006 (TRAH MIcro)
  365     dE    -2.040198e-07     1.778103e-04    -2.0397e-07      0.016 (TRAH MIcro)
  365     dE    -2.398590e-07     5.929573e-05    -2.3977e-07      0.019 (TRAH MIcro)
  365     dE    -2.485904e-07     5.601658e-05    -2.4849e-07      0.020 (TRAH MIcro)
  365     dE    -2.801634e-07     1.382815e-04    -2.8002e-07      0.023 (TRAH MIcro)
  365     dE    -8.007607e-07     8.084753e-04    -4.7615e-06      0.075 (TRAH MIcro)
  365     dE    -1.391164e-06     3.080454e-04    -1.7389e-04      0.066 (TRAH MIcro)
  365     dE    -2.014621e-06     3.666066e-04    -2.3675e-04      0.075 (TRAH MIcro)
  365     dE    -1.157669e-06     2.030772e-04    -4.0637e-04      0.043 (TRAH MIcro)
  365     dE    -1.660899e-06     2.409574e-04    -4.5306e-04      0.052 (TRAH MIcro)
  365     dE    -3.494039e-06     4.406606e-04    -5.5122e-04      0.073 (TRAH MIcro)
  365     dE    -4.110152e-06     2.190422e-04    -6.3811e-04      0.075 (TRAH MIcro)
  365     dE    -4.192443e-06     1.012351e-04    -6.5381e-04      0.075 (TRAH MIcro)
  365     dE    -4.268062e-06     2.034875e-04    -6.6824e-04      0.075 (TRAH MIcro)
  365     dE    -4.492528e-06     2.089628e-04    -7.1152e-04      0.075 (TRAH MIcro)
  365     dE    -4.391990e-06     9.267605e-05    -7.2882e-04      0.073 (TRAH MIcro)
  365     dE    -4.516534e-06     6.729878e-05    -7.3276e-04      0.074 (TRAH MIcro)
  365     dE    -4.627997e-06     8.731717e-05    -7.3778e-04      0.075 (TRAH MIcro)
  365     dE    -4.658929e-06     8.901555e-05    -7.4384e-04      0.075 (TRAH MIcro)
 ---------------------------------
          TRAH Step control 
 ---------------------------------
  predicted energy change =    -4.658929342163e-06
  actual energy  change   =     3.679150495373e-07
  energy change ratio     = -0.078970
  old trust radius        = 0.075177
  new trust radius        = 0.050368
  reject step?            = YES
  366       -295.077920504250     1.133721e-04                     0.050 (TRAH MAcro)  Yes
  367       -295.077920504250     3.373750e-04                     0.050 (TRAH MAcro)   No
  367     dE    -1.206964e-07     6.931839e-05    -1.2070e-07      0.000 (TRAH MIcro)
  367     dE    -1.396836e-07     7.762473e-05    -1.3968e-07      0.001 (TRAH MIcro)
  367     dE    -1.960385e-07     9.950096e-05    -1.9604e-07      0.003 (TRAH MIcro)
  367     dE    -2.375217e-07     1.153974e-04    -2.3752e-07      0.004 (TRAH MIcro)
  367     dE    -3.659548e-07     2.489403e-04    -3.6591e-07      0.011 (TRAH MIcro)
  367     dE    -5.530841e-07     1.002210e-04    -5.5287e-07      0.020 (TRAH MIcro)
  367     dE    -5.846340e-07     7.246162e-05    -5.8437e-07      0.021 (TRAH MIcro)
  367     dE    -6.329757e-07     1.431388e-04    -6.3262e-07      0.024 (TRAH MIcro)
  367     dE    -8.479543e-07     2.462597e-04    -8.4686e-07      0.036 (TRAH MIcro)
  367     dE    -9.977871e-07     1.131622e-04    -9.9580e-07      0.045 (TRAH MIcro)
  367     dE    -1.093994e-06     1.776686e-04    -1.9976e-06      0.050 (TRAH MIcro)
  367     dE    -1.267849e-06     2.134104e-04    -8.2184e-05      0.050 (TRAH MIcro)
  367     dE    -1.466230e-06     2.071552e-04    -1.7374e-04      0.050 (TRAH MIcro)
  367     dE    -1.863316e-06     3.743005e-04    -3.6505e-04      0.050 (TRAH MIcro)
  367     dE    -1.247836e-06     8.699449e-05    -6.5075e-04      0.031 (TRAH MIcro)
  367     dE    -1.320537e-06     6.143930e-05    -6.6045e-04      0.032 (TRAH MIcro)
  367     dE    -1.387115e-06     8.457311e-05    -6.6867e-04      0.033 (TRAH MIcro)
  367     dE    -1.809762e-06     2.531631e-04    -7.0958e-04      0.040 (TRAH MIcro)
  367     dE    -2.202272e-06     1.025852e-04    -7.3713e-04      0.045 (TRAH MIcro)
  367     dE    -2.262181e-06     4.702153e-05    -7.4078e-04      0.046 (TRAH MIcro)
  367     dE    -2.288372e-06     5.678460e-05    -7.4234e-04      0.046 (TRAH MIcro)
  367     dE    -2.309759e-06     1.814637e-05    -7.4359e-04      0.046 (TRAH MIcro)
  368       -295.077921118058     1.371640e-04                     0.050 (TRAH MAcro)   No
  368     dE    -2.054848e-08     2.073767e-05    -2.0548e-08      0.000 (TRAH MIcro)
  368     dE    -2.337697e-08     3.401867e-05    -2.3377e-08      0.000 (TRAH MIcro)
  368     dE    -4.054013e-08     8.636760e-05    -4.0540e-08      0.002 (TRAH MIcro)
  368     dE    -6.479769e-08     5.822106e-05    -6.4796e-08      0.005 (TRAH MIcro)
  368     dE    -8.263849e-08     7.329023e-05    -8.2635e-08      0.007 (TRAH MIcro)
  368     dE    -1.036121e-07     3.472198e-05    -1.0360e-07      0.009 (TRAH MIcro)
  368     dE    -1.066783e-07     1.690347e-05    -1.0667e-07      0.010 (TRAH MIcro)
  368     dE    -1.082492e-07     2.258092e-05    -1.0824e-07      0.010 (TRAH MIcro)
  368     dE    -1.158348e-07     5.651501e-05    -1.1582e-07      0.011 (TRAH MIcro)
  368     dE    -1.256550e-07     2.864365e-05    -1.2564e-07      0.012 (TRAH MIcro)
  368     dE    -1.287389e-07     1.976748e-05    -1.2872e-07      0.013 (TRAH MIcro)
  368     dE    -1.328051e-07     3.924132e-05    -1.3278e-07      0.013 (TRAH MIcro)
  368     dE    -1.406633e-07     4.388119e-05    -1.4063e-07      0.015 (TRAH MIcro)
  368     dE    -1.541680e-07     7.033947e-05    -1.5412e-07      0.018 (TRAH MIcro)
  368     dE    -1.840691e-07     9.944359e-05    -1.8396e-07      0.024 (TRAH MIcro)
  368     dE    -2.302577e-07     9.124589e-05    -2.2997e-07      0.035 (TRAH MIcro)
  368     dE    -2.634802e-07     1.280923e-04    -2.6299e-07      0.043 (TRAH MIcro)
  368     dE    -4.681449e-07     3.752365e-04    -7.8656e-05      0.050 (TRAH MIcro)
  368     dE    -6.469568e-07     1.861984e-04    -2.2078e-04      0.044 (TRAH MIcro)
  368     dE    -8.055879e-07     7.287559e-05    -2.3355e-04      0.050 (TRAH MIcro)
  368     dE    -8.392808e-07     1.256838e-04    -2.4247e-04      0.050 (TRAH MIcro)
  368     dE    -9.262802e-07     1.570418e-04    -2.8063e-04      0.050 (TRAH MIcro)
  368     dE    -9.993567e-07     1.823249e-04    -3.2302e-04      0.050 (TRAH MIcro)
 ---------------------------------
          TRAH Step control 
 ---------------------------------
  predicted energy change =    -9.993566695505e-07
  actual energy  change   =     5.712825554838e-07
  energy change ratio     = -0.571650
  old trust radius        = 0.050368
  new trust radius        = 0.033747
  reject step?            = YES
  369       -295.077920546775     1.371640e-04                     0.034 (TRAH MAcro)  Yes
  370       -295.077920546775     2.170634e-04                     0.034 (TRAH MAcro)   No
  370     dE    -8.551513e-08     1.228030e-04    -8.5515e-08      0.001 (TRAH MIcro)
  370     dE    -1.540228e-07     1.314192e-04    -1.5402e-07      0.001 (TRAH MIcro)
  370     dE    -1.856758e-07     5.999474e-05    -1.8568e-07      0.002 (TRAH MIcro)
  370     dE    -2.060842e-07     9.928958e-05    -2.0608e-07      0.003 (TRAH MIcro)
  370     dE    -4.031084e-07     4.126912e-04    -4.0305e-07      0.012 (TRAH MIcro)
  370     dE    -6.395593e-07     1.563812e-04    -6.3917e-07      0.025 (TRAH MIcro)
  370     dE    -7.099600e-07     1.385876e-04    -7.0939e-07      0.028 (TRAH MIcro)
  370     dE    -7.957290e-07     1.959040e-04    -7.9487e-07      0.033 (TRAH MIcro)
  370     dE    -9.959909e-07     2.863115e-04    -1.7862e-04      0.034 (TRAH MIcro)
  370     dE    -1.134439e-06     1.558949e-04    -3.1683e-04      0.034 (TRAH MIcro)
  370     dE    -1.210273e-06     1.374050e-04    -3.9514e-04      0.034 (TRAH MIcro)
  370     dE    -1.266437e-06     1.120599e-04    -4.5460e-04      0.034 (TRAH MIcro)
  370     dE    -1.045561e-06     7.902968e-05    -6.3481e-04      0.026 (TRAH MIcro)
  370     dE    -1.180830e-06     1.378983e-04    -6.6230e-04      0.029 (TRAH MIcro)
  370     dE    -1.433268e-06     1.224383e-04    -7.0115e-04      0.033 (TRAH MIcro)
  370     dE    -1.491478e-06     3.994039e-05    -7.1172e-04      0.034 (TRAH MIcro)
  370     dE    -1.501712e-06     7.558664e-05    -7.2434e-04      0.034 (TRAH MIcro)
  370     dE    -1.548592e-06     1.478583e-04    -7.8270e-04      0.034 (TRAH MIcro)
  370     dE    -1.577157e-06     6.009861e-05    -8.1972e-04      0.034 (TRAH MIcro)
  370     dE    -1.588383e-06     6.378413e-05    -8.3474e-04      0.034 (TRAH MIcro)
  370     dE    -1.598267e-06     3.630928e-05    -8.4792e-04      0.034 (TRAH MIcro)
  370     dE    -1.600723e-06     1.927475e-05    -8.5113e-04      0.034 (TRAH MIcro)
  371       -295.077921255762     7.451249e-05                           (NR   MAcro)
  371     dE    -7.620169e-09     1.823796e-05                           (NR   MIcro)
  371     dE    -1.058620e-08     3.782712e-05                           (NR   MIcro)
  371     dE    -3.046987e-08     7.526086e-05                           (NR   MIcro)
  371     dE    -4.623173e-08     5.124662e-05                           (NR   MIcro)
  371     dE    -6.086541e-08     6.785441e-05                           (NR   MIcro)
  371     dE    -7.400239e-08     2.416902e-05                           (NR   MIcro)
  371     dE    -7.586490e-08     1.823739e-05                           (NR   MIcro)
  371     dE    -7.832255e-08     2.873577e-05                           (NR   MIcro)
  371     dE    -8.715487e-08     5.281143e-05                           (NR   MIcro)
  371     dE    -9.429575e-08     2.416025e-05                           (NR   MIcro)
  371     dE    -9.765033e-08     2.662839e-05                           (NR   MIcro)
  371     dE    -1.097943e-07     8.707028e-05                           (NR   MIcro)
  371     dE    -4.112377e-07     5.750283e-04                           (NR   MIcro)
  371     dE     8.660941e-08     1.804203e-04                           (NR   MIcro)
  371     dE     1.149103e-08     9.053694e-05                           (NR   MIcro)
  371     dE    -1.421440e-08     4.721725e-05                           (NR   MIcro)
  371     dE    -2.445999e-08     5.950192e-05                           (NR   MIcro)
  371     dE    -4.840203e-08     7.241194e-05                           (NR   MIcro)
  371     dE    -5.635516e-08     2.460238e-05                           (NR   MIcro)
  371     dE    -5.735499e-08     1.181623e-05                           (NR   MIcro)
  371     dE    -5.858167e-08     3.558463e-05                           (NR   MIcro)
  371     dE    -6.486022e-08     4.402498e-05                           (NR   MIcro)
  371     dE    -7.263967e-08     5.379899e-05                           (NR   MIcro)
  371     dE    -8.762250e-08     7.721706e-05                           (NR   MIcro)
  372       -295.077921331917     8.314432e-05                           (NR   MAcro)
  372     dE    -9.405030e-09     3.798410e-05                           (NR   MIcro)
  372     dE    -1.490634e-08     3.785152e-05                           (NR   MIcro)
  372     dE    -2.256153e-08     5.437213e-05                           (NR   MIcro)
  372     dE    -3.184642e-08     5.040972e-05                           (NR   MIcro)
  372     dE    -6.062018e-08     1.524746e-04                           (NR   MIcro)
  372     dE    -1.076087e-07     8.879179e-05                           (NR   MIcro)
  372     dE    -1.249302e-07     5.324154e-05                           (NR   MIcro)
  372     dE    -1.276874e-07     2.972711e-05                           (NR   MIcro)
  372     dE    -1.344437e-07     7.840769e-05                           (NR   MIcro)
  372     dE    -2.077028e-07     2.385880e-04                           (NR   MIcro)
  372     dE     2.382164e-07     5.898744e-04                           (NR   MIcro)
  372     dE    -3.004281e-08     1.196091e-04                           (NR   MIcro)
  372     dE    -4.725498e-08     3.528190e-05                           (NR   MIcro)
  372     dE    -5.059331e-08     2.811948e-05                           (NR   MIcro)
  372     dE    -5.837272e-08     6.676448e-05                           (NR   MIcro)
  372     dE    -6.458494e-08     2.395319e-05                           (NR   MIcro)
  372     dE    -6.554205e-08     1.303234e-05                           (NR   MIcro)
  372     dE    -6.628524e-08     2.018517e-05                           (NR   MIcro)
  372     dE    -7.050558e-08     4.030895e-05                           (NR   MIcro)
  372     dE    -7.489991e-08     2.711563e-05                           (NR   MIcro)
  372     dE    -7.665239e-08     1.836724e-05                           (NR   MIcro)
  372     dE    -7.799364e-08     1.814928e-05                           (NR   MIcro)
  372     dE    -7.869267e-08     8.758572e-06                           (NR   MIcro)
  372     dE    -7.920469e-08     1.585455e-05                           (NR   MIcro)
  373       -295.077921403468     2.384495e-05                           (NR   MAcro)
  373     dE    -2.145733e-09     2.662792e-05                           (NR   MIcro)
  373     dE    -1.041872e-08     6.877229e-05                           (NR   MIcro)
  373     dE    -3.649528e-08     6.725873e-05                           (NR   MIcro)
  373     dE    -4.963761e-08     5.293037e-05                           (NR   MIcro)
  373     dE    -6.259768e-08     5.382982e-05                           (NR   MIcro)
  373     dE    -6.833103e-08     2.395824e-05                           (NR   MIcro)
  373     dE    -7.005799e-08     1.948198e-05                           (NR   MIcro)
  373     dE    -7.373437e-08     4.716243e-05                           (NR   MIcro)
  373     dE    -9.329426e-08     1.086699e-04                           (NR   MIcro)
  373     dE    -1.382850e-07     6.687064e-05                           (NR   MIcro)
  373     dE    -1.929700e-07     2.002556e-04                           (NR   MIcro)
  373     dE     1.425696e-07     4.360578e-04                           (NR   MIcro)
  373     dE    -2.060302e-08     8.004407e-05                           (NR   MIcro)
  373     dE    -2.983257e-08     3.473197e-05                           (NR   MIcro)
  373     dE    -3.526273e-08     3.940434e-05                           (NR   MIcro)
  373     dE    -3.820270e-08     2.279668e-05                           (NR   MIcro)
  373     dE    -4.018428e-08     2.648685e-05                           (NR   MIcro)
  373     dE    -4.533314e-08     4.754604e-05                           (NR   MIcro)
  373     dE    -4.708795e-08     9.450146e-06                           (NR   MIcro)
  373     dE    -4.731883e-08     7.452205e-06                           (NR   MIcro)
  373     dE    -4.778273e-08     2.025685e-05                           (NR   MIcro)
  373     dE    -4.935075e-08     2.405491e-05                           (NR   MIcro)
  373     dE    -5.113169e-08     2.523169e-05                           (NR   MIcro)
  373     dE    -5.314572e-08     2.196476e-05                           (NR   MIcro)
  374       -295.077921445369     2.912495e-05                           (NR   MAcro)
  374     dE    -3.042727e-09     2.962078e-05                           (NR   MIcro)
  374     dE    -1.052967e-08     5.116145e-05                           (NR   MIcro)
  374     dE    -2.943462e-08     7.515199e-05                           (NR   MIcro)
  374     dE    -5.510117e-08     8.145197e-05                           (NR   MIcro)
  374     dE    -1.017303e-07     1.091051e-04                           (NR   MIcro)
  374     dE    -1.329387e-07     6.019689e-05                           (NR   MIcro)
  374     dE    -1.419638e-07     3.235558e-05                           (NR   MIcro)
  374     dE    -1.565909e-07     1.008919e-04                           (NR   MIcro)
  374     dE    -3.211153e-06     7.171729e-03                           (NR   MIcro)
  374     dE    -4.692613e-09     7.460495e-05                           (NR   MIcro)
  374     dE    -1.861383e-08     4.068412e-05                           (NR   MIcro)
  374     dE    -2.367603e-08     2.635509e-05                           (NR   MIcro)
  374     dE    -2.591577e-08     1.489762e-05                           (NR   MIcro)
  374     dE    -2.667371e-08     1.386737e-05                           (NR   MIcro)
  374     dE    -2.971790e-08     3.484893e-05                           (NR   MIcro)
  374     dE    -3.135587e-08     1.241254e-05                           (NR   MIcro)
  374     dE    -3.172560e-08     9.552697e-06                           (NR   MIcro)
  374     dE    -3.293804e-08     3.724713e-05                           (NR   MIcro)
  374     dE    -3.719647e-08     3.066927e-05                           (NR   MIcro)
  374     dE    -3.939928e-08     2.015850e-05                           (NR   MIcro)
  374     dE    -4.000221e-08     1.026303e-05                           (NR   MIcro)
  374     dE    -4.036289e-08     1.057217e-05                           (NR   MIcro)
  374     dE    -4.061032e-08     7.393697e-06                           (NR   MIcro)
  374     dE    -4.082167e-08     9.671348e-06                           (NR   MIcro)
  375       -295.077921467489     2.042690e-05                           (NR   MAcro)
  375     dE    -2.128399e-09     2.807420e-05                           (NR   MIcro)
  375     dE    -1.125866e-08     7.298976e-05                           (NR   MIcro)
  375     dE    -4.730344e-08     7.595884e-05                           (NR   MIcro)
  375     dE    -6.638463e-08     6.513616e-05                           (NR   MIcro)
  375     dE    -8.670942e-08     6.579231e-05                           (NR   MIcro)
  375     dE    -9.740344e-08     3.465538e-05                           (NR   MIcro)
  375     dE    -1.026915e-07     4.161515e-05                           (NR   MIcro)
  375     dE    -1.267934e-07     1.309858e-04                           (NR   MIcro)
  375     dE     8.022016e-08     3.540196e-04                           (NR   MIcro)
  375     dE    -7.875592e-09     2.708407e-05                           (NR   MIcro)
  375     dE    -1.075792e-08     2.284431e-05                           (NR   MIcro)
  375     dE    -1.389424e-08     3.023080e-05                           (NR   MIcro)
  375     dE    -1.854874e-08     2.501787e-05                           (NR   MIcro)
  375     dE    -2.013757e-08     1.812694e-05                           (NR   MIcro)
  375     dE    -2.175422e-08     1.781060e-05                           (NR   MIcro)
  375     dE    -2.232911e-08     8.912035e-06                           (NR   MIcro)
  375     dE    -2.271721e-08     1.201967e-05                           (NR   MIcro)
  375     dE    -2.462583e-08     3.295505e-05                           (NR   MIcro)
  375     dE    -2.639183e-08     1.359170e-05                           (NR   MIcro)
  375     dE    -2.676948e-08     7.954330e-06                           (NR   MIcro)
  375     dE    -2.706463e-08     1.571551e-05                           (NR   MIcro)
  375     dE    -2.789818e-08     1.570016e-05                           (NR   MIcro)
  375     dE    -2.885351e-08     2.025376e-05                           (NR   MIcro)
  375     dE    -3.021822e-08     2.119820e-05                           (NR   MIcro)
  376       -295.077921469115     2.882122e-05                           (NR   MAcro)
  376     dE    -3.159744e-09     3.234618e-05                           (NR   MIcro)
  376     dE    -1.242946e-08     6.308585e-05                           (NR   MIcro)
  376     dE    -4.208459e-08     9.660494e-05                           (NR   MIcro)
  376     dE    -8.318653e-08     1.079024e-04                           (NR   MIcro)
  376     dE    -1.755771e-07     1.715003e-04                           (NR   MIcro)
  376     dE    -2.519214e-07     1.002054e-04                           (NR   MIcro)
  376     dE    -2.836621e-07     7.837036e-05                           (NR   MIcro)
  376     dE    -3.885112e-07     3.315493e-04                           (NR   MIcro)
  376     dE     1.957354e-07     4.641901e-04                           (NR   MIcro)
  376     dE     1.524420e-08     7.267624e-05                           (NR   MIcro)
  376     dE     4.154179e-09     4.050371e-05                           (NR   MIcro)
  376     dE    -7.469633e-10     2.884946e-05                           (NR   MIcro)
  376     dE    -3.495299e-09     2.093216e-05                           (NR   MIcro)
  376     dE    -4.842396e-09     1.984272e-05                           (NR   MIcro)
  376     dE    -8.243235e-09     3.759038e-05                           (NR   MIcro)
  376     dE    -9.674541e-09     1.151940e-05                           (NR   MIcro)
  376     dE    -9.935472e-09     7.892798e-06                           (NR   MIcro)
  376     dE    -1.078817e-08     3.446010e-05                           (NR   MIcro)
  376     dE    -1.432344e-08     2.537700e-05                           (NR   MIcro)
  376     dE    -1.566378e-08     1.529672e-05                           (NR   MIcro)
  376     dE    -1.610897e-08     9.699813e-06                           (NR   MIcro)
  376     dE    -1.643978e-08     9.702207e-06                           (NR   MIcro)
  376     dE    -1.673871e-08     9.418178e-06                           (NR   MIcro)
  376     dE    -1.710377e-08     1.209912e-05                           (NR   MIcro)
  377       -295.077921449804     2.234062e-05                           (NR   MAcro)
  377     dE    -2.272521e-09     2.758085e-05                           (NR   MIcro)
  377     dE    -1.041247e-08     6.712799e-05                           (NR   MIcro)
  377     dE    -4.699005e-08     9.207360e-05                           (NR   MIcro)
  377     dE    -9.014445e-08     1.167178e-04                           (NR   MIcro)
  377     dE    -1.814031e-07     1.646716e-04                           (NR   MIcro)
  377     dE    -2.797050e-07     1.295719e-04                           (NR   MIcro)
  377     dE    -3.472262e-07     1.417545e-04                           (NR   MIcro)
  377     dE    -9.257265e-07     9.607522e-04                           (NR   MIcro)
  377     dE     9.731872e-08     2.293849e-04                           (NR   MIcro)
  377     dE     3.840619e-08     3.052836e-05                           (NR   MIcro)
  377     dE     3.381463e-08     3.406138e-05                           (NR   MIcro)
  377     dE     2.680681e-08     4.563118e-05                           (NR   MIcro)
  377     dE     1.772728e-08     3.593211e-05                           (NR   MIcro)
  377     dE     1.398779e-08     2.890687e-05                           (NR   MIcro)
  377     dE     1.062216e-08     2.316402e-05                           (NR   MIcro)
  377     dE     9.683376e-09     1.127938e-05                           (NR   MIcro)
  377     dE     9.194655e-09     1.234148e-05                           (NR   MIcro)
  377     dE     7.656555e-09     2.878818e-05                           (NR   MIcro)
  377     dE     6.505817e-09     1.026203e-05                           (NR   MIcro)
  377     dE     6.327542e-09     5.288301e-06                           (NR   MIcro)
  377     dE     6.160760e-09     1.304194e-05                           (NR   MIcro)
  377     dE     5.633308e-09     1.189263e-05                           (NR   MIcro)
  377     dE     4.931470e-09     1.994236e-05                           (NR   MIcro)
  377     dE     3.369271e-09     2.505209e-05                           (NR   MIcro)
  378       -295.077921398592     3.293638e-05                           (NR   MAcro)
  378     dE    -3.538506e-09     3.204854e-05                           (NR   MIcro)
  378     dE    -1.174744e-08     5.936617e-05                           (NR   MIcro)
  378     dE    -4.542688e-08     1.155322e-04                           (NR   MIcro)
  378     dE    -1.075891e-07     1.412001e-04                           (NR   MIcro)
  378     dE    -3.955409e-07     4.412457e-04                           (NR   MIcro)
  378     dE    -2.251507e-06     9.450796e-04                           (NR   MIcro)
  378     dE    -7.706516e-05     1.993859e-02                           (NR   MIcro)
  378     dE     1.309516e-06     1.063412e-03                           (NR   MIcro)
  378     dE     2.003003e-07     3.050373e-04                           (NR   MIcro)
  378     dE     7.106800e-08     9.630584e-05                           (NR   MIcro)
  378     dE     5.478260e-08     4.971356e-05                           (NR   MIcro)
  378     dE     4.738486e-08     3.809494e-05                           (NR   MIcro)
  378     dE     4.231385e-08     3.112407e-05                           (NR   MIcro)
  378     dE     3.975935e-08     2.808156e-05                           (NR   MIcro)
  378     dE     3.492424e-08     4.433003e-05                           (NR   MIcro)
  378     dE     3.320386e-08     1.053958e-05                           (NR   MIcro)
  378     dE     3.301345e-08     6.261068e-06                           (NR   MIcro)
  378     dE     3.252011e-08     2.513128e-05                           (NR   MIcro)
  378     dE     3.002192e-08     2.321111e-05                           (NR   MIcro)
  378     dE     2.882838e-08     1.469482e-05                           (NR   MIcro)
  378     dE     2.834228e-08     1.036016e-05                           (NR   MIcro)
  378     dE     2.796540e-08     9.861761e-06                           (NR   MIcro)
  378     dE     2.763223e-08     9.789001e-06                           (NR   MIcro)
  378     dE     2.722109e-08     1.272854e-05                           (NR   MIcro)
  379       -295.077921303206     2.517818e-05                           (NR   MAcro)
  379     dE    -3.021394e-09     3.262915e-05                           (NR   MIcro)
  379     dE    -1.451001e-08     8.357064e-05                           (NR   MIcro)
  379     dE    -9.627116e-08     1.634057e-04                           (NR   MIcro)
  379     dE    -3.326062e-07     3.598056e-04                           (NR   MIcro)
  379     dE     1.270992e-06     9.685598e-04                           (NR   MIcro)
  379     dE     4.694989e-07     1.783753e-04                           (NR   MIcro)
  379     dE     3.926895e-07     1.144618e-04                           (NR   MIcro)
  379     dE     2.983623e-07     1.968807e-04                           (NR   MIcro)
  379     dE     1.362476e-07     1.674952e-04                           (NR   MIcro)
  379     dE     9.386734e-08     2.952645e-05                           (NR   MIcro)
  379     dE     9.030935e-08     2.764020e-05                           (NR   MIcro)
  379     dE     8.524971e-08     4.061171e-05                           (NR   MIcro)
  379     dE     7.697585e-08     3.485824e-05                           (NR   MIcro)
  379     dE     7.309395e-08     3.125841e-05                           (NR   MIcro)
  379     dE     6.908013e-08     2.502503e-05                           (NR   MIcro)
  379     dE     6.805049e-08     1.158367e-05                           (NR   MIcro)
  379     dE     6.757216e-08     1.177335e-05                           (NR   MIcro)
  379     dE     6.621846e-08     2.804929e-05                           (NR   MIcro)
  379     dE     6.488432e-08     1.204775e-05                           (NR   MIcro)
  379     dE     6.468944e-08     5.156123e-06                           (NR   MIcro)
  379     dE     6.453035e-08     1.307296e-05                           (NR   MIcro)
  379     dE     6.398838e-08     1.153416e-05                           (NR   MIcro)
  379     dE     6.326895e-08     2.080858e-05                           (NR   MIcro)
  379     dE     6.032746e-08     3.966000e-05                           (NR   MIcro)
  380       -295.077921141075     4.714579e-05                           (NR   MAcro)
  380     dE    -5.094909e-09     3.137599e-05                           (NR   MIcro)
  380     dE    -1.378009e-08     6.149353e-05                           (NR   MIcro)
  380     dE    -5.455933e-08     1.311709e-04                           (NR   MIcro)
  380     dE    -1.355455e-07     1.642614e-04                           (NR   MIcro)
  380     dE    -1.212643e-06     1.420332e-03                           (NR   MIcro)
  380     dE     9.375127e-07     3.454454e-04                           (NR   MIcro)
  380     dE     7.303813e-07     1.533429e-04                           (NR   MIcro)
  380     dE     6.015416e-07     2.807360e-04                           (NR   MIcro)
  380     dE     3.551644e-07     2.872774e-04                           (NR   MIcro)
  380     dE     1.929315e-07     1.370547e-04                           (NR   MIcro)
  380     dE     1.649793e-07     7.497077e-05                           (NR   MIcro)
  380     dE     1.476414e-07     6.204532e-05                           (NR   MIcro)
  380     dE     1.365971e-07     5.029382e-05                           (NR   MIcro)
  380     dE     1.300390e-07     4.314324e-05                           (NR   MIcro)
  380     dE     1.196177e-07     6.636152e-05                           (NR   MIcro)
  380     dE     1.158516e-07     1.391578e-05                           (NR   MIcro)
  380     dE     1.155781e-07     6.173489e-06                           (NR   MIcro)
  380     dE     1.153301e-07     1.422749e-05                           (NR   MIcro)
  380     dE     1.132880e-07     2.822431e-05                           (NR   MIcro)
  380     dE     1.106090e-07     2.430536e-05                           (NR   MIcro)
  380     dE     1.091750e-07     1.782677e-05                           (NR   MIcro)
  380     dE     1.080303e-07     1.630768e-05                           (NR   MIcro)
  380     dE     1.074938e-07     9.005597e-06                           (NR   MIcro)
  380     dE     1.071496e-07     1.049857e-05                           (NR   MIcro)
  381       -295.077920866776     3.613407e-05                           (NR   MAcro)
  381     dE    -5.278611e-09     4.263794e-05                           (NR   MIcro)
  381     dE    -3.080872e-08     1.389304e-04                           (NR   MIcro)
  381     dE    -1.145524e-06     1.198169e-03                           (NR   MIcro)
  381     dE     9.668608e-07     4.262067e-04                           (NR   MIcro)
  381     dE     5.905586e-07     2.111515e-04                           (NR   MIcro)
  381     dE     4.878558e-07     9.526143e-05                           (NR   MIcro)
  381     dE     4.612756e-07     6.822547e-05                           (NR   MIcro)
  381     dE     4.258341e-07     1.154553e-04                           (NR   MIcro)
  381     dE     3.078215e-07     1.771875e-04                           (NR   MIcro)
  381     dE     2.416222e-07     4.585448e-05                           (NR   MIcro)
  381     dE     2.353892e-07     2.117941e-05                           (NR   MIcro)
  381     dE     2.334292e-07     2.307738e-05                           (NR   MIcro)
  381     dE     2.279314e-07     3.367135e-05                           (NR   MIcro)
  381     dE     2.248995e-07     2.156240e-05                           (NR   MIcro)
  381     dE     2.222968e-07     2.251176e-05                           (NR   MIcro)
  381     dE     2.204726e-07     1.422690e-05                           (NR   MIcro)
  381     dE     2.199483e-07     1.029604e-05                           (NR   MIcro)
  381     dE     2.183609e-07     3.386629e-05                           (NR   MIcro)
  381     dE     2.136893e-07     2.568215e-05                           (NR   MIcro)
  381     dE     2.127007e-07     1.037237e-05                           (NR   MIcro)
  381     dE     2.121221e-07     1.666851e-05                           (NR   MIcro)
  381     dE     2.104766e-07     2.483938e-05                           (NR   MIcro)
  381     dE     2.073588e-07     3.419568e-05                           (NR   MIcro)
  381     dE     2.021610e-07     4.659399e-05                           (NR   MIcro)
  382       -295.077920376457     7.350152e-05                           (NR   MAcro)
  382     dE    -1.083720e-08     4.680726e-05                           (NR   MIcro)
  382     dE    -2.573613e-08     8.905344e-05                           (NR   MIcro)
  382     dE    -7.717170e-08     1.299545e-04                           (NR   MIcro)
  382     dE    -1.602697e-07     1.974415e-04                           (NR   MIcro)
  382     dE    -8.070891e-07     8.165822e-04                           (NR   MIcro)
  382     dE     1.646207e-05     5.886319e-03                           (NR   MIcro)
  382     dE     4.055226e-06     5.481117e-04                           (NR   MIcro)
  382     dE     3.129201e-06     6.742207e-04                           (NR   MIcro)
  382     dE     1.549277e-06     6.735593e-04                           (NR   MIcro)
  382     dE     8.390358e-07     2.198540e-04                           (NR   MIcro)
  382     dE     7.160737e-07     1.865118e-04                           (NR   MIcro)
  382     dE     6.436248e-07     1.018812e-04                           (NR   MIcro)
  382     dE     6.156334e-07     7.779867e-05                           (NR   MIcro)
  382     dE     5.784369e-07     1.260633e-04                           (NR   MIcro)
  382     dE     5.210724e-07     1.106439e-04                           (NR   MIcro)
  382     dE     5.073178e-07     3.858574e-05                           (NR   MIcro)
  382     dE     5.040748e-07     2.788576e-05                           (NR   MIcro)
  382     dE     4.974783e-07     7.419340e-05                           (NR   MIcro)
  382     dE     4.799601e-07     5.237843e-05                           (NR   MIcro)
  382     dE     4.758976e-07     2.335964e-05                           (NR   MIcro)
  382     dE     4.740242e-07     2.861109e-05                           (NR   MIcro)
  382     dE     4.719020e-07     1.634719e-05                           (NR   MIcro)
  382     dE     4.706578e-07     2.464814e-05                           (NR   MIcro)
  382     dE     4.637837e-07     6.006244e-05                           (NR   MIcro)
  383       -295.077919166104     1.203052e-04                     0.034 (TRAH MAcro)   No
  383     dE    -2.250760e-08     5.035196e-05    -2.2508e-08      0.000 (TRAH MIcro)
  383     dE    -4.085512e-08     1.016257e-04    -4.0855e-08      0.001 (TRAH MIcro)
  383     dE    -3.078610e-07     3.581536e-04    -3.0780e-07      0.014 (TRAH MIcro)
  383     dE    -7.362275e-07     2.759813e-04    -1.5368e-05      0.034 (TRAH MIcro)
  383     dE    -1.032445e-06     2.580855e-04    -2.8245e-04      0.034 (TRAH MIcro)
  383     dE    -1.175909e-06     1.343379e-04    -4.1881e-04      0.034 (TRAH MIcro)
  383     dE    -1.028174e-06     6.852018e-05    -5.9774e-04      0.028 (TRAH MIcro)
  383     dE    -1.091588e-06     1.145154e-04    -6.1527e-04      0.028 (TRAH MIcro)
  383     dE    -1.255792e-06     1.516071e-04    -6.5484e-04      0.031 (TRAH MIcro)
  383     dE    -1.385238e-06     5.476583e-05    -6.8122e-04      0.033 (TRAH MIcro)
  383     dE    -1.394370e-06     1.737589e-05    -6.8292e-04      0.033 (TRAH MIcro)
  383     dE    -1.398067e-06     2.312977e-05    -6.8359e-04      0.033 (TRAH MIcro)
  383     dE    -1.408423e-06     3.939277e-05    -6.8543e-04      0.033 (TRAH MIcro)
  383     dE    -1.417979e-06     2.262913e-05    -6.8706e-04      0.033 (TRAH MIcro)
  383     dE    -1.426258e-06     3.350664e-05    -6.8839e-04      0.033 (TRAH MIcro)
  383     dE    -1.434461e-06     2.123658e-05    -6.8960e-04      0.033 (TRAH MIcro)
  383     dE    -1.437648e-06     1.505276e-05    -6.9005e-04      0.033 (TRAH MIcro)
  383     dE    -1.443119e-06     3.885776e-05    -6.9082e-04      0.034 (TRAH MIcro)
  383     dE    -1.455662e-06     2.023502e-05    -6.9262e-04      0.034 (TRAH MIcro)
  383     dE    -1.456158e-06     6.918927e-06    -6.9344e-04      0.034 (TRAH MIcro)
  384       -295.077920256782     6.514086e-05                           (NR   MAcro)
  384     dE    -9.373821e-09     4.033844e-05                           (NR   MIcro)
  384     dE    -6.344584e-08     2.074989e-04                           (NR   MIcro)
  384     dE    -1.564057e-06     1.539688e-03                           (NR   MIcro)
  384     dE     2.081164e-06     3.515350e-04                           (NR   MIcro)
  384     dE     1.645918e-06     2.688103e-04                           (NR   MIcro)
  384     dE     1.371657e-06     1.745192e-04                           (NR   MIcro)
  384     dE     1.251130e-06     1.598964e-04                           (NR   MIcro)
  384     dE     1.083479e-06     2.229799e-04                           (NR   MIcro)
  384     dE     7.817995e-07     1.576450e-04                           (NR   MIcro)
  384     dE     7.418918e-07     6.156592e-05                           (NR   MIcro)
  384     dE     7.299049e-07     4.588001e-05                           (NR   MIcro)
  384     dE     7.062526e-07     1.129813e-04                           (NR   MIcro)
  384     dE     6.640747e-07     8.896814e-05                           (NR   MIcro)
  384     dE     6.397950e-07     7.205734e-05                           (NR   MIcro)
  384     dE     6.222242e-07     6.404577e-05                           (NR   MIcro)
  384     dE     6.115642e-07     3.430375e-05                           (NR   MIcro)
  384     dE     6.082164e-07     4.503710e-05                           (NR   MIcro)
  384     dE     5.979122e-07     8.883819e-05                           (NR   MIcro)
  384     dE     5.890649e-07     2.814560e-05                           (NR   MIcro)
  384     dE     5.877861e-07     1.675026e-05                           (NR   MIcro)
  384     dE     5.854083e-07     4.278736e-05                           (NR   MIcro)
  384     dE     5.494931e-07     1.572915e-04                           (NR   MIcro)
  384     dE     4.785731e-07     1.104881e-04                           (NR   MIcro)
  384     dE     4.368730e-07     9.782606e-05                           (NR   MIcro)
  385       -295.077918797326     1.651359e-04                     0.034 (TRAH MAcro)   No
  385     dE    -4.345308e-08     7.780209e-05    -4.3453e-08      0.000 (TRAH MIcro)
  385     dE    -7.427591e-08     1.068459e-04    -7.4276e-08      0.001 (TRAH MIcro)
  385     dE    -1.287221e-07     1.130909e-04    -1.2872e-07      0.003 (TRAH MIcro)
  385     dE    -2.061379e-07     2.041606e-04    -2.0613e-07      0.006 (TRAH MIcro)
  385     dE    -1.000765e-06     7.114081e-04    -1.7869e-04      0.034 (TRAH MIcro)
  385     dE    -1.355561e-06     1.453973e-04    -7.2366e-04      0.030 (TRAH MIcro)
  385     dE    -1.433509e-06     6.501320e-05    -7.4258e-04      0.031 (TRAH MIcro)
  385     dE    -1.457495e-06     6.572787e-05    -7.4812e-04      0.031 (TRAH MIcro)
  385     dE    -1.522224e-06     1.102776e-04    -7.6223e-04      0.032 (TRAH MIcro)
  385     dE    -1.622448e-06     7.582591e-05    -7.8175e-04      0.033 (TRAH MIcro)
  385     dE    -1.645655e-06     3.695090e-05    -7.8589e-04      0.034 (TRAH MIcro)
  385     dE    -1.654688e-06     2.571053e-05    -7.8741e-04      0.034 (TRAH MIcro)
  385     dE    -1.657066e-06     2.004762e-05    -7.8925e-04      0.034 (TRAH MIcro)
  385     dE    -1.657940e-06     1.361888e-05    -7.9016e-04      0.034 (TRAH MIcro)
  386       -295.077919987755     6.676482e-05                           (NR   MAcro)
  386     dE    -9.975821e-09     4.286423e-05                           (NR   MIcro)
  386     dE    -5.001814e-08     1.784126e-04                           (NR   MIcro)
  386     dE    -5.707180e-07     5.790965e-04                           (NR   MIcro)
  386     dE    -5.101871e-06     2.084619e-03                           (NR   MIcro)
  386     dE     2.272857e-06     7.647605e-04                           (NR   MIcro)
  386     dE     1.565050e-06     1.789523e-04                           (NR   MIcro)
  386     dE     1.462343e-06     1.536234e-04                           (NR   MIcro)
  386     dE     1.312889e-06     2.086572e-04                           (NR   MIcro)
  386     dE     1.004093e-06     1.943481e-04                           (NR   MIcro)
  386     dE     9.348034e-07     7.844252e-05                           (NR   MIcro)
  386     dE     9.044956e-07     9.197453e-05                           (NR   MIcro)
  386     dE     8.316737e-07     1.556792e-04                           (NR   MIcro)
  386     dE     7.491110e-07     9.523406e-05                           (NR   MIcro)
  386     dE     7.188395e-07     8.675088e-05                           (NR   MIcro)
  386     dE     6.983819e-07     5.854751e-05                           (NR   MIcro)
  386     dE     6.930741e-07     1.747277e-05                           (NR   MIcro)
  386     dE     6.925406e-07     1.065200e-05                           (NR   MIcro)
  386     dE     6.909321e-07     4.397144e-05                           (NR   MIcro)
  386     dE     6.861366e-07     3.767701e-05                           (NR   MIcro)
  386     dE     6.845923e-07     1.314617e-05                           (NR   MIcro)
  386     dE     6.840600e-07     1.511819e-05                           (NR   MIcro)
  386     dE     6.830421e-07     1.516583e-05                           (NR   MIcro)
  386     dE     6.818491e-07     2.180362e-05                           (NR   MIcro)
  386     dE     6.754413e-07     7.241846e-05                           (NR   MIcro)
  387       -295.077918199357     1.766389e-04                     0.034 (TRAH MAcro)   No
  387     dE    -4.162721e-08     5.698150e-05    -4.1627e-08      0.000 (TRAH MIcro)
  387     dE    -7.276993e-08     1.344473e-04    -7.2770e-08      0.001 (TRAH MIcro)
  387     dE    -3.171593e-07     3.373065e-04    -3.1712e-07      0.012 (TRAH MIcro)
  387     dE    -8.072999e-07     4.769549e-04    -8.0642e-07      0.033 (TRAH MIcro)
  387     dE    -1.305831e-06     2.790206e-04    -4.3867e-04      0.034 (TRAH MIcro)
  387     dE    -1.273581e-06     1.341372e-04    -7.1157e-04      0.029 (TRAH MIcro)
  387     dE    -1.323974e-06     4.698557e-05    -7.2487e-04      0.029 (TRAH MIcro)
  387     dE    -1.347083e-06     6.686576e-05    -7.3069e-04      0.030 (TRAH MIcro)
  387     dE    -1.435426e-06     1.122264e-04    -7.5121e-04      0.031 (TRAH MIcro)
  387     dE    -1.511532e-06     5.864549e-05    -7.6689e-04      0.032 (TRAH MIcro)
  387     dE    -1.524661e-06     1.867196e-05    -7.6943e-04      0.032 (TRAH MIcro)
  387     dE    -1.527874e-06     1.805784e-05    -7.7001e-04      0.032 (TRAH MIcro)
  387     dE    -1.531560e-06     1.968935e-05    -7.7067e-04      0.032 (TRAH MIcro)
  387     dE    -1.534654e-06     2.027477e-05    -7.7125e-04      0.032 (TRAH MIcro)
  387     dE    -1.542609e-06     3.341692e-05    -7.7259e-04      0.032 (TRAH MIcro)
  387     dE    -1.557488e-06     2.864260e-05    -7.7471e-04      0.032 (TRAH MIcro)
  387     dE    -1.559686e-06     7.551089e-06    -7.7500e-04      0.032 (TRAH MIcro)
  388       -295.077919411136     6.036801e-05                           (NR   MAcro)
  388     dE    -1.161470e-08     5.678459e-05                           (NR   MIcro)
  388     dE    -1.003374e-07     2.611761e-04                           (NR   MIcro)
  388     dE    -1.081474e-06     7.288255e-04                           (NR   MIcro)
  388     dE    -2.753800e-06     4.308629e-04                           (NR   MIcro)
  388     dE    -4.382918e-06     8.322964e-04                           (NR   MIcro)
  388     dE    -1.876006e-05     3.159077e-03                           (NR   MIcro)
  388     dE     1.477627e-05     2.348537e-03                           (NR   MIcro)
  388     dE     5.258666e-06     8.478141e-04                           (NR   MIcro)
  388     dE     3.126096e-06     3.598242e-04                           (NR   MIcro)
  388     dE     2.857622e-06     1.689160e-04                           (NR   MIcro)
  388     dE     2.633183e-06     2.688440e-04                           (NR   MIcro)
  388     dE     1.956326e-06     4.030767e-04                           (NR   MIcro)
  388     dE     1.674740e-06     1.539904e-04                           (NR   MIcro)
  388     dE     1.633984e-06     7.436931e-05                           (NR   MIcro)
  388     dE     1.606546e-06     9.802997e-05                           (NR   MIcro)
  388     dE     1.569639e-06     8.934366e-05                           (NR   MIcro)
  388     dE     1.539570e-06     1.198445e-04                           (NR   MIcro)
  388     dE     1.466445e-06     1.660936e-04                           (NR   MIcro)
  388     dE     1.438785e-06     5.685524e-05                           (NR   MIcro)
  388     dE     1.434561e-06     2.547365e-05                           (NR   MIcro)
  388     dE     1.429371e-06     6.788590e-05                           (NR   MIcro)
  388     dE     1.362344e-06     2.103584e-04                           (NR   MIcro)
  388     dE     1.228731e-06     1.719563e-04                           (NR   MIcro)
  388     dE     1.140932e-06     1.434452e-04                           (NR   MIcro)
  389       -295.077915307408     3.535908e-04                     0.040 (TRAH MAcro)   No
  389     dE    -1.596849e-07     1.130369e-04    -1.5968e-07      0.001 (TRAH MIcro)
  389     dE    -2.385736e-07     1.792708e-04    -2.3857e-07      0.002 (TRAH MIcro)
  389     dE    -4.042958e-07     1.823392e-04    -4.0428e-07      0.005 (TRAH MIcro)
  389     dE    -6.807599e-07     4.836558e-04    -6.8065e-07      0.013 (TRAH MIcro)
  389     dE    -2.057236e-06     7.167805e-04    -2.3830e-04      0.040 (TRAH MIcro)
  389     dE    -2.702222e-06     2.090730e-04    -6.5520e-04      0.040 (TRAH MIcro)
  389     dE    -2.764668e-06     9.470613e-05    -6.9601e-04      0.040 (TRAH MIcro)
  389     dE    -2.815590e-06     1.569883e-04    -7.3017e-04      0.040 (TRAH MIcro)
  389     dE    -2.959293e-06     2.237214e-04    -8.3309e-04      0.040 (TRAH MIcro)
  389     dE    -2.949176e-06     8.071012e-05    -9.1438e-04      0.039 (TRAH MIcro)
  389     dE    -3.003538e-06     6.865865e-05    -9.2041e-04      0.040 (TRAH MIcro)
  389     dE    -3.037865e-06     4.247210e-05    -9.2402e-04      0.040 (TRAH MIcro)
  389     dE    -3.045906e-06     1.968612e-05    -9.2484e-04      0.040 (TRAH MIcro)
  390       -295.077917669919     8.766332e-05                           (NR   MAcro)
  390     dE    -2.191223e-08     7.713143e-05                           (NR   MIcro)
  390     dE    -1.055111e-07     2.599198e-04                           (NR   MIcro)
  390     dE    -1.902225e-06     1.031596e-03                           (NR   MIcro)
  390     dE    -5.000475e-06     7.607519e-04                           (NR   MIcro)
  390     dE    -9.435627e-06     1.427184e-03                           (NR   MIcro)
  390     dE    -1.888592e-05     1.291918e-03                           (NR   MIcro)
  390     dE    -2.787122e-05     1.903397e-03                           (NR   MIcro)
  390     dE     4.078855e-05     6.192911e-03                           (NR   MIcro)
  390     dE     6.533809e-06     8.536350e-04                           (NR   MIcro)
  390     dE     5.475570e-06     3.081356e-04                           (NR   MIcro)
  390     dE     5.108988e-06     3.253573e-04                           (NR   MIcro)
  390     dE     4.555625e-06     3.859664e-04                           (NR   MIcro)
  390     dE     4.119865e-06     2.404932e-04                           (NR   MIcro)
  390     dE     3.979780e-06     1.846903e-04                           (NR   MIcro)
  390     dE     3.892595e-06     1.477919e-04                           (NR   MIcro)
  390     dE     3.852431e-06     7.542278e-05                           (NR   MIcro)
  390     dE     3.835934e-06     1.177407e-04                           (NR   MIcro)
  390     dE     3.769875e-06     2.393271e-04                           (NR   MIcro)
  390     dE     3.610401e-06     1.965098e-04                           (NR   MIcro)
  390     dE     3.573500e-06     5.205780e-05                           (NR   MIcro)
  390     dE     3.559945e-06     9.311898e-05                           (NR   MIcro)
  390     dE     3.461204e-06     1.927230e-04                           (NR   MIcro)
  390     dE     3.346954e-06     1.611114e-04                           (NR   MIcro)
  390     dE     3.252806e-06     1.600686e-04                           (NR   MIcro)
  391       -295.077904034401     1.009407e-03                     0.049 (TRAH MAcro)   No
  391     dE    -1.010466e-06     1.602148e-04    -1.0105e-06      0.001 (TRAH MIcro)
  391     dE    -1.182893e-06     2.891773e-04    -1.1829e-06      0.003 (TRAH MIcro)
  391     dE    -2.435074e-06     6.164722e-04    -2.4342e-06      0.019 (TRAH MIcro)
  391     dE    -3.864587e-06     6.851685e-04    -3.8586e-06      0.039 (TRAH MIcro)
  391     dE    -5.767537e-06     4.948581e-04    -5.8210e-04      0.049 (TRAH MIcro)
  391     dE    -6.261219e-06     2.104071e-04    -8.1126e-04      0.049 (TRAH MIcro)
  391     dE    -5.808657e-06     1.119934e-04    -1.0734e-03      0.042 (TRAH MIcro)
  391     dE    -6.096399e-06     2.809318e-04    -1.0979e-03      0.044 (TRAH MIcro)
  391     dE    -6.948201e-06     2.570555e-04    -1.1789e-03      0.049 (TRAH MIcro)
  391     dE    -7.034263e-06     9.651990e-05    -1.2325e-03      0.049 (TRAH MIcro)
  392       -295.077910330737     1.492747e-04                     0.058 (TRAH MAcro)   No
  392     dE    -7.611582e-08     1.532488e-04    -7.6116e-08      0.001 (TRAH MIcro)
  392     dE    -2.831263e-07     3.893790e-04    -2.8312e-07      0.005 (TRAH MIcro)
  392     dE    -2.399852e-06     9.464997e-04    -2.3941e-06      0.049 (TRAH MIcro)
  392     dE    -4.346381e-06     4.834436e-04    -4.5724e-04      0.058 (TRAH MIcro)
  392     dE    -4.670863e-06     3.073115e-04    -7.1048e-04      0.054 (TRAH MIcro)
  392     dE    -5.178429e-06     1.935703e-04    -7.4736e-04      0.057 (TRAH MIcro)
  392     dE    -5.335792e-06     1.026435e-04    -7.6248e-04      0.058 (TRAH MIcro)
  392     dE    -5.393722e-06     1.586714e-04    -7.8087e-04      0.058 (TRAH MIcro)
  392     dE    -5.561308e-06     2.306915e-04    -8.3839e-04      0.058 (TRAH MIcro)
  392     dE    -5.674216e-06     7.488048e-05    -8.8047e-04      0.058 (TRAH MIcro)
  392     dE    -5.683723e-06     3.507060e-05    -8.8398e-04      0.058 (TRAH MIcro)
  392     dE    -5.690395e-06     5.082287e-05    -8.8653e-04      0.058 (TRAH MIcro)
  392     dE    -5.704597e-06     5.274304e-05    -8.9245e-04      0.058 (TRAH MIcro)
  392     dE    -5.713799e-06     6.132816e-05    -8.9646e-04      0.058 (TRAH MIcro)
  392     dE    -5.728994e-06     7.461476e-05    -9.0333e-04      0.058 (TRAH MIcro)
  392     dE    -5.734029e-06     1.924370e-05    -9.0580e-04      0.058 (TRAH MIcro)
  392     dE    -5.735404e-06     1.851559e-05    -9.0641e-04      0.058 (TRAH MIcro)
  392     dE    -5.718203e-06     4.859789e-05    -9.1034e-04      0.058 (TRAH MIcro)
  392     dE    -5.730985e-06     1.939764e-05    -9.1084e-04      0.058 (TRAH MIcro)
  392     dE    -5.733661e-06     1.167031e-05    -9.1094e-04      0.058 (TRAH MIcro)
  393       -295.077914605564     1.618410e-04                     0.058 (TRAH MAcro)   No
  393     dE    -4.821724e-08     8.628524e-05    -4.8217e-08      0.001 (TRAH MIcro)
  393     dE    -3.475944e-07     4.958111e-04    -3.4756e-07      0.010 (TRAH MIcro)
  393     dE    -2.925743e-06     7.013300e-04    -3.1635e-04      0.058 (TRAH MIcro)
  393     dE    -3.321671e-06     1.428303e-04    -4.9009e-04      0.056 (TRAH MIcro)
  393     dE    -3.480040e-06     1.281172e-04    -5.0172e-04      0.058 (TRAH MIcro)
  393     dE    -3.596721e-06     9.995779e-05    -5.1654e-04      0.058 (TRAH MIcro)
  393     dE    -3.634926e-06     9.451085e-05    -5.2831e-04      0.058 (TRAH MIcro)
  393     dE    -3.687779e-06     1.415345e-04    -5.4512e-04      0.058 (TRAH MIcro)
  393     dE    -3.822944e-06     1.636950e-04    -5.9146e-04      0.058 (TRAH MIcro)
  393     dE    -3.861789e-06     5.225415e-05    -6.0561e-04      0.058 (TRAH MIcro)
  393     dE    -3.869578e-06     3.479195e-05    -6.0856e-04      0.058 (TRAH MIcro)
  393     dE    -3.883311e-06     7.957075e-05    -6.1379e-04      0.058 (TRAH MIcro)
  393     dE    -3.897997e-06     4.539083e-05    -6.1959e-04      0.058 (TRAH MIcro)
  393     dE    -3.901529e-06     2.165135e-05    -6.2106e-04      0.058 (TRAH MIcro)
  393     dE    -3.903073e-06     2.027056e-05    -6.2170e-04      0.058 (TRAH MIcro)
  393     dE    -3.904761e-06     1.780712e-05    -6.2240e-04      0.058 (TRAH MIcro)
  393     dE    -3.905905e-06     3.240857e-05    -6.2287e-04      0.058 (TRAH MIcro)
  393     dE    -3.909415e-06     5.415024e-05    -6.2443e-04      0.058 (TRAH MIcro)
  393     dE    -3.913142e-06     2.672509e-05    -6.2635e-04      0.058 (TRAH MIcro)
  393     dE    -3.913837e-06     5.543587e-06    -6.2667e-04      0.058 (TRAH MIcro)
  394       -295.077917380096     1.483302e-04                     0.058 (TRAH MAcro)   No
  394     dE    -3.408074e-08     5.991327e-05    -3.4081e-08      0.000 (TRAH MIcro)
  394     dE    -1.299837e-07     2.614711e-04    -1.2998e-07      0.004 (TRAH MIcro)
  394     dE    -7.013652e-07     4.125310e-04    -7.0084e-07      0.027 (TRAH MIcro)
  394     dE    -9.631713e-07     1.088160e-04    -9.6177e-07      0.038 (TRAH MIcro)
  394     dE    -1.015460e-06     1.068530e-04    -1.0138e-06      0.040 (TRAH MIcro)
  394     dE    -1.112805e-06     1.598658e-04    -1.1106e-06      0.044 (TRAH MIcro)
  394     dE    -1.248167e-06     2.054804e-04    -1.2450e-06      0.050 (TRAH MIcro)
  394     dE    -1.557827e-06     3.309649e-04    -4.5877e-05      0.058 (TRAH MIcro)
  394     dE    -2.108041e-06     2.806490e-04    -3.2402e-04      0.054 (TRAH MIcro)
  394     dE    -2.430224e-06     1.180811e-04    -3.5213e-04      0.058 (TRAH MIcro)
  394     dE    -2.458193e-06     3.789341e-05    -3.6219e-04      0.058 (TRAH MIcro)
  394     dE    -2.467762e-06     6.219869e-05    -3.6565e-04      0.058 (TRAH MIcro)
  394     dE    -2.497048e-06     9.408376e-05    -3.7650e-04      0.058 (TRAH MIcro)
  394     dE    -2.520231e-06     4.597450e-05    -3.8532e-04      0.058 (TRAH MIcro)
  394     dE    -2.525660e-06     3.358719e-05    -3.8743e-04      0.058 (TRAH MIcro)
  394     dE    -2.532018e-06     3.682214e-05    -3.8995e-04      0.058 (TRAH MIcro)
  394     dE    -2.534382e-06     2.350827e-05    -3.9089e-04      0.058 (TRAH MIcro)
  394     dE    -2.539042e-06     6.147812e-05    -3.9276e-04      0.058 (TRAH MIcro)
  394     dE    -2.549971e-06     6.035827e-05    -3.9745e-04      0.058 (TRAH MIcro)
  394     dE    -2.553392e-06     1.710230e-05    -3.9893e-04      0.058 (TRAH MIcro)
  394     dE    -2.554775e-06     2.902171e-05    -3.9958e-04      0.058 (TRAH MIcro)
  394     dE    -2.561590e-06     5.617088e-05    -4.0282e-04      0.058 (TRAH MIcro)
  394     dE    -2.561058e-06     2.695515e-05    -4.0762e-04      0.058 (TRAH MIcro)
  395       -295.077919160220     1.543093e-04                     0.058 (TRAH MAcro)   No
  395     dE    -3.312977e-08     5.248691e-05    -3.3130e-08      0.000 (TRAH MIcro)
  395     dE    -7.714754e-08     1.658684e-04    -7.7147e-08      0.002 (TRAH MIcro)
  395     dE    -3.208480e-07     2.477977e-04    -3.2080e-07      0.013 (TRAH MIcro)
  395     dE    -4.625802e-07     1.444965e-04    -4.6241e-07      0.019 (TRAH MIcro)
  395     dE    -5.699205e-07     1.584525e-04    -5.6960e-07      0.024 (TRAH MIcro)
  395     dE    -6.340668e-07     6.408340e-05    -6.3361e-07      0.027 (TRAH MIcro)
  395     dE    -6.471825e-07     5.059293e-05    -6.4669e-07      0.027 (TRAH MIcro)
  395     dE    -6.781219e-07     1.254160e-04    -6.7755e-07      0.029 (TRAH MIcro)
  395     dE    -9.468787e-07     3.529534e-04    -9.4499e-07      0.045 (TRAH MIcro)
  395     dE    -1.406599e-06     2.341639e-04    -9.2343e-05      0.058 (TRAH MIcro)
  395     dE    -1.532688e-06     1.028108e-04    -1.3762e-04      0.058 (TRAH MIcro)
  395     dE    -1.640278e-06     2.069972e-04    -1.7637e-04      0.058 (TRAH MIcro)
  395     dE    -1.578450e-06     1.143780e-04    -2.5180e-04      0.051 (TRAH MIcro)
  395     dE    -1.742919e-06     1.576011e-04    -2.6162e-04      0.055 (TRAH MIcro)
  395     dE    -1.930028e-06     1.285381e-04    -2.8280e-04      0.058 (TRAH MIcro)
  395     dE    -1.962759e-06     4.353919e-05    -2.9507e-04      0.058 (TRAH MIcro)
  395     dE    -1.971392e-06     9.015944e-05    -2.9835e-04      0.058 (TRAH MIcro)
  395     dE    -1.992827e-06     1.149589e-04    -3.0654e-04      0.058 (TRAH MIcro)
  395     dE    -2.005787e-06     3.596523e-05    -3.1155e-04      0.058 (TRAH MIcro)
  395     dE    -2.007593e-06     1.876535e-05    -3.1227e-04      0.058 (TRAH MIcro)
  395     dE    -2.010225e-06     4.371800e-05    -3.1327e-04      0.058 (TRAH MIcro)
  395     dE    -2.015976e-06     3.371506e-05    -3.1562e-04      0.058 (TRAH MIcro)
  395     dE    -2.023684e-06     6.066485e-05    -3.1882e-04      0.058 (TRAH MIcro)
  396       -295.077920559271     1.603446e-04                     0.058 (TRAH MAcro)   No
  396     dE    -2.932404e-08     3.968708e-05    -2.9324e-08      0.000 (TRAH MIcro)
  396     dE    -3.847507e-08     5.966436e-05    -3.8475e-08      0.001 (TRAH MIcro)
  396     dE    -6.008805e-08     6.828708e-05    -6.0088e-08      0.002 (TRAH MIcro)
  396     dE    -8.056574e-08     8.044362e-05    -8.0565e-08      0.003 (TRAH MIcro)
  396     dE    -1.871558e-07     2.345500e-04    -1.8713e-07      0.011 (TRAH MIcro)
  396     dE    -3.788707e-07     1.463795e-04    -3.7862e-07      0.026 (TRAH MIcro)
  396     dE    -4.219014e-07     7.817899e-05    -4.2155e-07      0.029 (TRAH MIcro)
  396     dE    -4.547256e-07     1.116930e-04    -4.5427e-07      0.032 (TRAH MIcro)
  396     dE    -7.686972e-07     3.950710e-04    -7.6621e-07      0.057 (TRAH MIcro)
  396     dE    -1.122634e-06     2.153876e-04    -1.0874e-04      0.058 (TRAH MIcro)
  396     dE    -1.207589e-06     1.949768e-04    -1.8654e-04      0.053 (TRAH MIcro)
  396     dE    -1.579592e-06     2.957183e-04    -2.5761e-04      0.058 (TRAH MIcro)
  396     dE    -1.843902e-06     2.116442e-04    -3.4534e-04      0.058 (TRAH MIcro)
  396     dE    -1.413329e-06     2.293172e-04    -5.0124e-04      0.043 (TRAH MIcro)
  396     dE    -1.924841e-06     1.583060e-04    -5.4605e-04      0.051 (TRAH MIcro)
  396     dE    -2.154798e-06     7.566923e-05    -5.6228e-04      0.054 (TRAH MIcro)
  396     dE    -2.172190e-06     2.179199e-05    -5.6340e-04      0.054 (TRAH MIcro)
  396     dE    -2.192380e-06     8.240888e-05    -5.6466e-04      0.054 (TRAH MIcro)
  396     dE    -2.267485e-06     6.393555e-05    -5.6926e-04      0.055 (TRAH MIcro)
  396     dE    -2.288116e-06     2.478739e-05    -5.7049e-04      0.055 (TRAH MIcro)
  396     dE    -2.297206e-06     3.061664e-05    -5.7100e-04      0.055 (TRAH MIcro)
  396     dE    -2.305262e-06     1.376605e-05    -5.7142e-04      0.055 (TRAH MIcro)
  397       -295.077921214183     1.465123e-04                     0.058 (TRAH MAcro)   No
  397     dE    -2.179560e-08     1.793732e-05    -2.1796e-08      0.000 (TRAH MIcro)
  397     dE    -2.385220e-08     2.991448e-05    -2.3852e-08      0.000 (TRAH MIcro)
  397     dE    -3.885023e-08     1.024145e-04    -3.8850e-08      0.002 (TRAH MIcro)
  397     dE    -9.251224e-08     7.253729e-05    -9.2505e-08      0.009 (TRAH MIcro)
  397     dE    -1.132048e-07     6.686544e-05    -1.1319e-07      0.012 (TRAH MIcro)
  397     dE    -1.320001e-07     4.760581e-05    -1.3197e-07      0.014 (TRAH MIcro)
  397     dE    -1.381903e-07     2.544371e-05    -1.3816e-07      0.015 (TRAH MIcro)
  397     dE    -1.409738e-07     2.506841e-05    -1.4094e-07      0.015 (TRAH MIcro)
  397     dE    -1.581988e-07     9.082682e-05    -1.5815e-07      0.018 (TRAH MIcro)
  397     dE    -2.499341e-07     2.043784e-04    -2.4967e-07      0.033 (TRAH MIcro)
  397     dE    -4.719516e-07     1.412924e-04    -2.5193e-05      0.058 (TRAH MIcro)
  397     dE    -5.830922e-07     2.033293e-04    -6.1081e-05      0.058 (TRAH MIcro)
  397     dE    -8.251126e-07     2.562540e-04    -1.4528e-04      0.057 (TRAH MIcro)
  397     dE    -6.535727e-07     1.043122e-04    -2.5133e-04      0.040 (TRAH MIcro)
  397     dE    -7.333690e-07     6.185685e-05    -2.6041e-04      0.043 (TRAH MIcro)
  397     dE    -8.152171e-07     7.893466e-05    -2.6877e-04      0.045 (TRAH MIcro)
  397     dE    -8.513659e-07     4.595748e-05    -2.7219e-04      0.047 (TRAH MIcro)
  397     dE    -9.151055e-07     1.267528e-04    -2.7785e-04      0.048 (TRAH MIcro)
  397     dE    -1.553072e-06     5.737870e-04    -3.7872e-04      0.058 (TRAH MIcro)
  397     dE    -5.137926e-07     4.663125e-05    -5.4494e-04      0.026 (TRAH MIcro)
  397     dE    -5.461767e-07     2.682613e-05    -5.4957e-04      0.027 (TRAH MIcro)
  397     dE    -5.766590e-07     4.344419e-05    -5.5362e-04      0.028 (TRAH MIcro)
  397     dE    -6.493918e-07     5.740413e-05    -5.6225e-04      0.030 (TRAH MIcro)
  398       -295.077921398314     7.821831e-05                           (NR   MAcro)
  398     dE    -9.735014e-09     3.321937e-05                           (NR   MIcro)
  398     dE    -1.657552e-08     4.815475e-05                           (NR   MIcro)
  398     dE    -2.841610e-08     5.035732e-05                           (NR   MIcro)
  398     dE    -4.240805e-08     7.002558e-05                           (NR   MIcro)
  398     dE    -8.607756e-08     1.226131e-04                           (NR   MIcro)
  398     dE    -1.539522e-07     1.194502e-04                           (NR   MIcro)
  398     dE    -1.797618e-07     3.638036e-05                           (NR   MIcro)
  398     dE    -1.826184e-07     2.038042e-05                           (NR   MIcro)
  398     dE    -1.865228e-07     4.875393e-05                           (NR   MIcro)
  398     dE    -2.116033e-07     5.164539e-05                           (NR   MIcro)
  398     dE    -2.312234e-07     6.680866e-05                           (NR   MIcro)
  398     dE    -2.561021e-07     7.162540e-05                           (NR   MIcro)
  398     dE    -2.782003e-07     5.495553e-05                           (NR   MIcro)
  398     dE    -3.102197e-07     1.279486e-04                           (NR   MIcro)
  398     dE    -7.912686e-06     9.398774e-03                           (NR   MIcro)
  398     dE     7.838081e-08     1.428445e-04                           (NR   MIcro)
  398     dE     3.776871e-08     7.553886e-05                           (NR   MIcro)
  398     dE    -2.747083e-08     1.740648e-04                           (NR   MIcro)
  398     dE    -8.930978e-08     9.129700e-05                           (NR   MIcro)
  398     dE    -1.059702e-07     4.659297e-05                           (NR   MIcro)
  398     dE    -1.121556e-07     5.008177e-05                           (NR   MIcro)
  398     dE    -1.209919e-07     4.793113e-05                           (NR   MIcro)
  398     dE    -1.310482e-07     6.948845e-05                           (NR   MIcro)
  398     dE    -1.567956e-07     1.074035e-04                           (NR   MIcro)
  399       -295.077921484860     1.117043e-04                     0.058 (TRAH MAcro)   No
  399     dE    -2.243806e-08     4.776238e-05    -2.2438e-08      0.000 (TRAH MIcro)
  399     dE    -3.334946e-08     4.088106e-05    -3.3349e-08      0.001 (TRAH MIcro)
  399     dE    -4.395361e-08     5.304154e-05    -4.3954e-08      0.001 (TRAH MIcro)
  399     dE    -5.454460e-08     4.505320e-05    -5.4544e-08      0.002 (TRAH MIcro)
  399     dE    -7.790193e-08     1.033224e-04    -7.7901e-08      0.004 (TRAH MIcro)
  399     dE    -1.224832e-07     8.971510e-05    -1.2248e-07      0.008 (TRAH MIcro)
  399     dE    -1.416808e-07     3.467019e-05    -1.4167e-07      0.010 (TRAH MIcro)
  399     dE    -1.464968e-07     3.631786e-05    -1.4648e-07      0.010 (TRAH MIcro)
  399     dE    -1.615085e-07     7.968439e-05    -1.6149e-07      0.012 (TRAH MIcro)
  399     dE    -1.878133e-07     4.943134e-05    -1.8777e-07      0.015 (TRAH MIcro)
  399     dE    -1.943483e-07     3.036573e-05    -1.9430e-07      0.015 (TRAH MIcro)
  399     dE    -1.992885e-07     3.622459e-05    -1.9924e-07      0.016 (TRAH MIcro)
  399     dE    -2.082071e-07     4.603415e-05    -2.0815e-07      0.017 (TRAH MIcro)
  399     dE    -2.181223e-07     4.864074e-05    -2.1805e-07      0.018 (TRAH MIcro)
  399     dE    -2.613722e-07     1.178279e-04    -2.6122e-07      0.025 (TRAH MIcro)
  399     dE    -2.900917e-07     6.065684e-05    -2.8985e-07      0.029 (TRAH MIcro)
  399     dE    -3.040515e-07     6.206115e-05    -3.0375e-07      0.031 (TRAH MIcro)
  399     dE    -5.742123e-07     6.329844e-04    -3.8608e-05      0.058 (TRAH MIcro)
  399     dE    -7.739858e-07     1.832044e-04    -2.8880e-04      0.041 (TRAH MIcro)
  399     dE    -1.247032e-06     1.646423e-04    -3.2324e-04      0.054 (TRAH MIcro)
  399     dE    -1.445115e-06     9.811389e-05    -3.3409e-04      0.058 (TRAH MIcro)
  399     dE    -1.491063e-06     9.925430e-05    -3.4458e-04      0.058 (TRAH MIcro)
  399     dE    -1.511630e-06     7.416505e-05    -3.5133e-04      0.058 (TRAH MIcro)
  400       -295.077921722586     1.804263e-04                     0.039 (TRAH MAcro)   No
  400     dE    -3.095948e-08     3.860975e-05    -3.0959e-08      0.000 (TRAH MIcro)
  400     dE    -3.579138e-08     3.746575e-05    -3.5791e-08      0.000 (TRAH MIcro)
  400     dE    -4.583898e-08     4.488750e-05    -4.5839e-08      0.001 (TRAH MIcro)
  400     dE    -5.207160e-08     4.905389e-05    -5.2071e-08      0.002 (TRAH MIcro)
  400     dE    -7.812918e-08     1.471126e-04    -7.8128e-08      0.004 (TRAH MIcro)
  400     dE    -1.290111e-07     7.646363e-05    -1.2900e-07      0.010 (TRAH MIcro)
  400     dE    -1.376496e-07     3.102528e-05    -1.3763e-07      0.011 (TRAH MIcro)
  400     dE    -1.400026e-07     2.219337e-05    -1.3999e-07      0.011 (TRAH MIcro)
  400     dE    -1.434334e-07     4.084197e-05    -1.4341e-07      0.011 (TRAH MIcro)
  400     dE    -1.520115e-07     4.750547e-05    -1.5199e-07      0.012 (TRAH MIcro)
  400     dE    -1.584675e-07     4.761669e-05    -1.5844e-07      0.013 (TRAH MIcro)
  400     dE    -1.662245e-07     4.360105e-05    -1.6619e-07      0.014 (TRAH MIcro)
  400     dE    -1.719821e-07     3.790690e-05    -1.7194e-07      0.015 (TRAH MIcro)
  400     dE    -1.795985e-07     7.806522e-05    -1.7955e-07      0.017 (TRAH MIcro)
  400     dE    -2.544788e-07     2.392066e-04    -2.5423e-07      0.031 (TRAH MIcro)
  400     dE    -4.459725e-07     1.604607e-04    -1.1934e-04      0.039 (TRAH MIcro)
  400     dE    -3.337386e-07     4.845424e-05    -2.0501e-04      0.026 (TRAH MIcro)
  400     dE    -4.224949e-07     1.898816e-04    -2.2120e-04      0.031 (TRAH MIcro)
  400     dE    -7.276775e-07     2.081540e-04    -3.3316e-04      0.039 (TRAH MIcro)
  400     dE    -2.498512e-07     2.807309e-05    -5.2487e-04      0.015 (TRAH MIcro)
  400     dE    -2.652761e-07     3.231764e-05    -5.3071e-04      0.016 (TRAH MIcro)
  400     dE    -2.897279e-07     2.126447e-05    -5.3894e-04      0.017 (TRAH MIcro)
  400     dE    -3.067004e-07     3.537633e-05    -5.4387e-04      0.018 (TRAH MIcro)
  401       -295.077921850694     4.401518e-05                           (NR   MAcro)
  401     dE    -3.481256e-09     2.233065e-05                           (NR   MIcro)
  401     dE    -8.608140e-09     4.692341e-05                           (NR   MIcro)
  401     dE    -1.913623e-08     4.376438e-05                           (NR   MIcro)
  401     dE    -2.937512e-08     6.086040e-05                           (NR   MIcro)
  401     dE    -5.424483e-08     7.913715e-05                           (NR   MIcro)
  401     dE    -6.491700e-08     2.959253e-05                           (NR   MIcro)
  401     dE    -6.713202e-08     1.836504e-05                           (NR   MIcro)
  401     dE    -6.943981e-08     3.159122e-05                           (NR   MIcro)
  401     dE    -7.739763e-08     5.678129e-05                           (NR   MIcro)
  401     dE    -8.382190e-08     1.727510e-05                           (NR   MIcro)
  401     dE    -8.581922e-08     2.737936e-05                           (NR   MIcro)
  401     dE    -9.144405e-08     4.127333e-05                           (NR   MIcro)
  401     dE    -1.035761e-07     7.106133e-05                           (NR   MIcro)
  401     dE    -1.632718e-07     2.063874e-04                           (NR   MIcro)
  401     dE     9.207372e-08     2.898362e-04                           (NR   MIcro)
  401     dE     1.475766e-08     8.551919e-05                           (NR   MIcro)
  401     dE    -1.803285e-08     1.042872e-04                           (NR   MIcro)
  401     dE    -5.675871e-08     7.884257e-05                           (NR   MIcro)
  401     dE    -6.049172e-08     1.440151e-05                           (NR   MIcro)
  401     dE    -6.097284e-08     1.160210e-05                           (NR   MIcro)
  401     dE    -6.148413e-08     1.642755e-05                           (NR   MIcro)
  401     dE    -6.199494e-08     9.908620e-06                           (NR   MIcro)
  401     dE    -6.272178e-08     2.458588e-05                           (NR   MIcro)
  401     dE    -6.791029e-08     4.194187e-05                           (NR   MIcro)
  402       -295.077921942337     4.495283e-05                           (NR   MAcro)
  402     dE    -3.405539e-09     2.186129e-05                           (NR   MIcro)
  402     dE    -5.246847e-09     2.164493e-05                           (NR   MIcro)
  402     dE    -1.165458e-08     7.148165e-05                           (NR   MIcro)
  402     dE    -2.642271e-08     5.676105e-05                           (NR   MIcro)
  402     dE    -3.696999e-08     6.018434e-05                           (NR   MIcro)
  402     dE    -4.669358e-08     4.226401e-05                           (NR   MIcro)
  402     dE    -5.008955e-08     2.031023e-05                           (NR   MIcro)
  402     dE    -5.057159e-08     9.399806e-06                           (NR   MIcro)
  402     dE    -5.117767e-08     1.872491e-05                           (NR   MIcro)
  402     dE    -5.682210e-08     6.863879e-05                           (NR   MIcro)
  402     dE    -7.415397e-08     7.156249e-05                           (NR   MIcro)
  402     dE    -1.045846e-07     1.228156e-04                           (NR   MIcro)
  402     dE     1.583293e-07     5.715646e-04                           (NR   MIcro)
  402     dE     2.356536e-09     8.195519e-05                           (NR   MIcro)
  402     dE    -2.084150e-08     8.402691e-05                           (NR   MIcro)
  402     dE    -3.245393e-08     3.073771e-05                           (NR   MIcro)
  402     dE    -3.358959e-08     1.162336e-05                           (NR   MIcro)
  402     dE    -3.443005e-08     2.423158e-05                           (NR   MIcro)
  402     dE    -4.013684e-08     4.756209e-05                           (NR   MIcro)
  402     dE    -4.469037e-08     2.285023e-05                           (NR   MIcro)
  402     dE    -4.583382e-08     1.284385e-05                           (NR   MIcro)
  402     dE    -4.644377e-08     1.303410e-05                           (NR   MIcro)
  402     dE    -4.723566e-08     1.475739e-05                           (NR   MIcro)
  402     dE    -4.796279e-08     1.488243e-05                           (NR   MIcro)
  403       -295.077922003919     2.141103e-05                           (NR   MAcro)
  403     dE    -1.969747e-09     2.558953e-05                           (NR   MIcro)
  403     dE    -6.845303e-09     4.361797e-05                           (NR   MIcro)
  403     dE    -1.597116e-08     4.631531e-05                           (NR   MIcro)
  403     dE    -2.888529e-08     6.586772e-05                           (NR   MIcro)
  403     dE    -5.075147e-08     7.140598e-05                           (NR   MIcro)
  403     dE    -5.987151e-08     2.537822e-05                           (NR   MIcro)
  403     dE    -6.198070e-08     2.252438e-05                           (NR   MIcro)
  403     dE    -6.710919e-08     6.093816e-05                           (NR   MIcro)
  403     dE    -1.407872e-07     2.087841e-04                           (NR   MIcro)
  403     dE    -3.151515e-07     2.120376e-04                           (NR   MIcro)
  403     dE     7.731384e-07     1.237268e-03                           (NR   MIcro)
  403     dE     8.304458e-08     1.606217e-04                           (NR   MIcro)
  403     dE     1.966115e-08     1.144420e-04                           (NR   MIcro)
  403     dE    -1.366558e-08     1.046996e-04                           (NR   MIcro)
  403     dE    -2.338486e-08     2.550758e-05                           (NR   MIcro)
  403     dE    -2.503184e-08     2.037273e-05                           (NR   MIcro)
  403     dE    -2.718151e-08     3.399085e-05                           (NR   MIcro)
  403     dE    -3.137672e-08     3.523345e-05                           (NR   MIcro)
  403     dE    -3.282277e-08     1.116724e-05                           (NR   MIcro)
  403     dE    -3.307972e-08     7.214503e-06                           (NR   MIcro)
  403     dE    -3.347596e-08     1.544317e-05                           (NR   MIcro)
  403     dE    -3.404872e-08     1.176068e-05                           (NR   MIcro)
  403     dE    -3.507892e-08     2.566090e-05                           (NR   MIcro)
  403     dE    -4.034360e-08     4.038303e-05                           (NR   MIcro)
  404       -295.077922051399     4.230038e-05                           (NR   MAcro)
  404     dE    -3.541686e-09     2.023301e-05                           (NR   MIcro)
  404     dE    -4.815718e-09     1.726943e-05                           (NR   MIcro)
  404     dE    -8.763428e-09     5.599719e-05                           (NR   MIcro)
  404     dE    -1.798530e-08     4.394905e-05                           (NR   MIcro)
  404     dE    -2.758033e-08     6.514088e-05                           (NR   MIcro)
  404     dE    -4.375226e-08     6.027551e-05                           (NR   MIcro)
  404     dE    -4.993824e-08     2.678120e-05                           (NR   MIcro)
  404     dE    -5.143073e-08     2.168924e-05                           (NR   MIcro)
  404     dE    -5.494291e-08     4.562776e-05                           (NR   MIcro)
  404     dE    -1.091183e-07     2.957618e-04                           (NR   MIcro)
  404     dE     2.659867e-07     4.810290e-04                           (NR   MIcro)
  404     dE     5.176262e-08     1.311389e-04                           (NR   MIcro)
  404     dE     5.774847e-09     9.720162e-05                           (NR   MIcro)
  404     dE    -8.063529e-09     4.260329e-05                           (NR   MIcro)
  404     dE    -1.659042e-08     5.381880e-05                           (NR   MIcro)
  404     dE    -2.159266e-08     1.910917e-05                           (NR   MIcro)
  404     dE    -2.216329e-08     9.040545e-06                           (NR   MIcro)
  404     dE    -2.277172e-08     2.000087e-05                           (NR   MIcro)
  404     dE    -2.574290e-08     2.964395e-05                           (NR   MIcro)
  404     dE    -2.728961e-08     1.080593e-05                           (NR   MIcro)
  404     dE    -2.760862e-08     7.571180e-06                           (NR   MIcro)
  404     dE    -2.806018e-08     1.294412e-05                           (NR   MIcro)
  404     dE    -2.879329e-08     1.280734e-05                           (NR   MIcro)
  404     dE    -2.971187e-08     1.905192e-05                           (NR   MIcro)
  405       -295.077922082560     2.384256e-05                           (NR   MAcro)
  405     dE    -1.826894e-09     2.128000e-05                           (NR   MIcro)
  405     dE    -4.884900e-09     3.224064e-05                           (NR   MIcro)
  405     dE    -1.011259e-08     3.472976e-05                           (NR   MIcro)
  405     dE    -2.005950e-08     6.367651e-05                           (NR   MIcro)
  405     dE    -5.463862e-08     1.111024e-04                           (NR   MIcro)
  405     dE    -8.435759e-08     4.756183e-05                           (NR   MIcro)
  405     dE    -9.232062e-08     4.338221e-05                           (NR   MIcro)
  405     dE    -1.129723e-07     1.212856e-04                           (NR   MIcro)
  405     dE     2.290860e-07     4.747735e-04                           (NR   MIcro)
  405     dE     7.152427e-08     7.858721e-05                           (NR   MIcro)
  405     dE     4.263015e-08     8.794551e-05                           (NR   MIcro)
  405     dE     2.315428e-08     5.881353e-05                           (NR   MIcro)
  405     dE     1.249836e-08     5.253172e-05                           (NR   MIcro)
  405     dE    -1.280391e-09     8.216514e-05                           (NR   MIcro)
  405     dE    -7.795055e-09     2.115684e-05                           (NR   MIcro)
  405     dE    -8.900056e-09     1.563140e-05                           (NR   MIcro)
  405     dE    -1.006375e-08     2.521030e-05                           (NR   MIcro)
  405     dE    -1.307282e-08     3.494866e-05                           (NR   MIcro)
  405     dE    -1.469946e-08     1.349086e-05                           (NR   MIcro)
  405     dE    -1.497074e-08     6.731627e-06                           (NR   MIcro)
  405     dE    -1.525471e-08     1.276224e-05                           (NR   MIcro)
  405     dE    -1.553719e-08     8.718483e-06                           (NR   MIcro)
  405     dE    -1.604904e-08     1.759041e-05                           (NR   MIcro)
  405     dE    -1.883464e-08     3.968555e-05                           (NR   MIcro)
  406       -295.077922098120     4.148798e-05                           (NR   MAcro)
  406     dE    -2.898535e-09     1.875317e-05                           (NR   MIcro)
  406     dE    -3.969214e-09     1.611547e-05                           (NR   MIcro)
  406     dE    -7.171488e-09     5.418793e-05                           (NR   MIcro)
  406     dE    -1.556414e-08     4.485050e-05                           (NR   MIcro)
  406     dE    -2.859948e-08     9.284607e-05                           (NR   MIcro)
  406     dE    -7.535359e-08     1.371644e-04                           (NR   MIcro)
  406     dE    -1.174468e-07     8.754576e-05                           (NR   MIcro)
  406     dE    -1.401057e-07     1.127130e-04                           (NR   MIcro)
  406     dE    -3.433743e-07     5.086867e-04                           (NR   MIcro)
  406     dE     5.499730e-08     2.042448e-04                           (NR   MIcro)
  406     dE     2.863284e-08     4.803302e-05                           (NR   MIcro)
  406     dE     2.083995e-08     4.688264e-05                           (NR   MIcro)
  406     dE     1.141602e-08     5.334544e-05                           (NR   MIcro)
  406     dE     5.426607e-09     3.199419e-05                           (NR   MIcro)
  406     dE    -1.428973e-10     4.291037e-05                           (NR   MIcro)
  406     dE    -3.593129e-09     1.493636e-05                           (NR   MIcro)
  406     dE    -4.062748e-09     8.856400e-06                           (NR   MIcro)
  406     dE    -4.691636e-09     1.851822e-05                           (NR   MIcro)
  406     dE    -7.059908e-09     2.161754e-05                           (NR   MIcro)
  406     dE    -7.850701e-09     7.789036e-06                           (NR   MIcro)
  406     dE    -8.023513e-09     5.459033e-06                           (NR   MIcro)
  406     dE    -8.290658e-09     1.039344e-05                           (NR   MIcro)
  406     dE    -8.775896e-09     1.064404e-05                           (NR   MIcro)
  406     dE    -9.487156e-09     1.805676e-05                           (NR   MIcro)
  407       -295.077922098975     2.197441e-05                           (NR   MAcro)
  407     dE    -1.680767e-09     2.118910e-05                           (NR   MIcro)
  407     dE    -4.729241e-09     3.257390e-05                           (NR   MIcro)
  407     dE    -1.045929e-08     3.804163e-05                           (NR   MIcro)
  407     dE    -2.536365e-08     8.458642e-05                           (NR   MIcro)
  407     dE    -1.460481e-07     3.005919e-04                           (NR   MIcro)
  407     dE    -5.353581e-06     3.022611e-03                           (NR   MIcro)
  407     dE     1.050908e-06     5.348500e-04                           (NR   MIcro)
  407     dE     3.016820e-07     3.481703e-04                           (NR   MIcro)
  407     dE     5.845057e-08     1.192388e-04                           (NR   MIcro)
  407     dE     3.906199e-08     3.841397e-05                           (NR   MIcro)
  407     dE     3.119433e-08     4.907936e-05                           (NR   MIcro)
  407     dE     2.377262e-08     3.821515e-05                           (NR   MIcro)
  407     dE     1.948743e-08     3.351941e-05                           (NR   MIcro)
  407     dE     1.213671e-08     6.474773e-05                           (NR   MIcro)
  407     dE     7.906312e-09     1.728985e-05                           (NR   MIcro)
  407     dE     7.211430e-09     1.193084e-05                           (NR   MIcro)
  407     dE     6.566421e-09     1.913292e-05                           (NR   MIcro)
  407     dE     4.756393e-09     2.787888e-05                           (NR   MIcro)
  407     dE     3.520647e-09     1.296689e-05                           (NR   MIcro)
  407     dE     3.290109e-09     6.083659e-06                           (NR   MIcro)
  407     dE     3.068665e-09     1.123467e-05                           (NR   MIcro)
  407     dE     2.867710e-09     7.726711e-06                           (NR   MIcro)
  407     dE     2.418180e-09     1.486401e-05                           (NR   MIcro)
  407     dE     2.457487e-10     3.996350e-05                           (NR   MIcro)
  408       -295.077922082120     4.195345e-05                           (NR   MAcro)
  408     dE    -2.746189e-09     1.851530e-05                           (NR   MIcro)
  408     dE    -4.018730e-09     1.824138e-05                           (NR   MIcro)
  408     dE    -8.407996e-09     6.892028e-05                           (NR   MIcro)
  408     dE    -2.347276e-08     6.663497e-05                           (NR   MIcro)
  408     dE    -6.464843e-08     2.077883e-04                           (NR   MIcro)
  408     dE     2.254317e-07     3.888000e-04                           (NR   MIcro)
  408     dE     1.164490e-07     8.413351e-05                           (NR   MIcro)
  408     dE     1.016278e-07     7.445120e-05                           (NR   MIcro)
  408     dE     7.456412e-08     9.721342e-05                           (NR   MIcro)
  408     dE     3.918254e-08     9.162202e-05                           (NR   MIcro)
  408     dE     3.212420e-08     2.625377e-05                           (NR   MIcro)
  408     dE     2.950236e-08     3.058217e-05                           (NR   MIcro)
  408     dE     2.476915e-08     4.052267e-05                           (NR   MIcro)
  408     dE     2.107484e-08     2.640401e-05                           (NR   MIcro)
  408     dE     1.708874e-08     3.605157e-05                           (NR   MIcro)
  408     dE     1.448847e-08     1.427972e-05                           (NR   MIcro)
  408     dE     1.405637e-08     8.335867e-06                           (NR   MIcro)
  408     dE     1.345873e-08     1.791017e-05                           (NR   MIcro)
  408     dE     1.142096e-08     1.974274e-05                           (NR   MIcro)
  408     dE     1.079393e-08     6.991196e-06                           (NR   MIcro)
  408     dE     1.066937e-08     4.402993e-06                           (NR   MIcro)
  408     dE     1.051516e-08     7.604809e-06                           (NR   MIcro)
  408     dE     1.024588e-08     8.149503e-06                           (NR   MIcro)
  408     dE     9.830465e-09     1.353561e-05                           (NR   MIcro)
  409       -295.077922047807     1.865057e-05                           (NR   MAcro)
  409     dE    -1.910444e-09     2.614238e-05                           (NR   MIcro)
  409     dE    -7.257989e-09     4.532838e-05                           (NR   MIcro)
  409     dE    -2.133226e-08     6.422203e-05                           (NR   MIcro)
  409     dE    -9.044703e-08     2.305879e-04                           (NR   MIcro)
  409     dE     1.973299e-07     2.776265e-04                           (NR   MIcro)
  409     dE     1.235718e-07     5.031877e-05                           (NR   MIcro)
  409     dE     1.139027e-07     4.750244e-05                           (NR   MIcro)
  409     dE     9.507961e-08     9.400809e-05                           (NR   MIcro)
  409     dE     5.469869e-08     7.380290e-05                           (NR   MIcro)
  409     dE     4.574111e-08     2.817336e-05                           (NR   MIcro)
  409     dE     4.155836e-08     3.564748e-05                           (NR   MIcro)
  409     dE     3.701945e-08     3.143744e-05                           (NR   MIcro)
  409     dE     3.470127e-08     2.386805e-05                           (NR   MIcro)
  409     dE     3.033506e-08     5.174490e-05                           (NR   MIcro)
  409     dE     2.772182e-08     1.278908e-05                           (NR   MIcro)
  409     dE     2.731377e-08     9.148739e-06                           (NR   MIcro)
  409     dE     2.687657e-08     1.653136e-05                           (NR   MIcro)
  409     dE     2.576534e-08     2.105589e-05                           (NR   MIcro)
  409     dE     2.494666e-08     1.159911e-05                           (NR   MIcro)
  409     dE     2.477200e-08     6.217929e-06                           (NR   MIcro)
  409     dE     2.459277e-08     1.007654e-05                           (NR   MIcro)
  409     dE     2.441576e-08     8.077173e-06                           (NR   MIcro)
  409     dE     2.370853e-08     1.683250e-05                           (NR   MIcro)
  409     dE     1.892247e-08     7.169616e-05                           (NR   MIcro)
  410       -295.077921987309     7.329433e-05                           (NR   MAcro)
  410     dE    -6.629424e-09     2.402295e-05                           (NR   MIcro)
  410     dE    -9.029960e-09     2.171724e-05                           (NR   MIcro)
  410     dE    -1.372493e-08     7.045889e-05                           (NR   MIcro)
  410     dE    -3.279972e-08     8.443807e-05                           (NR   MIcro)
  410     dE    -1.018377e-07     3.031653e-04                           (NR   MIcro)
  410     dE     1.222093e-07     2.150117e-04                           (NR   MIcro)
  410     dE     7.721032e-08     5.998153e-05                           (NR   MIcro)
  410     dE     7.229025e-08     3.353985e-05                           (NR   MIcro)
  410     dE     6.642979e-08     5.125637e-05                           (NR   MIcro)
  410     dE     5.094727e-08     7.789942e-05                           (NR   MIcro)
  410     dE     4.611932e-08     1.980280e-05                           (NR   MIcro)
  410     dE     4.462797e-08     2.654957e-05                           (NR   MIcro)
  410     dE     4.166342e-08     3.038190e-05                           (NR   MIcro)
  410     dE     3.931643e-08     2.113146e-05                           (NR   MIcro)
  410     dE     3.667522e-08     3.529512e-05                           (NR   MIcro)
  410     dE     3.342233e-08     1.788186e-05                           (NR   MIcro)
  410     dE     3.275405e-08     8.244518e-06                           (NR   MIcro)
  410     dE     3.225502e-08     1.540114e-05                           (NR   MIcro)
  410     dE     3.064743e-08     2.088645e-05                           (NR   MIcro)
  410     dE     2.964966e-08     1.263099e-05                           (NR   MIcro)
  410     dE     2.939831e-08     3.967887e-06                           (NR   MIcro)
  410     dE     2.932821e-08     4.157791e-06                           (NR   MIcro)
  410     dE     2.925248e-08     4.096508e-06                           (NR   MIcro)
  410     dE     2.917193e-08     5.409582e-06                           (NR   MIcro)
  411       -295.077921907084     1.862088e-05                           (NR   MAcro)
  411     dE    -2.980353e-09     3.944219e-05                           (NR   MIcro)
  411     dE    -7.060436e-08     2.271428e-04                           (NR   MIcro)
  411     dE     4.792441e-07     5.324544e-04                           (NR   MIcro)
  411     dE     1.769571e-07     1.452592e-04                           (NR   MIcro)
  411     dE     1.310902e-07     6.128082e-05                           (NR   MIcro)
  411     dE     1.240927e-07     2.193879e-05                           (NR   MIcro)
  411     dE     1.184885e-07     4.531172e-05                           (NR   MIcro)
  411     dE     9.982569e-08     8.363616e-05                           (NR   MIcro)
  411     dE     6.876345e-08     5.225536e-05                           (NR   MIcro)
  411     dE     6.435164e-08     1.783192e-05                           (NR   MIcro)
  411     dE     6.279563e-08     1.605694e-05                           (NR   MIcro)
  411     dE     6.118807e-08     2.031349e-05                           (NR   MIcro)
  411     dE     6.024401e-08     1.264328e-05                           (NR   MIcro)
  411     dE     5.927928e-08     2.199815e-05                           (NR   MIcro)
  411     dE     5.842752e-08     9.284820e-06                           (NR   MIcro)
  411     dE     5.825511e-08     5.125959e-06                           (NR   MIcro)
  411     dE     5.812176e-08     8.173424e-06                           (NR   MIcro)
  411     dE     5.762515e-08     1.849901e-05                           (NR   MIcro)
  411     dE     5.696947e-08     1.060269e-05                           (NR   MIcro)
  411     dE     5.681796e-08     5.437281e-06                           (NR   MIcro)
  411     dE     5.657697e-08     1.488914e-05                           (NR   MIcro)
  411     dE     5.615045e-08     1.226546e-05                           (NR   MIcro)
  411     dE     5.496521e-08     2.785969e-05                           (NR   MIcro)
  411     dE     9.542907e-09     4.597215e-04                           (NR   MIcro)
  412       -295.077921301044     4.705033e-04                     0.039 (TRAH MAcro)   No
  412     dE    -2.210635e-07     1.389957e-04    -2.2106e-07      0.001 (TRAH MIcro)
  412     dE    -2.662286e-07     8.522123e-05    -2.6623e-07      0.001 (TRAH MIcro)
  412     dE    -2.787904e-07     7.436426e-05    -2.7879e-07      0.001 (TRAH MIcro)
  412     dE    -2.882842e-07     4.390885e-05    -2.8828e-07      0.002 (TRAH MIcro)
  413       -295.077921589217     4.341192e-05                           (NR   MAcro)
  413     dE    -3.936935e-09     2.450240e-05                           (NR   MIcro)
  413     dE    -1.277914e-08     6.649767e-05                           (NR   MIcro)
  413     dE    -3.987618e-08     9.407651e-05                           (NR   MIcro)
  413     dE    -8.015928e-08     1.188467e-04                           (NR   MIcro)
  413     dE    -2.605065e-07     3.518799e-04                           (NR   MIcro)
  413     dE    -7.358398e-07     3.746857e-04                           (NR   MIcro)
  413     dE    -1.306638e-06     4.296874e-04                           (NR   MIcro)
  413     dE    -5.992942e-05     4.353833e-02                           (NR   MIcro)
  413     dE     5.209688e-07     4.190251e-04                           (NR   MIcro)
  413     dE     3.276019e-07     1.225256e-04                           (NR   MIcro)
  413     dE     2.972328e-07     1.172519e-04                           (NR   MIcro)
  413     dE     2.386100e-07     1.907209e-04                           (NR   MIcro)
  413     dE     1.863372e-07     1.078066e-04                           (NR   MIcro)
  413     dE     1.446350e-07     1.029616e-04                           (NR   MIcro)
  413     dE     1.111773e-07     8.198064e-05                           (NR   MIcro)
  413     dE     1.020338e-07     3.760605e-05                           (NR   MIcro)
  413     dE     8.901241e-08     1.030984e-04                           (NR   MIcro)
  413     dE     1.379305e-08     1.548340e-04                           (NR   MIcro)
  413     dE    -2.494079e-08     6.309818e-05                           (NR   MIcro)
  413     dE    -3.400207e-08     3.838681e-05                           (NR   MIcro)
  413     dE    -4.672948e-08     8.624065e-05                           (NR   MIcro)
  413     dE    -8.084737e-08     1.058388e-04                           (NR   MIcro)
  413     dE    -1.431772e-07     1.743291e-04                           (NR   MIcro)
  413     dE    -9.178068e-07     9.005738e-04                           (NR   MIcro)
  414       -295.077910830218     1.496576e-03                     0.047 (TRAH MAcro)   No
  414     dE    -2.431179e-06     3.507114e-04    -2.4312e-06      0.002 (TRAH MIcro)
  414     dE    -2.761433e-06     2.732776e-04    -2.7614e-06      0.003 (TRAH MIcro)
  414     dE    -3.206636e-06     3.683151e-04    -3.2065e-06      0.007 (TRAH MIcro)
  414     dE    -3.715704e-06     3.665945e-04    -3.7152e-06      0.012 (TRAH MIcro)
  414     dE    -4.813338e-06     6.184380e-04    -4.8101e-06      0.026 (TRAH MIcro)
  414     dE    -7.155923e-06     6.623839e-04    -4.2462e-04      0.047 (TRAH MIcro)
  414     dE    -7.787517e-06     2.025480e-04    -7.5244e-04      0.047 (TRAH MIcro)
  414     dE    -7.838183e-06     6.635863e-05    -7.7938e-04      0.047 (TRAH MIcro)
  415       -295.077918416265     1.259751e-04                     0.056 (TRAH MAcro)   No
  415     dE    -5.995902e-08     1.488149e-04    -5.9959e-08      0.001 (TRAH MIcro)
  415     dE    -2.794350e-07     4.216297e-04    -2.7943e-07      0.006 (TRAH MIcro)
  415     dE    -2.011457e-06     5.768577e-04    -2.0067e-06      0.048 (TRAH MIcro)
  415     dE    -2.759363e-06     3.089915e-04    -1.4122e-04      0.056 (TRAH MIcro)
  415     dE    -3.194020e-06     3.079737e-04    -2.8335e-04      0.056 (TRAH MIcro)
  415     dE    -3.398351e-06     1.473531e-04    -3.5137e-04      0.056 (TRAH MIcro)
  415     dE    -3.495907e-06     1.740093e-04    -3.8426e-04      0.056 (TRAH MIcro)
  415     dE    -3.402218e-06     2.123288e-04    -5.5427e-04      0.050 (TRAH MIcro)
  415     dE    -3.669937e-06     1.107329e-04    -5.7410e-04      0.053 (TRAH MIcro)
  415     dE    -3.739240e-06     6.397151e-05    -5.7885e-04      0.053 (TRAH MIcro)
  415     dE    -3.918353e-06     2.161024e-04    -5.9028e-04      0.055 (TRAH MIcro)
  415     dE    -4.199486e-06     2.063585e-04    -6.5907e-04      0.056 (TRAH MIcro)
  415     dE    -4.308354e-06     1.141281e-04    -7.1130e-04      0.056 (TRAH MIcro)
  415     dE    -4.336778e-06     7.393975e-05    -7.2537e-04      0.056 (TRAH MIcro)
  415     dE    -4.355869e-06     6.317145e-05    -7.3499e-04      0.056 (TRAH MIcro)
  415     dE    -4.366384e-06     4.939579e-05    -7.4037e-04      0.056 (TRAH MIcro)
  415     dE    -4.377540e-06     6.953205e-05    -7.4610e-04      0.056 (TRAH MIcro)
  415     dE    -4.387815e-06     2.847125e-04    -8.0647e-04      0.055 (TRAH MIcro)
  415     dE    -4.517527e-06     5.082140e-05    -8.2842e-04      0.056 (TRAH MIcro)
  415     dE    -4.521808e-06     3.226407e-05    -8.3119e-04      0.056 (TRAH MIcro)
  415     dE    -4.525875e-06     5.952410e-05    -8.3376e-04      0.056 (TRAH MIcro)
  415     dE    -4.542586e-06     5.015186e-05    -8.4479e-04      0.056 (TRAH MIcro)
  415     dE    -4.547334e-06     2.792066e-05    -8.4799e-04      0.056 (TRAH MIcro)
  416       -295.077921178161     1.478817e-04                     0.056 (TRAH MAcro)   No
  416     dE    -3.303616e-08     5.069580e-05    -3.3036e-08      0.000 (TRAH MIcro)
  416     dE    -6.725920e-08     1.440081e-04    -6.7259e-08      0.002 (TRAH MIcro)
  416     dE    -2.677700e-07     2.386742e-04    -2.6774e-07      0.011 (TRAH MIcro)
  416     dE    -5.172130e-07     2.795469e-04    -5.1696e-07      0.022 (TRAH MIcro)
  416     dE    -1.083874e-06     4.220260e-04    -1.0813e-06      0.049 (TRAH MIcro)
  416     dE    -1.517955e-06     1.350924e-04    -9.4748e-05      0.056 (TRAH MIcro)
  416     dE    -1.568165e-06     7.754147e-05    -1.0701e-04      0.056 (TRAH MIcro)
  416     dE    -1.621709e-06     1.534412e-04    -1.2454e-04      0.056 (TRAH MIcro)
  416     dE    -1.830439e-06     3.253057e-04    -2.9495e-04      0.051 (TRAH MIcro)
  416     dE    -2.350138e-06     1.894920e-04    -3.9705e-04      0.056 (TRAH MIcro)
  416     dE    -2.450318e-06     9.691429e-05    -4.3731e-04      0.056 (TRAH MIcro)
  416     dE    -2.532293e-06     1.661224e-04    -4.7059e-04      0.056 (TRAH MIcro)
  416     dE    -2.635665e-06     1.436222e-04    -5.1311e-04      0.056 (TRAH MIcro)
  416     dE    -1.578716e-06     7.972674e-05    -7.0254e-04      0.036 (TRAH MIcro)
  416     dE    -1.699127e-06     8.119477e-05    -7.1496e-04      0.038 (TRAH MIcro)
  416     dE    -1.816294e-06     5.654324e-05    -7.2549e-04      0.039 (TRAH MIcro)
  416     dE    -1.878281e-06     7.720063e-05    -7.3046e-04      0.040 (TRAH MIcro)
  416     dE    -2.219339e-06     2.397435e-04    -7.5342e-04      0.045 (TRAH MIcro)
  416     dE    -3.329376e-06     2.005431e-04    -8.1050e-04      0.056 (TRAH MIcro)
  416     dE    -3.357247e-06     4.570312e-05    -8.2250e-04      0.056 (TRAH MIcro)
  416     dE    -3.365426e-06     7.645723e-05    -8.2656e-04      0.056 (TRAH MIcro)
  416     dE    -3.388874e-06     6.639717e-05    -8.3626e-04      0.056 (TRAH MIcro)
  416     dE    -3.403283e-06     6.556297e-05    -8.4242e-04      0.056 (TRAH MIcro)
  417       -295.077921971523     1.920545e-04                     0.038 (TRAH MAcro)   No
  417     dE    -4.442603e-08     5.030595e-05    -4.4426e-08      0.000 (TRAH MIcro)
  417     dE    -5.850275e-08     7.530306e-05    -5.8503e-08      0.001 (TRAH MIcro)
  417     dE    -9.652888e-08     8.401066e-05    -9.6528e-08      0.002 (TRAH MIcro)
  417     dE    -1.350769e-07     1.370191e-04    -1.3507e-07      0.005 (TRAH MIcro)
  417     dE    -2.965039e-07     2.632463e-04    -2.9644e-07      0.014 (TRAH MIcro)
  417     dE    -4.375324e-07     9.305016e-05    -4.3731e-07      0.023 (TRAH MIcro)
  417     dE    -4.532078e-07     3.830928e-05    -4.5296e-07      0.024 (TRAH MIcro)
  417     dE    -4.607608e-07     4.890393e-05    -4.6049e-07      0.024 (TRAH MIcro)
  417     dE    -4.807338e-07     8.946428e-05    -4.8042e-07      0.025 (TRAH MIcro)
  417     dE    -5.146821e-07     7.043915e-05    -5.1429e-07      0.028 (TRAH MIcro)
  417     dE    -5.420330e-07     8.604817e-05    -5.4155e-07      0.030 (TRAH MIcro)
  417     dE    -5.787907e-07     1.070077e-04    -5.7817e-07      0.033 (TRAH MIcro)
  417     dE    -6.401644e-07     1.260585e-04    -5.1479e-06      0.038 (TRAH MIcro)
  417     dE    -7.437473e-07     2.237023e-04    -1.5289e-04      0.035 (TRAH MIcro)
  417     dE    -7.836642e-07     1.412648e-04    -4.3475e-04      0.029 (TRAH MIcro)
  417     dE    -9.444690e-07     5.559555e-05    -4.5569e-04      0.033 (TRAH MIcro)
  417     dE    -9.654644e-07     2.512675e-05    -4.5807e-04      0.034 (TRAH MIcro)
  417     dE    -1.008277e-06     1.221430e-04    -4.6268e-04      0.035 (TRAH MIcro)
  417     dE    -1.175448e-06     1.851067e-04    -5.1684e-04      0.038 (TRAH MIcro)
  417     dE    -1.238747e-06     1.486839e-04    -5.7835e-04      0.038 (TRAH MIcro)
  417     dE    -1.269913e-06     1.180273e-04    -6.0869e-04      0.038 (TRAH MIcro)
  417     dE    -4.160379e-07     1.035126e-05    -9.7950e-04      0.013 (TRAH MIcro)
  418       -295.077922279412     2.335650e-05                           (NR   MAcro)
  418     dE    -1.857045e-09     2.264427e-05                           (NR   MIcro)
  418     dE    -9.774205e-09     7.035568e-05                           (NR   MIcro)
  418     dE    -6.992957e-08     1.263599e-04                           (NR   MIcro)
  418     dE    -9.953336e-08     4.963896e-05                           (NR   MIcro)
  418     dE    -1.061364e-07     3.209141e-05                           (NR   MIcro)
  418     dE    -1.129426e-07     4.383968e-05                           (NR   MIcro)
  418     dE    -1.256989e-07     6.675836e-05                           (NR   MIcro)
  418     dE    -1.488744e-07     7.717461e-05                           (NR   MIcro)
  418     dE    -2.380800e-07     2.384082e-04                           (NR   MIcro)
  418     dE    -7.653000e-07     2.619316e-04                           (NR   MIcro)
  418     dE    -1.707585e-06     7.072422e-04                           (NR   MIcro)
  418     dE     9.846114e-07     7.931497e-04                           (NR   MIcro)
  418     dE     1.555029e-07     1.629730e-04                           (NR   MIcro)
  418     dE     1.231778e-07     5.613636e-05                           (NR   MIcro)
  418     dE     9.951407e-08     9.645827e-05                           (NR   MIcro)
  418     dE     6.502113e-08     8.634956e-05                           (NR   MIcro)
  418     dE     3.919964e-08     9.042590e-05                           (NR   MIcro)
  418     dE    -8.909531e-09     1.293974e-04                           (NR   MIcro)
  418     dE    -3.761781e-08     5.857636e-05                           (NR   MIcro)
  418     dE    -4.559740e-08     4.038190e-05                           (NR   MIcro)
  418     dE    -6.285159e-08     1.321077e-04                           (NR   MIcro)
  418     dE    -1.741651e-07     1.947195e-04                           (NR   MIcro)
  418     dE    -2.504079e-07     8.338051e-05                           (NR   MIcro)
  418     dE    -2.601819e-07     3.273269e-05                           (NR   MIcro)
  419       -295.077921932923     1.479686e-04                     0.038 (TRAH MAcro)   No
  419     dE    -2.513107e-08     3.749381e-05    -2.5131e-08      0.000 (TRAH MIcro)
  419     dE    -4.400082e-08     1.087539e-04    -4.4001e-08      0.001 (TRAH MIcro)
  419     dE    -1.359676e-07     1.575441e-04    -1.3596e-07      0.006 (TRAH MIcro)
  419     dE    -2.228969e-07     1.664984e-04    -2.2287e-07      0.012 (TRAH MIcro)
  419     dE    -4.355347e-07     2.660070e-04    -4.3527e-07      0.025 (TRAH MIcro)
  419     dE    -5.690248e-07     8.751262e-05    -5.6840e-07      0.033 (TRAH MIcro)
  419     dE    -5.850078e-07     4.393923e-05    -5.8433e-07      0.034 (TRAH MIcro)
  419     dE    -6.078475e-07     1.024873e-04    -6.0708e-07      0.036 (TRAH MIcro)
  419     dE    -7.072924e-07     1.985933e-04    -5.3944e-05      0.038 (TRAH MIcro)
  419     dE    -8.293705e-07     1.069910e-04    -1.6507e-04      0.037 (TRAH MIcro)
  419     dE    -8.604637e-07     5.823646e-05    -1.8684e-04      0.038 (TRAH MIcro)
  419     dE    -8.791233e-07     7.614229e-05    -2.0393e-04      0.038 (TRAH MIcro)
  419     dE    -9.107185e-07     7.987752e-05    -2.3347e-04      0.038 (TRAH MIcro)
  419     dE    -9.374076e-07     9.538666e-05    -2.5909e-04      0.038 (TRAH MIcro)
  419     dE    -7.620411e-07     9.052997e-05    -4.3812e-04      0.028 (TRAH MIcro)
  419     dE    -8.202123e-07     3.534995e-05    -4.4773e-04      0.029 (TRAH MIcro)
  419     dE    -8.296239e-07     2.504376e-05    -4.4914e-04      0.030 (TRAH MIcro)
  419     dE    -8.722768e-07     1.205659e-04    -4.5510e-04      0.031 (TRAH MIcro)
  419     dE    -9.779565e-07     6.510637e-05    -4.6769e-04      0.034 (TRAH MIcro)
  419     dE    -1.025552e-06     5.043828e-05    -4.7253e-04      0.035 (TRAH MIcro)
  419     dE    -1.086641e-06     9.716619e-05    -4.7809e-04      0.036 (TRAH MIcro)
  419     dE    -1.178098e-06     1.114214e-04    -5.1155e-04      0.038 (TRAH MIcro)
  419     dE    -1.212325e-06     1.239991e-04    -5.4918e-04      0.038 (TRAH MIcro)
  420       -295.077922372703     1.525782e-04                     0.038 (TRAH MAcro)   No
  420     dE    -3.011106e-08     6.918354e-05    -3.0111e-08      0.000 (TRAH MIcro)
  420     dE    -4.665551e-08     7.678713e-05    -4.6655e-08      0.001 (TRAH MIcro)
  420     dE    -5.648596e-08     3.400559e-05    -5.6486e-08      0.001 (TRAH MIcro)
  420     dE    -6.009392e-08     3.506959e-05    -6.0094e-08      0.001 (TRAH MIcro)
  420     dE    -7.039912e-08     7.757584e-05    -7.0399e-08      0.002 (TRAH MIcro)
  420     dE    -7.856665e-08     2.633240e-05    -7.8566e-08      0.003 (TRAH MIcro)
  420     dE    -8.034278e-08     1.983757e-05    -8.0342e-08      0.003 (TRAH MIcro)
  420     dE    -8.322273e-08     4.504562e-05    -8.3222e-08      0.004 (TRAH MIcro)
  420     dE    -9.243783e-08     6.640290e-05    -9.2435e-08      0.005 (TRAH MIcro)
  420     dE    -9.991894e-08     3.377526e-05    -9.9915e-08      0.006 (TRAH MIcro)
  420     dE    -1.044619e-07     3.614349e-05    -1.0446e-07      0.007 (TRAH MIcro)
  420     dE    -1.072356e-07     2.439611e-05    -1.0723e-07      0.008 (TRAH MIcro)
  420     dE    -1.090934e-07     3.311679e-05    -1.0909e-07      0.008 (TRAH MIcro)
  420     dE    -1.180572e-07     6.676397e-05    -1.1805e-07      0.010 (TRAH MIcro)
  420     dE    -1.541113e-07     1.446447e-04    -1.5405e-07      0.019 (TRAH MIcro)
  420     dE    -1.856834e-07     6.241827e-05    -1.8554e-07      0.028 (TRAH MIcro)
  420     dE    -2.036209e-07     8.939370e-05    -2.0341e-07      0.032 (TRAH MIcro)
  420     dE    -3.459643e-07     3.873401e-04    -9.5501e-05      0.038 (TRAH MIcro)
  420     dE    -2.477886e-07     7.703155e-05    -4.7517e-04      0.017 (TRAH MIcro)
  420     dE    -3.698011e-07     8.312011e-05    -5.0986e-04      0.022 (TRAH MIcro)
  420     dE    -5.622761e-07     8.734867e-05    -5.4552e-04      0.028 (TRAH MIcro)
  420     dE    -6.747931e-07     4.578473e-05    -5.6115e-04      0.031 (TRAH MIcro)
  420     dE    -7.216599e-07     4.937661e-05    -5.6696e-04      0.032 (TRAH MIcro)
  421       -295.077922424495     7.993626e-05                           (NR   MAcro)
  421     dE    -8.410394e-09     2.626766e-05                           (NR   MIcro)
  421     dE    -1.276590e-08     4.262407e-05                           (NR   MIcro)
  421     dE    -2.898745e-08     5.801638e-05                           (NR   MIcro)
  421     dE    -3.979528e-08     5.590365e-05                           (NR   MIcro)
  421     dE    -6.380884e-08     9.770394e-05                           (NR   MIcro)
  421     dE    -7.910554e-08     3.148821e-05                           (NR   MIcro)
  421     dE    -8.141581e-08     1.866374e-05                           (NR   MIcro)
  421     dE    -8.445591e-08     4.111451e-05                           (NR   MIcro)
  421     dE    -9.907796e-08     7.581245e-05                           (NR   MIcro)
  421     dE    -1.181692e-07     4.491305e-05                           (NR   MIcro)
  421     dE    -1.242999e-07     3.539625e-05                           (NR   MIcro)
  421     dE    -1.330778e-07     6.444788e-05                           (NR   MIcro)
  421     dE    -1.624460e-07     1.068146e-04                           (NR   MIcro)
  421     dE    -2.397609e-07     2.199619e-04                           (NR   MIcro)
  421     dE     3.138031e-07     6.132217e-04                           (NR   MIcro)
  421     dE     4.271500e-08     1.146892e-04                           (NR   MIcro)
  421     dE     1.246569e-08     8.460015e-05                           (NR   MIcro)
  421     dE    -3.850029e-08     1.556530e-04                           (NR   MIcro)
  421     dE    -5.825801e-08     3.692217e-05                           (NR   MIcro)
  421     dE    -6.011380e-08     1.790257e-05                           (NR   MIcro)
  421     dE    -6.112686e-08     3.277206e-05                           (NR   MIcro)
  421     dE    -6.376274e-08     2.363083e-05                           (NR   MIcro)
  421     dE    -6.599297e-08     3.434167e-05                           (NR   MIcro)
  421     dE    -7.492577e-08     4.642562e-05                           (NR   MIcro)
  422       -295.077922494252     4.837804e-05                           (NR   MAcro)
  422     dE    -4.123744e-09     2.233034e-05                           (NR   MIcro)
  422     dE    -5.745749e-09     1.795201e-05                           (NR   MIcro)
  422     dE    -9.184558e-09     4.388608e-05                           (NR   MIcro)
  422     dE    -1.488065e-08     3.394915e-05                           (NR   MIcro)
  422     dE    -2.425340e-08     7.549866e-05                           (NR   MIcro)
  422     dE    -3.886317e-08     4.619092e-05                           (NR   MIcro)
  422     dE    -4.277387e-08     2.154578e-05                           (NR   MIcro)
  422     dE    -4.375177e-08     1.943720e-05                           (NR   MIcro)
  422     dE    -4.629236e-08     3.599151e-05                           (NR   MIcro)
  422     dE    -6.083484e-08     1.005447e-04                           (NR   MIcro)
  422     dE    -9.347319e-08     9.772912e-05                           (NR   MIcro)
  422     dE    -1.906966e-07     2.689825e-04                           (NR   MIcro)
  422     dE     1.100763e-07     2.830784e-04                           (NR   MIcro)
  422     dE     2.968664e-08     9.856022e-05                           (NR   MIcro)
  422     dE    -7.491927e-09     1.095473e-04                           (NR   MIcro)
  422     dE    -1.815561e-08     2.232771e-05                           (NR   MIcro)
  422     dE    -1.900497e-08     1.162980e-05                           (NR   MIcro)
  422     dE    -2.004303e-08     2.673469e-05                           (NR   MIcro)
  422     dE    -2.354587e-08     2.379679e-05                           (NR   MIcro)
  422     dE    -2.454973e-08     9.343670e-06                           (NR   MIcro)
  422     dE    -2.477638e-08     6.980908e-06                           (NR   MIcro)
  422     dE    -2.512045e-08     1.058953e-05                           (NR   MIcro)
  422     dE    -2.560204e-08     1.122677e-05                           (NR   MIcro)
  422     dE    -2.652283e-08     1.909995e-05                           (NR   MIcro)
  423       -295.077922520735     2.211812e-05                           (NR   MAcro)
  423     dE    -1.413800e-09     1.711242e-05                           (NR   MIcro)
  423     dE    -3.646946e-09     2.649240e-05                           (NR   MIcro)
  423     dE    -8.217628e-09     3.403424e-05                           (NR   MIcro)
  423     dE    -1.455158e-08     4.709219e-05                           (NR   MIcro)
  423     dE    -3.437289e-08     8.541936e-05                           (NR   MIcro)
  423     dE    -5.781236e-08     4.746992e-05                           (NR   MIcro)
  423     dE    -6.255559e-08     2.601606e-05                           (NR   MIcro)
  423     dE    -6.934709e-08     6.857258e-05                           (NR   MIcro)
  423     dE    -2.702022e-07     5.355138e-04                           (NR   MIcro)
  423     dE     1.230395e-07     1.443094e-04                           (NR   MIcro)
  423     dE     7.148228e-08     1.107118e-04                           (NR   MIcro)
  423     dE     3.454622e-08     8.435553e-05                           (NR   MIcro)
  423     dE     1.597959e-08     5.482866e-05                           (NR   MIcro)
  423     dE     6.776899e-09     5.659093e-05                           (NR   MIcro)
  423     dE     1.433747e-09     2.494544e-05                           (NR   MIcro)
  423     dE     3.575123e-10     1.233050e-05                           (NR   MIcro)
  423     dE    -1.636068e-10     1.399455e-05                           (NR   MIcro)
  423     dE    -2.098737e-09     3.580630e-05                           (NR   MIcro)
  423     dE    -4.689619e-09     1.952933e-05                           (NR   MIcro)
  423     dE    -5.224967e-09     8.987304e-06                           (NR   MIcro)
  423     dE    -5.588194e-09     1.693939e-05                           (NR   MIcro)
  423     dE    -6.189897e-09     1.138814e-05                           (NR   MIcro)
  423     dE    -6.878263e-09     2.066846e-05                           (NR   MIcro)
  423     dE    -9.873775e-09     4.274821e-05                           (NR   MIcro)
  424       -295.077922523651     4.370752e-05                           (NR   MAcro)
  424     dE    -2.888964e-09     2.197616e-05                           (NR   MIcro)
  424     dE    -4.217660e-09     1.888294e-05                           (NR   MIcro)
  424     dE    -7.160471e-09     4.573780e-05                           (NR   MIcro)
  424     dE    -1.183825e-08     3.612070e-05                           (NR   MIcro)
  424     dE    -2.267444e-08     9.223231e-05                           (NR   MIcro)
  424     dE    -5.165782e-08     8.748418e-05                           (NR   MIcro)
  424     dE    -6.401633e-08     4.208446e-05                           (NR   MIcro)
  424     dE    -7.220382e-08     7.912399e-05                           (NR   MIcro)
  424     dE    -1.600770e-07     2.988851e-04                           (NR   MIcro)
  424     dE     9.080050e-08     2.263759e-04                           (NR   MIcro)
  424     dE     5.048974e-08     6.604825e-05                           (NR   MIcro)
  424     dE     3.756093e-08     4.948068e-05                           (NR   MIcro)
  424     dE     2.943862e-08     4.353820e-05                           (NR   MIcro)
  424     dE     2.341208e-08     4.451168e-05                           (NR   MIcro)
  424     dE     1.219365e-08     5.813240e-05                           (NR   MIcro)
  424     dE     6.368810e-09     1.813036e-05                           (NR   MIcro)
  424     dE     5.613456e-09     1.238145e-05                           (NR   MIcro)
  424     dE     4.333763e-09     2.754660e-05                           (NR   MIcro)
  424     dE     1.283446e-09     1.845355e-05                           (NR   MIcro)
  424     dE     7.065104e-10     6.989338e-06                           (NR   MIcro)
  424     dE     5.440538e-10     6.350028e-06                           (NR   MIcro)
  424     dE     2.596576e-10     9.158762e-06                           (NR   MIcro)
  424     dE    -1.904199e-10     9.793033e-06                           (NR   MIcro)
  424     dE    -9.581368e-10     2.002685e-05                           (NR   MIcro)
  425       -295.077922511648     2.418870e-05                           (NR   MAcro)
  425     dE    -1.492743e-09     1.694486e-05                           (NR   MIcro)
  425     dE    -3.725345e-09     2.774047e-05                           (NR   MIcro)
  425     dE    -8.820823e-09     3.693777e-05                           (NR   MIcro)
  425     dE    -1.737038e-08     5.878496e-05                           (NR   MIcro)
  425     dE    -6.637759e-08     1.744233e-04                           (NR   MIcro)
  425     dE    -6.751617e-07     5.688979e-04                           (NR   MIcro)
  425     dE    -1.738003e-05     7.593295e-03                           (NR   MIcro)
  425     dE     7.162957e-07     6.405119e-04                           (NR   MIcro)
  425     dE     8.786009e-08     1.437006e-04                           (NR   MIcro)
  425     dE     6.143659e-08     4.138330e-05                           (NR   MIcro)
  425     dE     5.340283e-08     4.983466e-05                           (NR   MIcro)
  425     dE     4.173418e-08     5.570505e-05                           (NR   MIcro)
  425     dE     3.213112e-08     4.289396e-05                           (NR   MIcro)
  425     dE     2.559040e-08     5.497347e-05                           (NR   MIcro)
  425     dE     2.134945e-08     2.124501e-05                           (NR   MIcro)
  425     dE     2.048998e-08     1.180966e-05                           (NR   MIcro)
  425     dE     2.007411e-08     1.493386e-05                           (NR   MIcro)
  425     dE     1.858430e-08     2.948503e-05                           (NR   MIcro)
  425     dE     1.612033e-08     2.332038e-05                           (NR   MIcro)
  425     dE     1.549626e-08     8.835202e-06                           (NR   MIcro)
  425     dE     1.507802e-08     1.735291e-05                           (NR   MIcro)
  425     dE     1.442657e-08     1.298354e-05                           (NR   MIcro)
  425     dE     1.356094e-08     2.244548e-05                           (NR   MIcro)
  425     dE     9.544069e-09     5.980129e-05                           (NR   MIcro)
  426       -295.077922473887     6.056535e-05                           (NR   MAcro)
  426     dE    -4.775583e-09     2.869412e-05                           (NR   MIcro)
  426     dE    -6.753368e-09     2.345524e-05                           (NR   MIcro)
  426     dE    -1.022024e-08     5.061728e-05                           (NR   MIcro)
  426     dE    -1.561230e-08     3.939906e-05                           (NR   MIcro)
  426     dE    -3.139579e-08     1.287368e-04                           (NR   MIcro)
  426     dE    -1.431668e-07     2.439964e-04                           (NR   MIcro)
  426     dE    -3.154082e-07     2.153691e-04                           (NR   MIcro)
  426     dE    -6.436841e-07     6.428092e-04                           (NR   MIcro)
  426     dE     2.475917e-07     3.885641e-04                           (NR   MIcro)
  426     dE     6.859293e-08     1.233365e-04                           (NR   MIcro)
  426     dE     5.449955e-08     4.469071e-05                           (NR   MIcro)
  426     dE     4.831220e-08     3.449449e-05                           (NR   MIcro)
  426     dE     4.474648e-08     2.720055e-05                           (NR   MIcro)
  426     dE     4.189554e-08     2.897214e-05                           (NR   MIcro)
  426     dE     3.513747e-08     5.109689e-05                           (NR   MIcro)
  426     dE     2.952002e-08     1.761771e-05                           (NR   MIcro)
  426     dE     2.869569e-08     1.336636e-05                           (NR   MIcro)
  426     dE     2.708840e-08     3.016518e-05                           (NR   MIcro)
  426     dE     2.264999e-08     2.357954e-05                           (NR   MIcro)
  426     dE     2.161212e-08     9.855124e-06                           (NR   MIcro)
  426     dE     2.133875e-08     7.368989e-06                           (NR   MIcro)
  426     dE     2.100103e-08     9.383309e-06                           (NR   MIcro)
  426     dE     2.061171e-08     9.314598e-06                           (NR   MIcro)
  426     dE     1.988047e-08     2.078942e-05                           (NR   MIcro)
  427       -295.077922413048     2.665201e-05                           (NR   MAcro)
  427     dE    -1.973286e-09     2.071876e-05                           (NR   MIcro)
  427     dE    -5.770855e-09     4.085347e-05                           (NR   MIcro)
  427     dE    -1.961849e-08     6.247620e-05                           (NR   MIcro)
  427     dE    -4.965582e-08     1.187730e-04                           (NR   MIcro)
  427     dE    -1.831190e-06     3.125726e-03                           (NR   MIcro)
  427     dE     1.898817e-07     1.046745e-04                           (NR   MIcro)
  427     dE     1.693143e-07     4.798432e-05                           (NR   MIcro)
  427     dE     1.550874e-07     7.817814e-05                           (NR   MIcro)
  427     dE     9.978911e-08     9.109167e-05                           (NR   MIcro)
  427     dE     8.715239e-08     3.022174e-05                           (NR   MIcro)
  427     dE     8.273919e-08     3.342800e-05                           (NR   MIcro)
  427     dE     7.578853e-08     4.807373e-05                           (NR   MIcro)
  427     dE     6.818214e-08     3.899540e-05                           (NR   MIcro)
  427     dE     6.255796e-08     5.334676e-05                           (NR   MIcro)
  427     dE     5.792962e-08     2.293620e-05                           (NR   MIcro)
  427     dE     5.689122e-08     1.330219e-05                           (NR   MIcro)
  427     dE     5.625615e-08     2.000486e-05                           (NR   MIcro)
  427     dE     5.384120e-08     3.628034e-05                           (NR   MIcro)
  427     dE     5.021606e-08     2.803992e-05                           (NR   MIcro)
  427     dE     4.936408e-08     1.022170e-05                           (NR   MIcro)
  427     dE     4.866592e-08     2.413815e-05                           (NR   MIcro)
  427     dE     4.726424e-08     2.266290e-05                           (NR   MIcro)
  427     dE     4.477885e-08     3.912701e-05                           (NR   MIcro)
  427     dE     2.610797e-08     1.723183e-04                           (NR   MIcro)
  428       -295.077922271602     1.745853e-04                     0.025 (TRAH MAcro)   No
  428     dE    -3.181106e-08     6.765957e-05    -3.1811e-08      0.000 (TRAH MIcro)
  428     dE    -4.059716e-08     4.815001e-05    -4.0597e-08      0.001 (TRAH MIcro)
  428     dE    -4.766728e-08     6.133973e-05    -4.7667e-08      0.001 (TRAH MIcro)
  428     dE    -5.328100e-08     3.289425e-05    -5.3281e-08      0.001 (TRAH MIcro)
  428     dE    -6.349315e-08     1.028142e-04    -6.3493e-08      0.002 (TRAH MIcro)
  428     dE    -1.291453e-07     1.829831e-04    -1.2913e-07      0.010 (TRAH MIcro)
  428     dE    -2.039971e-07     1.281083e-04    -2.0393e-07      0.018 (TRAH MIcro)
  428     dE    -2.387876e-07     1.185092e-04    -2.3867e-07      0.022 (TRAH MIcro)
  428     dE    -3.330145e-07     2.071240e-04    -1.1383e-04      0.025 (TRAH MIcro)
  428     dE    -5.331226e-07     2.462676e-04    -4.5202e-04      0.025 (TRAH MIcro)
  428     dE    -3.904660e-07     6.921094e-05    -7.1198e-04      0.017 (TRAH MIcro)
  428     dE    -4.424868e-07     6.265341e-05    -7.4168e-04      0.019 (TRAH MIcro)
  428     dE    -4.763191e-07     4.134825e-05    -7.5892e-04      0.019 (TRAH MIcro)
  428     dE    -4.978866e-07     3.946724e-05    -7.6907e-04      0.020 (TRAH MIcro)
  428     dE    -5.478665e-07     7.814926e-05    -7.9031e-04      0.021 (TRAH MIcro)
  428     dE    -6.061610e-07     2.876134e-05    -8.1161e-04      0.022 (TRAH MIcro)
  428     dE    -6.137290e-07     1.783556e-05    -8.1411e-04      0.022 (TRAH MIcro)
  428     dE    -6.240293e-07     3.615148e-05    -8.1742e-04      0.023 (TRAH MIcro)
  428     dE    -6.616455e-07     3.767823e-05    -8.2853e-04      0.023 (TRAH MIcro)
  428     dE    -6.748149e-07     1.550766e-05    -8.3204e-04      0.024 (TRAH MIcro)
  429       -295.077922557278     5.168851e-05                           (NR   MAcro)
  429     dE    -3.520702e-09     1.301469e-05                           (NR   MIcro)
  429     dE    -4.399153e-09     1.884133e-05                           (NR   MIcro)
  429     dE    -8.669759e-09     3.251100e-05                           (NR   MIcro)
  429     dE    -1.327657e-08     3.751926e-05                           (NR   MIcro)
  429     dE    -3.150777e-08     1.061470e-04                           (NR   MIcro)
  429     dE    -9.588886e-08     7.165538e-05                           (NR   MIcro)
  429     dE    -1.126920e-07     5.737160e-05                           (NR   MIcro)
  429     dE    -1.390079e-07     9.930375e-05                           (NR   MIcro)
  429     dE     1.448350e-07     3.810516e-04                           (NR   MIcro)
  429     dE     2.717299e-08     5.485103e-05                           (NR   MIcro)
  429     dE     1.935847e-08     3.099732e-05                           (NR   MIcro)
  429     dE     1.572304e-08     3.010647e-05                           (NR   MIcro)
  429     dE     1.236741e-08     2.354745e-05                           (NR   MIcro)
  429     dE     9.567340e-09     3.322120e-05                           (NR   MIcro)
  429     dE     4.861858e-09     3.279299e-05                           (NR   MIcro)
  429     dE     2.290641e-09     1.520211e-05                           (NR   MIcro)
  429     dE     1.953291e-09     6.050626e-06                           (NR   MIcro)
  429     dE     1.477435e-09     1.892756e-05                           (NR   MIcro)
  429     dE     5.016449e-10     1.365002e-05                           (NR   MIcro)
  429     dE     1.510214e-10     8.673844e-06                           (NR   MIcro)
  429     dE    -1.171050e-10     1.173928e-05                           (NR   MIcro)
  429     dE    -5.127572e-10     7.993757e-06                           (NR   MIcro)
  429     dE    -8.292320e-10     1.174282e-05                           (NR   MIcro)
  429     dE    -4.831531e-09     7.072653e-05                           (NR   MIcro)
  430       -295.077922531023     7.142536e-05                           (NR   MAcro)
  430     dE    -4.690073e-09     2.939262e-05                           (NR   MIcro)
  430     dE    -6.026873e-09     1.835667e-05                           (NR   MIcro)
  430     dE    -9.133093e-09     6.718666e-05                           (NR   MIcro)
  430     dE    -1.906895e-08     5.895809e-05                           (NR   MIcro)
  430     dE    -3.628782e-08     9.375118e-05                           (NR   MIcro)
  430     dE    -1.328097e-07     2.973581e-04                           (NR   MIcro)
  430     dE    -4.146087e-07     2.432842e-04                           (NR   MIcro)
  430     dE    -2.235259e-06     2.318585e-03                           (NR   MIcro)
  430     dE     1.208367e-07     1.941006e-04                           (NR   MIcro)
  430     dE     7.372875e-08     5.986603e-05                           (NR   MIcro)
  430     dE     6.554322e-08     4.468345e-05                           (NR   MIcro)
  430     dE     5.468756e-08     6.313095e-05                           (NR   MIcro)
  430     dE     4.196054e-08     5.839851e-05                           (NR   MIcro)
  430     dE     3.216968e-08     5.332522e-05                           (NR   MIcro)
  430     dE     2.346440e-08     3.599506e-05                           (NR   MIcro)
  430     dE     2.113126e-08     1.507963e-05                           (NR   MIcro)
  430     dE     2.062597e-08     1.051310e-05                           (NR   MIcro)
  430     dE     1.984399e-08     2.111120e-05                           (NR   MIcro)
  430     dE     1.704750e-08     2.681820e-05                           (NR   MIcro)
  430     dE     1.623264e-08     6.993552e-06                           (NR   MIcro)
  430     dE     1.613805e-08     4.190936e-06                           (NR   MIcro)
  430     dE     1.604939e-08     6.615550e-06                           (NR   MIcro)
  430     dE     1.593610e-08     4.638269e-06                           (NR   MIcro)
  430     dE     1.579879e-08     9.141325e-06                           (NR   MIcro)
  431       -295.077922480261     1.686591e-05                           (NR   MAcro)
  431     dE    -1.062395e-09     1.968231e-05                           (NR   MIcro)
  431     dE    -4.942692e-09     5.313016e-05                           (NR   MIcro)
  431     dE    -3.818089e-08     1.152133e-04                           (NR   MIcro)
  431     dE    -3.180505e-07     7.035475e-04                           (NR   MIcro)
  431     dE     7.789963e-08     1.228221e-04                           (NR   MIcro)
  431     dE     6.364766e-08     2.223193e-05                           (NR   MIcro)
  431     dE     6.216210e-08     1.905176e-05                           (NR   MIcro)
  431     dE     5.944031e-08     3.737476e-05                           (NR   MIcro)
  431     dE     4.980191e-08     5.433377e-05                           (NR   MIcro)
  431     dE     4.452880e-08     1.910033e-05                           (NR   MIcro)
  431     dE     4.349555e-08     1.763042e-05                           (NR   MIcro)
  431     dE     4.277262e-08     1.283866e-05                           (NR   MIcro)
  431     dE     4.220125e-08     1.384542e-05                           (NR   MIcro)
  431     dE     4.161674e-08     1.945045e-05                           (NR   MIcro)
  431     dE     4.048773e-08     1.751575e-05                           (NR   MIcro)
  431     dE     4.014341e-08     6.026376e-06                           (NR   MIcro)
  431     dE     4.004305e-08     5.223181e-06                           (NR   MIcro)
  431     dE     3.974801e-08     1.626139e-05                           (NR   MIcro)
  431     dE     3.909225e-08     9.837297e-06                           (NR   MIcro)
  431     dE     3.889584e-08     6.129976e-06                           (NR   MIcro)
  431     dE     3.865275e-08     1.239106e-05                           (NR   MIcro)
  431     dE     3.823315e-08     9.436963e-06                           (NR   MIcro)
  431     dE     3.757209e-08     2.107743e-05                           (NR   MIcro)
  431     dE     7.864045e-08     4.141972e-04                           (NR   MIcro)
  432       -295.077921695132     4.273067e-04                     0.025 (TRAH MAcro)   No
  432     dE    -2.438568e-07     1.564037e-04    -2.4386e-07      0.001 (TRAH MIcro)
  432     dE    -2.776565e-07     7.303537e-05    -2.7766e-07      0.001 (TRAH MIcro)
  432     dE    -2.978859e-07     1.037653e-04    -2.9789e-07      0.001 (TRAH MIcro)
  432     dE    -3.203775e-07     6.262296e-05    -3.2038e-07      0.002 (TRAH MIcro)
  432     dE    -3.412829e-07     1.013702e-04    -3.4128e-07      0.003 (TRAH MIcro)
  432     dE    -4.710511e-07     3.261727e-04    -4.7099e-07      0.011 (TRAH MIcro)
  432     dE    -7.024079e-07     1.703587e-04    -3.0156e-05      0.025 (TRAH MIcro)
  432     dE    -7.799948e-07     1.377899e-04    -1.5946e-04      0.025 (TRAH MIcro)
  432     dE    -8.970691e-07     2.246407e-04    -3.5707e-04      0.025 (TRAH MIcro)
  432     dE    -9.668564e-07     1.473242e-04    -6.4590e-04      0.023 (TRAH MIcro)
  432     dE    -1.038153e-06     5.987608e-05    -6.6321e-04      0.025 (TRAH MIcro)
  432     dE    -1.061666e-06     4.612777e-05    -6.6853e-04      0.025 (TRAH MIcro)
  432     dE    -1.078134e-06     5.223484e-05    -6.7667e-04      0.025 (TRAH MIcro)
  432     dE    -1.084553e-06     4.570422e-05    -6.8849e-04      0.025 (TRAH MIcro)
  432     dE    -1.102091e-06     8.705656e-05    -7.2348e-04      0.025 (TRAH MIcro)
  432     dE    -1.132300e-06     7.899488e-05    -7.9031e-04      0.025 (TRAH MIcro)
  432     dE    -1.139191e-06     2.565104e-05    -8.0635e-04      0.025 (TRAH MIcro)
  433       -295.077922460446     5.029860e-05                           (NR   MAcro)
  433     dE    -4.265312e-09     2.165226e-05                           (NR   MIcro)
  433     dE    -7.983893e-09     4.663222e-05                           (NR   MIcro)
  433     dE    -3.777371e-08     8.801770e-05                           (NR   MIcro)
  433     dE    -5.651491e-08     4.615975e-05                           (NR   MIcro)
  433     dE    -6.541768e-08     4.399906e-05                           (NR   MIcro)
  433     dE    -7.602740e-08     5.807882e-05                           (NR   MIcro)
  433     dE    -9.260778e-08     7.262308e-05                           (NR   MIcro)
  433     dE    -1.493347e-07     1.726903e-04                           (NR   MIcro)
  433     dE     2.051212e-07     3.565085e-04                           (NR   MIcro)
  433     dE     8.990466e-08     4.096819e-05                           (NR   MIcro)
  433     dE     8.600941e-08     2.144584e-05                           (NR   MIcro)
  433     dE     8.260708e-08     3.461278e-05                           (NR   MIcro)
  433     dE     6.203717e-08     9.112587e-05                           (NR   MIcro)
  433     dE     3.639458e-08     5.892545e-05                           (NR   MIcro)
  433     dE     2.410778e-08     4.950550e-05                           (NR   MIcro)
  433     dE     1.681763e-08     3.493509e-05                           (NR   MIcro)
  433     dE     1.401054e-08     1.657095e-05                           (NR   MIcro)
  433     dE     1.235082e-08     3.302926e-05                           (NR   MIcro)
  433     dE     3.310134e-09     8.303731e-05                           (NR   MIcro)
  433     dE    -2.720456e-08     1.466811e-04                           (NR   MIcro)
  433     dE    -5.109246e-08     5.645425e-05                           (NR   MIcro)
  433     dE    -6.360845e-08     5.970511e-05                           (NR   MIcro)
  433     dE    -8.348185e-08     8.888935e-05                           (NR   MIcro)
  433     dE    -1.133131e-07     1.029841e-04                           (NR   MIcro)
  434       -295.077922175079     1.219542e-04                     0.025 (TRAH MAcro)   No
  434     dE    -2.667967e-08     6.798191e-05    -2.6680e-08      0.000 (TRAH MIcro)
  434     dE    -5.045837e-08     8.679971e-05    -5.0458e-08      0.001 (TRAH MIcro)
  434     dE    -6.923164e-08     5.861376e-05    -6.9231e-08      0.002 (TRAH MIcro)
  434     dE    -9.270793e-08     1.138958e-04    -9.2707e-08      0.003 (TRAH MIcro)
  434     dE    -2.058715e-07     2.079699e-04    -2.0585e-07      0.010 (TRAH MIcro)
  434     dE    -2.794730e-07     9.698190e-05    -2.7941e-07      0.015 (TRAH MIcro)
  434     dE    -3.026821e-07     6.045837e-05    -3.0260e-07      0.017 (TRAH MIcro)
  434     dE    -3.238679e-07     1.194804e-04    -3.2376e-07      0.018 (TRAH MIcro)
  434     dE    -3.859944e-07     1.468473e-04    -3.8580e-07      0.022 (TRAH MIcro)
  434     dE    -4.553103e-07     1.122861e-04    -6.2354e-05      0.025 (TRAH MIcro)
  434     dE    -5.086976e-07     1.429406e-04    -1.6459e-04      0.025 (TRAH MIcro)
  434     dE    -5.492181e-07     8.868599e-05    -2.4415e-04      0.025 (TRAH MIcro)
  434     dE    -5.358516e-07     1.072240e-04    -3.6400e-04      0.023 (TRAH MIcro)
  434     dE    -6.404773e-07     1.384285e-04    -4.3047e-04      0.025 (TRAH MIcro)
  434     dE    -6.999714e-07     1.116563e-04    -5.5664e-04      0.025 (TRAH MIcro)
  434     dE    -7.092998e-07     2.368772e-05    -5.7667e-04      0.025 (TRAH MIcro)
  434     dE    -7.112799e-07     2.667383e-05    -5.8087e-04      0.025 (TRAH MIcro)
  434     dE    -7.235379e-07     1.163063e-04    -6.0767e-04      0.025 (TRAH MIcro)
  434     dE    -4.408437e-07     2.896542e-05    -9.2386e-04      0.015 (TRAH MIcro)
  434     dE    -4.532876e-07     2.470322e-05    -9.2841e-04      0.015 (TRAH MIcro)
  434     dE    -4.635247e-07     1.837723e-05    -9.3180e-04      0.016 (TRAH MIcro)
  434     dE    -4.687196e-07     9.797205e-06    -9.3336e-04      0.016 (TRAH MIcro)
  435       -295.077922508507     3.005564e-05                           (NR   MAcro)
  435     dE    -2.432268e-09     2.348852e-05                           (NR   MIcro)
  435     dE    -1.169015e-08     8.120315e-05                           (NR   MIcro)
  435     dE    -7.995837e-08     1.578011e-04                           (NR   MIcro)
  435     dE    -1.274902e-07     6.851327e-05                           (NR   MIcro)
  435     dE    -1.431254e-07     5.843030e-05                           (NR   MIcro)
  435     dE    -1.639702e-07     8.190189e-05                           (NR   MIcro)
  435     dE    -2.048354e-07     1.226514e-04                           (NR   MIcro)
  435     dE    -2.893922e-07     1.652884e-04                           (NR   MIcro)
  435     dE    -1.267818e-06     1.134250e-03                           (NR   MIcro)
  435     dE     8.500073e-07     2.967518e-04                           (NR   MIcro)
  435     dE     3.526670e-07     3.862223e-04                           (NR   MIcro)
  435     dE     9.473355e-08     1.560024e-04                           (NR   MIcro)
  435     dE     5.277172e-08     6.613664e-05                           (NR   MIcro)
  435     dE     4.611997e-08     4.169909e-05                           (NR   MIcro)
  435     dE     3.648252e-08     6.217479e-05                           (NR   MIcro)
  435     dE     1.573719e-08     9.061107e-05                           (NR   MIcro)
  435     dE    -5.779703e-09     8.283043e-05                           (NR   MIcro)
  435     dE    -3.965454e-08     1.241433e-04                           (NR   MIcro)
  435     dE    -5.877140e-08     4.851646e-05                           (NR   MIcro)
  435     dE    -6.257943e-08     2.605129e-05                           (NR   MIcro)
  435     dE    -6.827020e-08     7.758804e-05                           (NR   MIcro)
  435     dE    -1.115621e-07     1.184541e-04                           (NR   MIcro)
  435     dE    -1.463526e-07     7.195919e-05                           (NR   MIcro)
  435     dE    -1.566155e-07     3.872542e-05                           (NR   MIcro)
  436       -295.077922361989     8.061301e-05                           (NR   MAcro)
  436     dE    -9.951883e-09     3.589812e-05                           (NR   MIcro)
  436     dE    -2.073552e-08     7.955080e-05                           (NR   MIcro)
  436     dE    -6.044676e-08     9.223772e-05                           (NR   MIcro)
  436     dE    -9.278167e-08     1.044477e-04                           (NR   MIcro)
  436     dE    -1.656580e-07     1.538542e-04                           (NR   MIcro)
  436     dE    -2.061975e-07     5.795143e-05                           (NR   MIcro)
  436     dE    -2.199469e-07     6.221965e-05                           (NR   MIcro)
  436     dE    -2.756129e-07     1.927477e-04                           (NR   MIcro)
  436     dE    -8.897541e-07     7.708018e-04                           (NR   MIcro)
  436     dE     2.335178e-06     7.553601e-04                           (NR   MIcro)
  436     dE     1.454441e-06     3.897735e-04                           (NR   MIcro)
  436     dE     9.913830e-07     3.272807e-04                           (NR   MIcro)
  436     dE     6.207234e-07     2.977492e-04                           (NR   MIcro)
  436     dE     3.970358e-07     2.429804e-04                           (NR   MIcro)
  436     dE     1.331824e-07     2.628082e-04                           (NR   MIcro)
  436     dE     7.549840e-08     6.890774e-05                           (NR   MIcro)
  436     dE     6.548362e-08     5.133248e-05                           (NR   MIcro)
  436     dE     3.454795e-08     2.008815e-04                           (NR   MIcro)
  436     dE    -3.847434e-08     9.853680e-05                           (NR   MIcro)
  436     dE    -5.906271e-08     6.743147e-05                           (NR   MIcro)
  436     dE    -7.944212e-08     1.119656e-04                           (NR   MIcro)
  436     dE    -1.304697e-07     1.042711e-04                           (NR   MIcro)
  436     dE    -1.712818e-07     1.233020e-04                           (NR   MIcro)
  436     dE    -2.607958e-07     1.565887e-04                           (NR   MIcro)
  437       -295.077922246948     1.677155e-04                     0.025 (TRAH MAcro)   No
  437     dE    -3.847409e-08     6.174316e-05    -3.8474e-08      0.000 (TRAH MIcro)
  437     dE    -5.044450e-08     4.651706e-05    -5.0444e-08      0.001 (TRAH MIcro)
  437     dE    -5.914754e-08     5.200180e-05    -5.9147e-08      0.001 (TRAH MIcro)
  437     dE    -6.925128e-08     4.659385e-05    -6.9251e-08      0.002 (TRAH MIcro)
  437     dE    -8.534400e-08     9.299931e-05    -8.5343e-08      0.003 (TRAH MIcro)
  437     dE    -1.522226e-07     1.813651e-04    -1.5221e-07      0.009 (TRAH MIcro)
  437     dE    -2.494064e-07     1.097027e-04    -2.4932e-07      0.018 (TRAH MIcro)
  437     dE    -2.781494e-07     9.406654e-05    -2.7803e-07      0.021 (TRAH MIcro)
  437     dE    -3.512490e-07     2.212098e-04    -5.0555e-05      0.025 (TRAH MIcro)
  437     dE    -4.557192e-07     1.039259e-04    -3.0080e-04      0.023 (TRAH MIcro)
  437     dE    -4.975141e-07     5.578034e-05    -3.1373e-04      0.025 (TRAH MIcro)
  437     dE    -5.172611e-07     7.527803e-05    -3.3525e-04      0.025 (TRAH MIcro)
  437     dE    -5.429907e-07     8.471607e-05    -3.8158e-04      0.025 (TRAH MIcro)
  437     dE    -5.702183e-07     9.717978e-05    -4.3208e-04      0.025 (TRAH MIcro)
  437     dE    -4.047358e-07     1.141448e-04    -7.9365e-04      0.016 (TRAH MIcro)
  437     dE    -4.737206e-07     3.982654e-05    -8.2380e-04      0.018 (TRAH MIcro)
  437     dE    -4.850005e-07     1.890219e-05    -8.2805e-04      0.018 (TRAH MIcro)
  437     dE    -4.881829e-07     1.818525e-05    -8.2921e-04      0.018 (TRAH MIcro)
  437     dE    -4.973909e-07     2.951416e-05    -8.3251e-04      0.019 (TRAH MIcro)
  437     dE    -5.239806e-07     4.790295e-05    -8.4091e-04      0.019 (TRAH MIcro)
  437     dE    -5.463051e-07     2.629441e-05    -8.4692e-04      0.020 (TRAH MIcro)
  437     dE    -5.619593e-07     2.799329e-05    -8.5075e-04      0.020 (TRAH MIcro)
  437     dE    -5.704863e-07     1.134963e-05    -8.5274e-04      0.021 (TRAH MIcro)
  438       -295.077922552144     4.358887e-05                           (NR   MAcro)
  438     dE    -2.840098e-09     1.404019e-05                           (NR   MIcro)
  438     dE    -5.595269e-09     4.236153e-05                           (NR   MIcro)
  438     dE    -4.696743e-08     1.628496e-04                           (NR   MIcro)
  438     dE    -1.132223e-07     7.181810e-05                           (NR   MIcro)
  438     dE    -1.263183e-07     4.113233e-05                           (NR   MIcro)
  438     dE    -1.397067e-07     6.423168e-05                           (NR   MIcro)
  438     dE    -1.766251e-07     1.269179e-04                           (NR   MIcro)
  438     dE    -3.298789e-07     2.565204e-04                           (NR   MIcro)
  438     dE     2.349580e-07     4.693528e-04                           (NR   MIcro)
  438     dE     4.167456e-08     8.509605e-05                           (NR   MIcro)
  438     dE     2.732212e-08     4.440156e-05                           (NR   MIcro)
  438     dE     1.881749e-08     5.771731e-05                           (NR   MIcro)
  438     dE     2.673984e-09     7.616537e-05                           (NR   MIcro)
  438     dE    -3.401293e-09     2.168731e-05                           (NR   MIcro)
  438     dE    -4.649936e-09     1.756406e-05                           (NR   MIcro)
  438     dE    -7.440001e-09     4.164048e-05                           (NR   MIcro)
  438     dE    -1.110706e-08     3.003885e-05                           (NR   MIcro)
  438     dE    -1.790128e-08     7.882337e-05                           (NR   MIcro)
  438     dE    -3.397270e-08     6.365904e-05                           (NR   MIcro)
  438     dE    -3.858180e-08     2.604430e-05                           (NR   MIcro)
  438     dE    -3.968917e-08     1.845760e-05                           (NR   MIcro)
  438     dE    -4.401775e-08     4.811326e-05                           (NR   MIcro)
  438     dE    -5.429325e-08     6.205055e-05                           (NR   MIcro)
  438     dE    -6.368090e-08     3.948725e-05                           (NR   MIcro)
  439       -295.077922524302     5.152393e-05                           (NR   MAcro)
  439     dE    -3.610098e-09     2.562714e-05                           (NR   MIcro)
  439     dE    -6.941210e-09     3.657410e-05                           (NR   MIcro)
  439     dE    -1.179845e-08     3.347284e-05                           (NR   MIcro)
  439     dE    -1.950407e-08     7.036584e-05                           (NR   MIcro)
  439     dE    -7.924279e-08     1.930469e-04                           (NR   MIcro)
  439     dE    -1.580512e-07     9.374417e-05                           (NR   MIcro)
  439     dE    -1.921185e-07     1.060877e-04                           (NR   MIcro)
  439     dE    -6.319766e-07     8.951283e-04                           (NR   MIcro)
  439     dE     1.757217e-07     2.395459e-04                           (NR   MIcro)
  439     dE     9.961249e-08     7.216769e-05                           (NR   MIcro)
  439     dE     8.834617e-08     6.324583e-05                           (NR   MIcro)
  439     dE     8.229320e-08     3.188783e-05                           (NR   MIcro)
  439     dE     7.864104e-08     4.281448e-05                           (NR   MIcro)
  439     dE     7.117297e-08     5.822336e-05                           (NR   MIcro)
  439     dE     3.639589e-08     1.638297e-04                           (NR   MIcro)
  439     dE     9.537702e-09     3.949436e-05                           (NR   MIcro)
  439     dE     7.064582e-09     2.055079e-05                           (NR   MIcro)
  439     dE     4.820686e-09     3.737783e-05                           (NR   MIcro)
  439     dE    -2.606070e-09     4.358199e-05                           (NR   MIcro)
  439     dE    -1.192040e-08     5.707225e-05                           (NR   MIcro)
  439     dE    -3.726500e-08     1.091516e-04                           (NR   MIcro)
  439     dE    -7.843934e-08     7.657497e-05                           (NR   MIcro)
  439     dE    -8.592724e-08     2.091780e-05                           (NR   MIcro)
  439     dE    -8.893557e-08     3.455204e-05                           (NR   MIcro)
  440       -295.077922308714     6.655609e-05                           (NR   MAcro)
  440     dE    -6.848598e-09     2.890191e-05                           (NR   MIcro)
  440     dE    -1.461719e-08     7.274478e-05                           (NR   MIcro)
  440     dE    -1.083525e-07     2.083423e-04                           (NR   MIcro)
  440     dE    -2.257302e-07     1.310765e-04                           (NR   MIcro)
  440     dE    -2.782190e-07     9.136748e-05                           (NR   MIcro)
  440     dE    -3.087031e-07     8.417917e-05                           (NR   MIcro)
  440     dE    -3.417371e-07     8.557725e-05                           (NR   MIcro)
  440     dE    -3.778927e-07     1.194623e-04                           (NR   MIcro)
  440     dE    -5.916459e-07     4.757234e-04                           (NR   MIcro)
  440     dE     5.543544e-07     2.697747e-04                           (NR   MIcro)
  440     dE     4.358456e-07     9.092966e-05                           (NR   MIcro)
  440     dE     4.033627e-07     9.366655e-05                           (NR   MIcro)
  440     dE     2.990984e-07     1.992468e-04                           (NR   MIcro)
  440     dE     1.794711e-07     1.498933e-04                           (NR   MIcro)
  440     dE     4.371252e-08     2.147501e-04                           (NR   MIcro)
  440     dE    -8.522469e-08     1.319285e-04                           (NR   MIcro)
  440     dE    -1.167650e-07     6.220020e-05                           (NR   MIcro)
  440     dE    -1.347744e-07     1.010548e-04                           (NR   MIcro)
  440     dE    -1.793465e-07     1.212235e-04                           (NR   MIcro)
  440     dE    -2.320609e-07     1.102464e-04                           (NR   MIcro)
  440     dE    -2.430475e-07     4.640199e-05                           (NR   MIcro)
  440     dE    -2.599330e-07     1.148440e-04                           (NR   MIcro)
  440     dE    -3.092634e-07     1.301867e-04                           (NR   MIcro)
  440     dE    -3.723879e-07     1.440528e-04                           (NR   MIcro)
  441       -295.077922015058     1.826913e-04                     0.025 (TRAH MAcro)   No
  441     dE    -4.734367e-08     8.528934e-05    -4.7344e-08      0.000 (TRAH MIcro)
  441     dE    -7.953748e-08     1.019437e-04    -7.9537e-08      0.001 (TRAH MIcro)
  441     dE    -1.012056e-07     5.752722e-05    -1.0121e-07      0.002 (TRAH MIcro)
  441     dE    -1.191727e-07     9.483102e-05    -1.1917e-07      0.002 (TRAH MIcro)
  441     dE    -2.674659e-07     2.932296e-04    -2.6743e-07      0.011 (TRAH MIcro)
  441     dE    -3.858054e-07     1.167148e-04    -3.8568e-07      0.018 (TRAH MIcro)
  441     dE    -4.189120e-07     1.019092e-04    -4.1874e-07      0.020 (TRAH MIcro)
  441     dE    -5.001144e-07     1.942376e-04    -8.4797e-06      0.025 (TRAH MIcro)
  441     dE    -6.585062e-07     2.232442e-04    -2.9103e-04      0.025 (TRAH MIcro)
  441     dE    -7.241372e-07     8.994664e-05    -4.6330e-04      0.024 (TRAH MIcro)
  441     dE    -7.711472e-07     7.978746e-05    -5.0072e-04      0.025 (TRAH MIcro)
  441     dE    -7.927999e-07     6.283635e-05    -5.4251e-04      0.025 (TRAH MIcro)
  441     dE    -8.041954e-07     5.361600e-05    -5.6487e-04      0.025 (TRAH MIcro)
  441     dE    -8.191629e-07     7.908801e-05    -5.9479e-04      0.025 (TRAH MIcro)
  441     dE    -8.498386e-07     7.917287e-05    -6.5906e-04      0.025 (TRAH MIcro)
  441     dE    -8.437132e-07     2.547740e-05    -6.7749e-04      0.025 (TRAH MIcro)
  441     dE    -8.580458e-07     5.961323e-05    -6.8083e-04      0.025 (TRAH MIcro)
  441     dE    -8.858140e-07     1.117412e-04    -7.4286e-04      0.025 (TRAH MIcro)
  441     dE    -5.193587e-07     1.699411e-05    -1.1233e-03      0.015 (TRAH MIcro)
  442       -295.077922411327     3.093798e-05                           (NR   MAcro)
  442     dE    -3.201705e-09     2.969560e-05                           (NR   MIcro)
  442     dE    -1.062465e-08     6.493537e-05                           (NR   MIcro)
  442     dE    -3.496153e-08     7.636209e-05                           (NR   MIcro)
  442     dE    -7.374773e-08     1.399135e-04                           (NR   MIcro)
  442     dE    -3.559402e-07     3.728985e-04                           (NR   MIcro)
  442     dE    -8.530262e-07     2.622192e-04                           (NR   MIcro)
  442     dE    -1.109058e-06     2.321546e-04                           (NR   MIcro)
  442     dE    -2.038424e-06     8.951112e-04                           (NR   MIcro)
  442     dE     8.317049e-07     7.390126e-04                           (NR   MIcro)
  442     dE     2.744410e-07     1.300926e-04                           (NR   MIcro)
  442     dE     1.923088e-07     1.339427e-04                           (NR   MIcro)
  442     dE     1.517289e-07     7.253851e-05                           (NR   MIcro)
  442     dE     1.283619e-07     8.403426e-05                           (NR   MIcro)
  442     dE     8.992993e-08     1.160552e-04                           (NR   MIcro)
  442     dE     2.016447e-08     1.215037e-04                           (NR   MIcro)
  442     dE     1.235901e-09     4.200733e-05                           (NR   MIcro)
  442     dE    -4.603172e-09     4.365972e-05                           (NR   MIcro)
  442     dE    -2.988161e-08     1.447926e-04                           (NR   MIcro)
  442     dE    -5.744517e-08     5.272171e-05                           (NR   MIcro)
  442     dE    -6.463650e-08     4.218954e-05                           (NR   MIcro)
  442     dE    -7.249414e-08     6.592254e-05                           (NR   MIcro)
  442     dE    -8.396193e-08     5.052941e-05                           (NR   MIcro)
  442     dE    -9.784765e-08     1.088240e-04                           (NR   MIcro)
  442     dE    -1.530991e-07     1.378142e-04                           (NR   MIcro)
  443       -295.077922247516     1.535995e-04                     0.030 (TRAH MAcro)   No
  443     dE    -2.946013e-08     4.756174e-05    -2.9460e-08      0.000 (TRAH MIcro)
  443     dE    -3.744974e-08     3.895605e-05    -3.7450e-08      0.000 (TRAH MIcro)
  443     dE    -4.782793e-08     6.471070e-05    -4.7828e-08      0.001 (TRAH MIcro)
  443     dE    -7.484560e-08     8.841908e-05    -7.4845e-08      0.003 (TRAH MIcro)
  443     dE    -1.162061e-07     1.168986e-04    -1.1620e-07      0.007 (TRAH MIcro)
  443     dE    -2.030941e-07     1.862422e-04    -2.0305e-07      0.014 (TRAH MIcro)
  443     dE    -3.191210e-07     1.071491e-04    -3.1893e-07      0.024 (TRAH MIcro)
  443     dE    -3.420714e-07     5.977980e-05    -3.4183e-07      0.026 (TRAH MIcro)
  443     dE    -3.814986e-07     1.688737e-04    -3.8116e-07      0.030 (TRAH MIcro)
  443     dE    -5.161125e-07     1.295207e-04    -3.2194e-04      0.025 (TRAH MIcro)
  443     dE    -6.030528e-07     7.240235e-05    -3.4494e-04      0.028 (TRAH MIcro)
  443     dE    -6.774231e-07     1.028815e-04    -3.6190e-04      0.030 (TRAH MIcro)
  443     dE    -7.520245e-07     1.420490e-04    -4.5232e-04      0.030 (TRAH MIcro)
  443     dE    -8.169269e-07     9.219894e-05    -5.3842e-04      0.030 (TRAH MIcro)
  443     dE    -8.603635e-07     1.170815e-04    -6.0016e-04      0.030 (TRAH MIcro)
  443     dE    -4.599957e-07     2.754847e-05    -8.1985e-04      0.018 (TRAH MIcro)
  443     dE    -4.677626e-07     1.921142e-05    -8.2324e-04      0.018 (TRAH MIcro)
  443     dE    -4.741514e-07     3.255619e-05    -8.2596e-04      0.018 (TRAH MIcro)
  443     dE    -5.064140e-07     5.760705e-05    -8.3791e-04      0.019 (TRAH MIcro)
  443     dE    -5.468872e-07     2.988515e-05    -8.5024e-04      0.020 (TRAH MIcro)
  443     dE    -5.530665e-07     1.155565e-05    -8.5196e-04      0.020 (TRAH MIcro)
  444       -295.077922540294     4.009502e-05                           (NR   MAcro)
  444     dE    -2.466278e-09     1.377698e-05                           (NR   MIcro)
  444     dE    -4.177940e-09     3.125322e-05                           (NR   MIcro)
  444     dE    -1.205726e-08     4.617532e-05                           (NR   MIcro)
  444     dE    -2.248170e-08     6.468432e-05                           (NR   MIcro)
  444     dE    -8.349259e-08     1.735980e-04                           (NR   MIcro)
  444     dE    -1.574368e-07     7.350094e-05                           (NR   MIcro)
  444     dE    -1.810406e-07     9.256899e-05                           (NR   MIcro)
  444     dE    -8.544778e-07     9.430635e-04                           (NR   MIcro)
  444     dE     1.289029e-07     1.668950e-04                           (NR   MIcro)
  444     dE     8.450847e-08     5.820864e-05                           (NR   MIcro)
  444     dE     6.834751e-08     6.114746e-05                           (NR   MIcro)
  444     dE     5.707361e-08     4.138456e-05                           (NR   MIcro)
  444     dE     4.856130e-08     4.820070e-05                           (NR   MIcro)
  444     dE     3.019225e-08     7.865509e-05                           (NR   MIcro)
  444     dE     1.169887e-08     4.548537e-05                           (NR   MIcro)
  444     dE     7.768071e-09     2.139638e-05                           (NR   MIcro)
  444     dE     5.706084e-09     2.762003e-05                           (NR   MIcro)
  444     dE    -2.589764e-09     6.676183e-05                           (NR   MIcro)
  444     dE    -7.289832e-09     2.008714e-05                           (NR   MIcro)
  444     dE    -8.469531e-09     1.688627e-05                           (NR   MIcro)
  444     dE    -1.010077e-08     2.841403e-05                           (NR   MIcro)
  444     dE    -1.318290e-08     2.913709e-05                           (NR   MIcro)
  444     dE    -1.763889e-08     5.130763e-05                           (NR   MIcro)
  444     dE    -4.015477e-08     7.409302e-05                           (NR   MIcro)
  445       -295.077922501776     8.088491e-05                           (NR   MAcro)
  445     dE    -5.824623e-09     2.174924e-05                           (NR   MIcro)
  445     dE    -7.473067e-09     2.303905e-05                           (NR   MIcro)
  445     dE    -1.251330e-08     6.508701e-05                           (NR   MIcro)
  445     dE    -2.952635e-08     8.907636e-05                           (NR   MIcro)
  445     dE    -7.395967e-08     1.671774e-04                           (NR   MIcro)
  445     dE    -2.242129e-07     3.259156e-04                           (NR   MIcro)
  445     dE    -9.165911e-07     7.629291e-04                           (NR   MIcro)
  445     dE    -8.838241e-06     3.763518e-03                           (NR   MIcro)
  445     dE     5.449842e-07     5.845792e-04                           (NR   MIcro)
  445     dE     6.660026e-08     1.722492e-04                           (NR   MIcro)
  445     dE     4.193433e-08     3.544175e-05                           (NR   MIcro)
  445     dE     3.945514e-08     2.071194e-05                           (NR   MIcro)
  445     dE     3.717063e-08     3.570738e-05                           (NR   MIcro)
  445     dE     3.410253e-08     2.526900e-05                           (NR   MIcro)
  445     dE     3.029113e-08     4.811830e-05                           (NR   MIcro)
  445     dE     1.787182e-08     6.548402e-05                           (NR   MIcro)
  445     dE     5.485057e-09     4.934739e-05                           (NR   MIcro)
  445     dE     6.816083e-10     2.696153e-05                           (NR   MIcro)
  445     dE    -5.010167e-09     5.235005e-05                           (NR   MIcro)
  445     dE    -1.886671e-08     6.676511e-05                           (NR   MIcro)
  445     dE    -2.465946e-08     1.950884e-05                           (NR   MIcro)
  445     dE    -2.600953e-08     1.827789e-05                           (NR   MIcro)
  445     dE    -2.765077e-08     2.028789e-05                           (NR   MIcro)
  445     dE    -2.940681e-08     2.032089e-05                           (NR   MIcro)
  446       -295.077922449918     3.198590e-05                           (NR   MAcro)
  446     dE    -2.329607e-09     2.383300e-05                           (NR   MIcro)
  446     dE    -5.359913e-09     3.828550e-05                           (NR   MIcro)
  446     dE    -1.156413e-08     3.691088e-05                           (NR   MIcro)
  446     dE    -2.482101e-08     9.910343e-05                           (NR   MIcro)
  446     dE    -1.718843e-07     3.018757e-04                           (NR   MIcro)
  446     dE    -5.280318e-07     2.979735e-04                           (NR   MIcro)
  446     dE    -1.489403e-06     9.175820e-04                           (NR   MIcro)
  446     dE     3.477844e-07     4.014045e-04                           (NR   MIcro)
  446     dE     1.538506e-07     9.936164e-05                           (NR   MIcro)
  446     dE     1.350144e-07     5.435882e-05                           (NR   MIcro)
  446     dE     1.133545e-07     9.659542e-05                           (NR   MIcro)
  446     dE     9.497411e-08     6.404488e-05                           (NR   MIcro)
  446     dE     7.637795e-08     8.701782e-05                           (NR   MIcro)
  446     dE     4.538896e-08     1.109291e-04                           (NR   MIcro)
  446     dE     3.209404e-08     3.988466e-05                           (NR   MIcro)
  446     dE     3.046067e-08     1.727108e-05                           (NR   MIcro)
  446     dE     2.867303e-08     2.794084e-05                           (NR   MIcro)
  446     dE     2.142884e-08     6.529599e-05                           (NR   MIcro)
  446     dE     1.575444e-08     2.138667e-05                           (NR   MIcro)
  446     dE     1.466281e-08     1.603475e-05                           (NR   MIcro)
  446     dE     1.353248e-08     1.965442e-05                           (NR   MIcro)
  446     dE     1.253435e-08     1.288458e-05                           (NR   MIcro)
  446     dE     1.094568e-08     3.356368e-05                           (NR   MIcro)
  446     dE     2.996913e-10     6.350161e-05                           (NR   MIcro)
  447       -295.077922378909     6.761321e-05                           (NR   MAcro)
  447     dE    -6.360247e-09     2.495592e-05                           (NR   MIcro)
  447     dE    -8.562452e-09     1.915681e-05                           (NR   MIcro)
  447     dE    -1.349553e-08     6.153512e-05                           (NR   MIcro)
  447     dE    -3.510092e-08     8.858512e-05                           (NR   MIcro)
  447     dE    -1.016412e-07     2.047003e-04                           (NR   MIcro)
  447     dE     3.625421e-07     5.627466e-04                           (NR   MIcro)
  447     dE     1.481250e-07     9.282873e-05                           (NR   MIcro)
  447     dE     1.344919e-07     3.793039e-05                           (NR   MIcro)
  447     dE     1.222562e-07     7.656567e-05                           (NR   MIcro)
  447     dE     6.986021e-08     1.349793e-04                           (NR   MIcro)
  447     dE     4.917901e-08     3.955972e-05                           (NR   MIcro)
  447     dE     4.613441e-08     2.353052e-05                           (NR   MIcro)
  447     dE     4.437266e-08     2.689344e-05                           (NR   MIcro)
  447     dE     4.302438e-08     1.418774e-05                           (NR   MIcro)
  447     dE     4.223916e-08     1.770259e-05                           (NR   MIcro)
  447     dE     4.075564e-08     2.366153e-05                           (NR   MIcro)
  447     dE     3.954177e-08     1.380790e-05                           (NR   MIcro)
  447     dE     3.921843e-08     8.950761e-06                           (NR   MIcro)
  447     dE     3.866939e-08     1.728070e-05                           (NR   MIcro)
  447     dE     3.709811e-08     2.874217e-05                           (NR   MIcro)
  447     dE     3.579078e-08     1.217515e-05                           (NR   MIcro)
  447     dE     3.542649e-08     8.320839e-06                           (NR   MIcro)
  447     dE     3.510748e-08     1.041620e-05                           (NR   MIcro)
  447     dE     3.482079e-08     6.825777e-06                           (NR   MIcro)
  448       -295.077922269476     2.307782e-05                           (NR   MAcro)
  448     dE    -2.601347e-09     3.461008e-05                           (NR   MIcro)
  448     dE    -2.038926e-08     1.100810e-04                           (NR   MIcro)
  448     dE    -1.363917e-07     2.101922e-04                           (NR   MIcro)
  448     dE     7.031715e-06     9.114982e-03                           (NR   MIcro)
  448     dE     2.482826e-07     1.466694e-04                           (NR   MIcro)
  448     dE     2.174074e-07     4.757122e-05                           (NR   MIcro)
  448     dE     1.959900e-07     1.000084e-04                           (NR   MIcro)
  448     dE     1.417218e-07     9.484102e-05                           (NR   MIcro)
  448     dE     1.122255e-07     4.508615e-05                           (NR   MIcro)
  448     dE     1.083563e-07     2.559463e-05                           (NR   MIcro)
  448     dE     1.023876e-07     5.181338e-05                           (NR   MIcro)
  448     dE     9.616364e-08     3.549383e-05                           (NR   MIcro)
  448     dE     9.105685e-08     3.802445e-05                           (NR   MIcro)
  448     dE     8.492187e-08     4.355812e-05                           (NR   MIcro)
  448     dE     8.254969e-08     1.714276e-05                           (NR   MIcro)
  448     dE     8.183900e-08     1.724284e-05                           (NR   MIcro)
  448     dE     7.940213e-08     3.233852e-05                           (NR   MIcro)
  448     dE     7.700426e-08     2.216192e-05                           (NR   MIcro)
  448     dE     7.638603e-08     7.029709e-06                           (NR   MIcro)
  448     dE     7.629203e-08     4.676225e-06                           (NR   MIcro)
  448     dE     7.614113e-08     9.909674e-06                           (NR   MIcro)
  448     dE     7.590165e-08     8.233739e-06                           (NR   MIcro)
  448     dE     7.536241e-08     1.816169e-05                           (NR   MIcro)
  448     dE     7.347505e-08     2.663067e-05                           (NR   MIcro)
  449       -295.077922088326     3.832136e-05                           (NR   MAcro)
  449     dE    -2.876334e-09     2.679697e-05                           (NR   MIcro)
  449     dE    -8.229448e-09     6.075747e-05                           (NR   MIcro)
  449     dE    -1.167073e-07     4.025545e-04                           (NR   MIcro)
  449     dE     3.016878e-07     2.919546e-04                           (NR   MIcro)
  449     dE     2.058381e-07     1.110490e-04                           (NR   MIcro)
  449     dE     1.750826e-07     9.332201e-05                           (NR   MIcro)
  449     dE     1.658014e-07     2.722745e-05                           (NR   MIcro)
  449     dE     1.629919e-07     3.230939e-05                           (NR   MIcro)
  449     dE     1.471736e-07     1.056139e-04                           (NR   MIcro)
  449     dE     1.370138e-07     2.747036e-05                           (NR   MIcro)
  449     dE     1.355759e-07     1.586499e-05                           (NR   MIcro)
  449     dE     1.350477e-07     1.213273e-05                           (NR   MIcro)
  449     dE     1.335439e-07     3.549638e-05                           (NR   MIcro)
  449     dE     1.314629e-07     2.107475e-05                           (NR   MIcro)
  449     dE     1.297330e-07     2.484329e-05                           (NR   MIcro)
  449     dE     1.280787e-07     1.749450e-05                           (NR   MIcro)
  449     dE     1.274572e-07     6.835886e-06                           (NR   MIcro)
  449     dE     1.272246e-07     9.885904e-06                           (NR   MIcro)
  449     dE     1.263755e-07     1.712534e-05                           (NR   MIcro)
  449     dE     1.257418e-07     9.087365e-06                           (NR   MIcro)
  449     dE     1.255322e-07     5.873143e-06                           (NR   MIcro)
  449     dE     1.251993e-07     1.233413e-05                           (NR   MIcro)
  449     dE     1.245810e-07     1.337376e-05                           (NR   MIcro)
  449     dE     1.238725e-07     1.452636e-05                           (NR   MIcro)
  450       -295.077921794287     3.605916e-05                           (NR   MAcro)
  450     dE    -5.689069e-09     4.766161e-05                           (NR   MIcro)
  450     dE    -3.071663e-08     1.223728e-04                           (NR   MIcro)
  450     dE    -1.423055e-07     1.846655e-04                           (NR   MIcro)
  450     dE    -8.456344e-06     1.068909e-02                           (NR   MIcro)
  450     dE     3.800716e-07     1.693238e-04                           (NR   MIcro)
  450     dE     3.372213e-07     5.049350e-05                           (NR   MIcro)
  450     dE     3.273824e-07     4.693512e-05                           (NR   MIcro)
  450     dE     3.090136e-07     8.226060e-05                           (NR   MIcro)
  450     dE     2.713487e-07     6.201745e-05                           (NR   MIcro)
  450     dE     2.640549e-07     3.547407e-05                           (NR   MIcro)
  450     dE     2.561918e-07     5.117952e-05                           (NR   MIcro)
  450     dE     2.474539e-07     4.784047e-05                           (NR   MIcro)
  450     dE     2.403708e-07     4.283808e-05                           (NR   MIcro)
  450     dE     2.279273e-07     7.599312e-05                           (NR   MIcro)
  450     dE     2.203594e-07     2.673556e-05                           (NR   MIcro)
  450     dE     2.189568e-07     1.465698e-05                           (NR   MIcro)
  450     dE     2.177776e-07     3.199378e-05                           (NR   MIcro)
  450     dE     2.141832e-07     3.828750e-05                           (NR   MIcro)
  450     dE     2.113688e-07     2.004426e-05                           (NR   MIcro)
  450     dE     2.108831e-07     9.565736e-06                           (NR   MIcro)
  450     dE     2.104780e-07     1.405879e-05                           (NR   MIcro)
  450     dE     2.100494e-07     1.034066e-05                           (NR   MIcro)
  450     dE     2.089989e-07     2.417728e-05                           (NR   MIcro)
  450     dE     2.045567e-07     5.331808e-05                           (NR   MIcro)
  451       -295.077921309146     6.851351e-05                           (NR   MAcro)
  451     dE    -8.529046e-09     3.923571e-05                           (NR   MIcro)
  451     dE    -1.955818e-08     7.466927e-05                           (NR   MIcro)
  451     dE    -1.329737e-07     3.418697e-04                           (NR   MIcro)
  451     dE    -4.398176e-06     3.474312e-03                           (NR   MIcro)
  451     dE     9.105534e-07     4.518978e-04                           (NR   MIcro)
  451     dE     5.491347e-07     2.441108e-04                           (NR   MIcro)
  451     dE     4.970770e-07     6.683193e-05                           (NR   MIcro)
  451     dE     4.829156e-07     7.849526e-05                           (NR   MIcro)
  451     dE     4.305741e-07     1.405114e-04                           (NR   MIcro)
  451     dE     3.881058e-07     6.495643e-05                           (NR   MIcro)
  451     dE     3.835180e-07     2.236644e-05                           (NR   MIcro)
  451     dE     3.819855e-07     2.258495e-05                           (NR   MIcro)
  451     dE     3.782706e-07     5.265231e-05                           (NR   MIcro)
  451     dE     3.730203e-07     3.335359e-05                           (NR   MIcro)
  451     dE     3.674498e-07     5.413389e-05                           (NR   MIcro)
  451     dE     3.588954e-07     4.372882e-05                           (NR   MIcro)
  451     dE     3.548805e-07     2.434514e-05                           (NR   MIcro)
  451     dE     3.516330e-07     4.814995e-05                           (NR   MIcro)
  451     dE     3.388492e-07     5.484167e-05                           (NR   MIcro)
  451     dE     3.330651e-07     3.037167e-05                           (NR   MIcro)
  451     dE     3.317152e-07     1.073773e-05                           (NR   MIcro)
  451     dE     3.309490e-07     1.397594e-05                           (NR   MIcro)
  451     dE     3.299498e-07     1.778983e-05                           (NR   MIcro)
  451     dE     3.282251e-07     2.282919e-05                           (NR   MIcro)
  452       -295.077920536243     6.328473e-05                           (NR   MAcro)
  452     dE    -1.409449e-08     6.724169e-05                           (NR   MIcro)
  452     dE    -6.801549e-08     1.789593e-04                           (NR   MIcro)
  452     dE    -3.154462e-07     2.635435e-04                           (NR   MIcro)
  452     dE    -4.084848e-06     3.127199e-03                           (NR   MIcro)
  452     dE     1.054354e-06     3.285010e-04                           (NR   MIcro)
  452     dE     8.901769e-07     1.000010e-04                           (NR   MIcro)
  452     dE     8.628794e-07     6.575198e-05                           (NR   MIcro)
  452     dE     8.218018e-07     1.321136e-04                           (NR   MIcro)
  452     dE     7.022011e-07     1.209306e-04                           (NR   MIcro)
  452     dE     6.729198e-07     6.674899e-05                           (NR   MIcro)
  452     dE     6.517975e-07     7.194736e-05                           (NR   MIcro)
  452     dE     6.299324e-07     6.844304e-05                           (NR   MIcro)
  452     dE     6.151910e-07     6.209665e-05                           (NR   MIcro)
  452     dE     5.836090e-07     1.265676e-04                           (NR   MIcro)
  452     dE     5.468445e-07     7.058593e-05                           (NR   MIcro)
  452     dE     5.346467e-07     3.835340e-05                           (NR   MIcro)
  452     dE     5.247382e-07     1.063856e-04                           (NR   MIcro)
  452     dE     4.900488e-07     1.175862e-04                           (NR   MIcro)
  452     dE     4.607148e-07     7.293807e-05                           (NR   MIcro)
  452     dE     4.544819e-07     4.069191e-05                           (NR   MIcro)
  452     dE     4.466874e-07     6.623951e-05                           (NR   MIcro)
  452     dE     4.333344e-07     6.586862e-05                           (NR   MIcro)
  452     dE     3.805409e-07     1.998085e-04                           (NR   MIcro)
  452     dE     4.879727e-06     6.536030e-03                           (NR   MIcro)
  453       -295.077335998277     2.145455e-02                     0.030 (TRAH MAcro)   No
  453     dE    -4.174947e-04     3.376457e-03    -4.1722e-04      0.025 (TRAH MIcro)
  453     dE    -4.358723e-04     1.361629e-03    -4.3554e-04      0.028 (TRAH MIcro)
  454       -295.077772529200     1.349522e-03                     0.036 (TRAH MAcro)   No
  454     dE    -8.226297e-06     1.646098e-03    -8.2256e-06      0.010 (TRAH MIcro)
  454     dE    -2.595850e-05     2.033687e-03    -1.4705e-03      0.036 (TRAH MIcro)
  454     dE    -3.319354e-05     7.692361e-04    -8.8360e-03      0.036 (TRAH MIcro)
  454     dE    -3.420396e-05     3.509279e-04    -1.0010e-02      0.036 (TRAH MIcro)
  454     dE    -3.445813e-05     2.093779e-04    -1.0431e-02      0.036 (TRAH MIcro)
  454     dE    -3.455891e-05     7.727702e-05    -1.0644e-02      0.036 (TRAH MIcro)
  455       -295.077805922637     3.740797e-04                     0.044 (TRAH MAcro)   No
  455     dE    -1.421752e-05     2.988219e-03    -1.4195e-05      0.040 (TRAH MIcro)
  455     dE    -2.630958e-05     6.241304e-04    -5.7439e-03      0.044 (TRAH MIcro)
  455     dE    -2.689029e-05     1.758623e-04    -6.0497e-03      0.044 (TRAH MIcro)
  455     dE    -2.705509e-05     1.977757e-04    -6.1637e-03      0.044 (TRAH MIcro)
  455     dE    -2.715804e-05     1.151754e-04    -6.2550e-03      0.044 (TRAH MIcro)
  455     dE    -2.708169e-05     1.144249e-04    -6.3569e-03      0.043 (TRAH MIcro)
  455     dE    -2.729553e-05     1.720230e-04    -6.3962e-03      0.044 (TRAH MIcro)
  455     dE    -2.733189e-05     5.819671e-05    -6.4456e-03      0.044 (TRAH MIcro)
  455     dE    -2.733710e-05     1.804082e-05    -6.4518e-03      0.044 (TRAH MIcro)
  456       -295.077831380117     2.698589e-04                     0.052 (TRAH MAcro)   No
  456     dE    -5.470212e-06     1.896839e-03    -5.4675e-06      0.022 (TRAH MIcro)
  456     dE    -1.945271e-05     5.236157e-04    -3.2368e-03      0.049 (TRAH MIcro)
  456     dE    -2.024643e-05     1.492087e-04    -3.3088e-03      0.050 (TRAH MIcro)
  456     dE    -2.055205e-05     2.153491e-04    -3.3345e-03      0.050 (TRAH MIcro)
  456     dE    -2.179415e-05     3.655179e-04    -3.4794e-03      0.052 (TRAH MIcro)
  456     dE    -2.208311e-05     1.552250e-04    -3.6820e-03      0.052 (TRAH MIcro)
  456     dE    -2.213910e-05     8.861338e-05    -3.7232e-03      0.052 (TRAH MIcro)
  456     dE    -2.216654e-05     6.894602e-05    -3.7450e-03      0.052 (TRAH MIcro)
  456     dE    -2.217880e-05     3.350818e-05    -3.7549e-03      0.052 (TRAH MIcro)
  456     dE    -2.218199e-05     2.990266e-05    -3.7578e-03      0.052 (TRAH MIcro)
  456     dE    -2.218985e-05     5.577264e-05    -3.7648e-03      0.052 (TRAH MIcro)
  456     dE    -2.219588e-05     1.760511e-05    -3.7717e-03      0.052 (TRAH MIcro)
  457       -295.077850932178     2.393858e-04                     0.063 (TRAH MAcro)   No
  457     dE    -1.447161e-06     9.731743e-04    -1.4471e-06      0.008 (TRAH MIcro)
  457     dE    -1.456978e-05     9.283863e-04    -1.2663e-03      0.063 (TRAH MIcro)
  457     dE    -1.572754e-05     2.474916e-04    -1.5652e-03      0.063 (TRAH MIcro)
  457     dE    -1.596499e-05     2.457482e-04    -1.6274e-03      0.063 (TRAH MIcro)
  457     dE    -1.465868e-05     3.916316e-04    -2.2325e-03      0.054 (TRAH MIcro)
  457     dE    -1.613896e-05     2.829196e-04    -2.3073e-03      0.058 (TRAH MIcro)
  457     dE    -1.671500e-05     1.413174e-04    -2.3316e-03      0.060 (TRAH MIcro)
  457     dE    -1.698997e-05     1.176263e-04    -2.3420e-03      0.060 (TRAH MIcro)
  457     dE    -1.712533e-05     5.397107e-05    -2.3469e-03      0.061 (TRAH MIcro)
  457     dE    -1.715665e-05     4.198550e-05    -2.3481e-03      0.061 (TRAH MIcro)
  457     dE    -1.722057e-05     8.818869e-05    -2.3503e-03      0.061 (TRAH MIcro)
  457     dE    -1.741922e-05     6.750364e-05    -2.3557e-03      0.061 (TRAH MIcro)
  457     dE    -1.745739e-05     2.448338e-05    -2.3566e-03      0.062 (TRAH MIcro)
  457     dE    -1.746541e-05     1.306609e-05    -2.3569e-03      0.062 (TRAH MIcro)
  458       -295.077865906702     2.723239e-04                     0.075 (TRAH MAcro)   No
  458     dE    -5.821499e-07     5.420896e-04    -5.8214e-07      0.004 (TRAH MIcro)
  458     dE    -1.139805e-05     1.290233e-03    -6.3035e-04      0.072 (TRAH MIcro)
  458     dE    -1.394617e-05     3.566487e-04    -9.6308e-04      0.075 (TRAH MIcro)
  458     dE    -1.420808e-05     1.495546e-04    -1.0105e-03      0.075 (TRAH MIcro)
  458     dE    -1.440082e-05     2.500738e-04    -1.0473e-03      0.075 (TRAH MIcro)
  458     dE    -1.485622e-05     3.472602e-04    -1.1477e-03      0.075 (TRAH MIcro)
  458     dE    -1.518725e-05     2.142402e-04    -1.2246e-03      0.075 (TRAH MIcro)
  458     dE    -1.517646e-05     2.142549e-04    -1.2946e-03      0.074 (TRAH MIcro)
  458     dE    -1.551188e-05     8.326106e-05    -1.3123e-03      0.075 (TRAH MIcro)
  458     dE    -1.552851e-05     4.458217e-05    -1.3171e-03      0.075 (TRAH MIcro)
  458     dE    -1.204434e-05     4.770375e-05    -1.7269e-03      0.058 (TRAH MIcro)
  458     dE    -1.210887e-05     8.005029e-05    -1.7296e-03      0.058 (TRAH MIcro)
  458     dE    -1.218019e-05     3.976420e-05    -1.7316e-03      0.058 (TRAH MIcro)
  458     dE    -1.220150e-05     1.759239e-05    -1.7321e-03      0.058 (TRAH MIcro)
  459       -295.077877501511     2.241452e-04                     0.090 (TRAH MAcro)   No
  459     dE    -4.463094e-07     5.003144e-04    -4.4630e-07      0.004 (TRAH MIcro)
  459     dE    -8.523207e-06     1.679050e-03    -8.4572e-06      0.088 (TRAH MIcro)
  459     dE    -1.214743e-05     4.019702e-04    -4.3206e-04      0.090 (TRAH MIcro)
  459     dE    -1.243059e-05     1.357865e-04    -4.6743e-04      0.090 (TRAH MIcro)
  459     dE    -1.253520e-05     1.658290e-04    -4.8073e-04      0.090 (TRAH MIcro)
  459     dE    -1.207420e-05     2.727047e-04    -6.0991e-04      0.083 (TRAH MIcro)
  459     dE    -1.263241e-05     2.033356e-04    -6.2387e-04      0.086 (TRAH MIcro)
  459     dE    -1.307001e-05     2.366884e-04    -6.3355e-04      0.088 (TRAH MIcro)
  459     dE    -1.360966e-05     1.444025e-04    -6.5067e-04      0.090 (TRAH MIcro)
  459     dE    -1.366282e-05     8.545229e-05    -6.6076e-04      0.090 (TRAH MIcro)
  459     dE    -1.371972e-05     1.353003e-04    -6.7173e-04      0.090 (TRAH MIcro)
  459     dE    -1.388994e-05     1.913542e-04    -7.0828e-04      0.090 (TRAH MIcro)
  459     dE    -1.394841e-05     8.037965e-05    -7.2164e-04      0.090 (TRAH MIcro)
  459     dE    -1.397502e-05     8.602462e-05    -7.2783e-04      0.090 (TRAH MIcro)
  459     dE    -1.404283e-05     1.766598e-04    -7.4456e-04      0.090 (TRAH MIcro)
  459     dE    -1.421978e-05     1.880814e-04    -7.9314e-04      0.090 (TRAH MIcro)
  459     dE    -1.432138e-05     1.771637e-04    -8.2289e-04      0.090 (TRAH MIcro)
  459     dE    -1.414017e-05     1.166943e-04    -8.5482e-04      0.089 (TRAH MIcro)
  459     dE    -1.434883e-05     6.840808e-05    -8.5678e-04      0.090 (TRAH MIcro)
  459     dE    -1.440021e-05     7.948216e-05    -8.5723e-04      0.090 (TRAH MIcro)
  459     dE    -1.445666e-05     1.213431e-04    -8.6421e-04      0.090 (TRAH MIcro)
  459     dE    -1.449036e-05     6.899480e-05    -8.7500e-04      0.090 (TRAH MIcro)
  459     dE    -1.449481e-05     1.481765e-05    -8.7644e-04      0.090 (TRAH MIcro)
  460       -295.077890530481     3.748617e-04                     0.109 (TRAH MAcro)   No
  460     dE    -2.876911e-07     2.262402e-04    -2.8769e-07      0.001 (TRAH MIcro)
  460     dE    -2.765029e-06     1.147474e-03    -2.7620e-06      0.033 (TRAH MIcro)
  460     dE    -6.529166e-06     6.740695e-04    -6.4865e-06      0.081 (TRAH MIcro)
  460     dE    -7.197160e-06     1.819285e-04    -7.1398e-06      0.090 (TRAH MIcro)
  460     dE    -7.296689e-06     1.258463e-04    -7.2369e-06      0.091 (TRAH MIcro)
  460     dE    -7.449172e-06     2.468710e-04    -7.3854e-06      0.093 (TRAH MIcro)
  460     dE    -7.713974e-06     2.114592e-04    -7.6426e-06      0.097 (TRAH MIcro)
  460     dE    -7.930537e-06     2.617754e-04    -7.8521e-06      0.100 (TRAH MIcro)
  460     dE    -8.374640e-06     2.582011e-04    -8.2790e-06      0.107 (TRAH MIcro)
  460     dE    -8.497218e-06     1.089706e-04    -1.5574e-05      0.109 (TRAH MIcro)
  460     dE    -8.538335e-06     9.893490e-05    -2.0565e-05      0.109 (TRAH MIcro)
  460     dE    -8.708382e-06     3.613346e-04    -4.2268e-05      0.109 (TRAH MIcro)
  460     dE    -9.282707e-06     4.134974e-04    -1.2786e-04      0.109 (TRAH MIcro)
  460     dE    -9.711303e-06     2.065151e-04    -1.9762e-04      0.109 (TRAH MIcro)
  460     dE    -9.801012e-06     1.243937e-04    -2.1227e-04      0.109 (TRAH MIcro)
  460     dE    -9.910686e-06     1.838078e-04    -2.3021e-04      0.109 (TRAH MIcro)
  460     dE    -9.978849e-06     1.487876e-04    -2.4138e-04      0.109 (TRAH MIcro)
  460     dE    -1.005534e-05     1.856280e-04    -2.5411e-04      0.109 (TRAH MIcro)
  460     dE    -1.022076e-05     2.433721e-04    -2.8165e-04      0.109 (TRAH MIcro)
  460     dE    -1.025463e-05     7.441026e-05    -2.8736e-04      0.109 (TRAH MIcro)
  460     dE    -1.030260e-05     2.005594e-04    -2.9550e-04      0.109 (TRAH MIcro)
  460     dE    -8.618495e-06     7.862435e-05    -4.3783e-04      0.082 (TRAH MIcro)
  460     dE    -8.669993e-06     3.320181e-05    -4.3838e-04      0.083 (TRAH MIcro)
  461       -295.077900277621     2.651509e-04                     0.130 (TRAH MAcro)   No
  461     dE    -1.643965e-07     1.966915e-04    -1.6440e-07      0.001 (TRAH MIcro)
  461     dE    -1.132653e-06     7.532515e-04    -1.1323e-06      0.017 (TRAH MIcro)
  461     dE    -3.352673e-06     5.170250e-04    -3.3433e-06      0.053 (TRAH MIcro)
  461     dE    -3.855215e-06     2.760143e-04    -3.8408e-06      0.061 (TRAH MIcro)
  461     dE    -4.133150e-06     2.322401e-04    -4.1152e-06      0.066 (TRAH MIcro)
  461     dE    -4.248124e-06     8.947386e-05    -4.2286e-06      0.068 (TRAH MIcro)
  461     dE    -4.271951e-06     6.624869e-05    -4.2521e-06      0.068 (TRAH MIcro)
  461     dE    -4.318616e-06     1.487506e-04    -4.2980e-06      0.069 (TRAH MIcro)
  461     dE    -4.490701e-06     2.023704e-04    -4.4671e-06      0.073 (TRAH MIcro)
  461     dE    -4.588016e-06     8.679494e-05    -4.5624e-06      0.075 (TRAH MIcro)
  461     dE    -4.609560e-06     6.023367e-05    -4.5834e-06      0.076 (TRAH MIcro)
  461     dE    -4.637230e-06     1.065428e-04    -4.6104e-06      0.076 (TRAH MIcro)
  461     dE    -4.697174e-06     1.326128e-04    -4.6688e-06      0.078 (TRAH MIcro)
  461     dE    -4.789212e-06     1.886925e-04    -4.7581e-06      0.081 (TRAH MIcro)
  461     dE    -4.998736e-06     2.460502e-04    -4.9595e-06      0.089 (TRAH MIcro)
  461     dE    -5.196908e-06     1.441746e-04    -5.1474e-06      0.098 (TRAH MIcro)
  461     dE    -5.236729e-06     8.841579e-05    -5.1849e-06      0.100 (TRAH MIcro)
  461     dE    -5.334890e-06     3.034672e-04    -5.2767e-06      0.105 (TRAH MIcro)
  461     dE    -5.762981e-06     3.829191e-04    -5.6687e-06      0.129 (TRAH MIcro)
  461     dE    -5.905541e-06     1.285763e-04    -1.6851e-05      0.130 (TRAH MIcro)
  461     dE    -6.022344e-06     3.659929e-04    -2.7719e-05      0.130 (TRAH MIcro)
  461     dE    -6.484231e-06     2.851765e-04    -7.0522e-05      0.130 (TRAH MIcro)
  461     dE    -6.523397e-06     3.343272e-04    -1.1718e-04      0.119 (TRAH MIcro)
  462       -295.077907410160     5.824427e-04                     0.156 (TRAH MAcro)   No
  462     dE    -3.942825e-07     2.134008e-04    -3.9428e-07      0.001 (TRAH MIcro)
  462     dE    -5.905661e-07     2.839804e-04    -5.9056e-07      0.002 (TRAH MIcro)
  462     dE    -8.444749e-07     1.858430e-04    -8.4445e-07      0.005 (TRAH MIcro)
  462     dE    -9.973490e-07     2.741685e-04    -9.9729e-07      0.008 (TRAH MIcro)
  462     dE    -1.863180e-06     7.573640e-04    -1.8620e-06      0.025 (TRAH MIcro)
  462     dE    -2.361513e-06     1.920947e-04    -2.3585e-06      0.036 (TRAH MIcro)
  462     dE    -2.471128e-06     1.929019e-04    -2.4676e-06      0.038 (TRAH MIcro)
  462     dE    -2.669235e-06     3.396112e-04    -2.6645e-06      0.042 (TRAH MIcro)
  462     dE    -2.993545e-06     3.107596e-04    -2.9860e-06      0.050 (TRAH MIcro)
  462     dE    -3.127686e-06     1.484870e-04    -3.1188e-06      0.053 (TRAH MIcro)
  462     dE    -3.165899e-06     8.834519e-05    -3.1565e-06      0.054 (TRAH MIcro)
  462     dE    -3.190939e-06     9.939817e-05    -3.1813e-06      0.055 (TRAH MIcro)
  462     dE    -3.211719e-06     7.321359e-05    -3.2018e-06      0.056 (TRAH MIcro)
  462     dE    -3.270525e-06     1.792690e-04    -3.2598e-06      0.057 (TRAH MIcro)
  462     dE    -3.441880e-06     2.404042e-04    -3.4281e-06      0.063 (TRAH MIcro)
  462     dE    -3.525759e-06     7.479274e-05    -3.5101e-06      0.067 (TRAH MIcro)
  462     dE    -3.547980e-06     8.349599e-05    -3.5317e-06      0.068 (TRAH MIcro)
  462     dE    -3.717961e-06     3.420656e-04    -3.6966e-06      0.076 (TRAH MIcro)
  462     dE    -4.137311e-06     3.384169e-04    -4.0964e-06      0.100 (TRAH MIcro)
  462     dE    -4.834374e-06     5.625790e-04    -4.7354e-06      0.145 (TRAH MIcro)
  462     dE    -5.630647e-06     3.723970e-04    -4.0719e-05      0.153 (TRAH MIcro)
  462     dE    -5.939690e-06     2.009081e-04    -5.2363e-05      0.156 (TRAH MIcro)
  462     dE    -6.007356e-06     1.031165e-04    -5.5819e-05      0.156 (TRAH MIcro)
  463       -295.077910548114     8.983896e-04                     0.156 (TRAH MAcro)   No
  463     dE    -7.210596e-07     9.588069e-05    -7.2106e-07      0.001 (TRAH MIcro)
  463     dE    -8.068904e-07     2.060393e-04    -8.0689e-07      0.002 (TRAH MIcro)
  463     dE    -1.471946e-06     5.562301e-04    -1.4716e-06      0.016 (TRAH MIcro)
  463     dE    -2.216151e-06     3.010406e-04    -2.2139e-06      0.032 (TRAH MIcro)
  463     dE    -2.568591e-06     2.956926e-04    -2.5646e-06      0.039 (TRAH MIcro)
  463     dE    -2.898795e-06     1.994572e-04    -2.8925e-06      0.047 (TRAH MIcro)
  463     dE    -2.977272e-06     9.716074e-05    -2.9703e-06      0.049 (TRAH MIcro)
  463     dE    -3.047272e-06     1.913656e-04    -3.0396e-06      0.050 (TRAH MIcro)
  463     dE    -3.398762e-06     4.046853e-04    -3.3869e-06      0.059 (TRAH MIcro)
  463     dE    -4.041913e-06     4.246090e-04    -4.0172e-06      0.078 (TRAH MIcro)
  463     dE    -4.350837e-06     1.592395e-04    -4.3173e-06      0.088 (TRAH MIcro)
  463     dE    -4.476456e-06     2.389412e-04    -4.4387e-06      0.092 (TRAH MIcro)
  463     dE    -4.801452e-06     4.233409e-04    -4.7509e-06      0.103 (TRAH MIcro)
  463     dE    -5.454946e-06     4.387429e-04    -5.3696e-06      0.126 (TRAH MIcro)
  463     dE    -6.428954e-06     6.436569e-04    -1.3044e-05      0.156 (TRAH MIcro)
  463     dE    -7.313246e-06     3.981221e-04    -5.7627e-05      0.156 (TRAH MIcro)
  463     dE    -7.547234e-06     2.614805e-04    -6.9465e-05      0.156 (TRAH MIcro)
  463     dE    -8.003666e-06     5.605954e-04    -9.2698e-05      0.156 (TRAH MIcro)
  463     dE    -9.009173e-06     6.095312e-04    -1.4486e-04      0.156 (TRAH MIcro)
  463     dE    -9.297406e-06     1.562603e-04    -1.5968e-04      0.156 (TRAH MIcro)
  463     dE    -9.366562e-06     1.897717e-04    -1.6328e-04      0.156 (TRAH MIcro)
  463     dE    -9.646719e-06     2.623859e-04    -1.7805e-04      0.156 (TRAH MIcro)
  463     dE    -9.863954e-06     2.315564e-04    -1.8969e-04      0.156 (TRAH MIcro)
  464       -295.077912742640     8.723317e-04                     0.105 (TRAH MAcro)   No
  464     dE    -7.706362e-07     1.716313e-04    -7.7064e-07      0.001 (TRAH MIcro)
  464     dE    -8.718120e-07     1.705965e-04    -8.7181e-07      0.002 (TRAH MIcro)
  464     dE    -1.068280e-06     1.672177e-04    -1.0683e-06      0.004 (TRAH MIcro)
  464     dE    -1.186784e-06     2.010894e-04    -1.1867e-06      0.007 (TRAH MIcro)
  464     dE    -1.565364e-06     4.201023e-04    -1.5650e-06      0.015 (TRAH MIcro)
  464     dE    -2.260168e-06     3.229886e-04    -2.2578e-06      0.032 (TRAH MIcro)
  464     dE    -2.452779e-06     1.423609e-04    -2.4494e-06      0.037 (TRAH MIcro)
  464     dE    -2.531940e-06     1.615221e-04    -2.5280e-06      0.039 (TRAH MIcro)
  464     dE    -2.741183e-06     3.051634e-04    -2.7357e-06      0.045 (TRAH MIcro)
  464     dE    -3.178201e-06     2.924273e-04    -3.1677e-06      0.058 (TRAH MIcro)
  464     dE    -3.339335e-06     1.763997e-04    -3.3263e-06      0.063 (TRAH MIcro)
  464     dE    -3.502549e-06     2.208266e-04    -3.4866e-06      0.068 (TRAH MIcro)
  464     dE    -3.687671e-06     1.936987e-04    -3.6677e-06      0.074 (TRAH MIcro)
  464     dE    -3.953928e-06     3.805750e-04    -3.9270e-06      0.083 (TRAH MIcro)
  464     dE    -4.849015e-06     4.856047e-04    -3.6633e-05      0.105 (TRAH MIcro)
  464     dE    -5.169555e-06     1.471348e-04    -7.3468e-05      0.105 (TRAH MIcro)
  464     dE    -5.220653e-06     1.079863e-04    -7.9371e-05      0.105 (TRAH MIcro)
  464     dE    -5.432450e-06     4.659160e-04    -1.0419e-04      0.105 (TRAH MIcro)
  464     dE    -5.821358e-06     2.568147e-04    -1.5165e-04      0.105 (TRAH MIcro)
  464     dE    -5.964006e-06     1.851487e-04    -1.6963e-04      0.105 (TRAH MIcro)
  464     dE    -6.022997e-06     1.435342e-04    -1.7708e-04      0.105 (TRAH MIcro)
  464     dE    -6.060046e-06     7.087521e-05    -1.8179e-04      0.105 (TRAH MIcro)
  465       -295.077916646349     4.027505e-04                     0.105 (TRAH MAcro)   No
  465     dE    -1.628397e-07     6.999776e-05    -1.6284e-07      0.001 (TRAH MIcro)
  465     dE    -1.877085e-07     1.006516e-04    -1.8771e-07      0.001 (TRAH MIcro)
  465     dE    -4.725520e-07     3.230797e-04    -4.7250e-07      0.010 (TRAH MIcro)
  465     dE    -7.852882e-07     1.814775e-04    -7.8494e-07      0.021 (TRAH MIcro)
  465     dE    -8.730758e-07     1.103641e-04    -8.7257e-07      0.024 (TRAH MIcro)
  465     dE    -9.201611e-07     8.753991e-05    -9.1955e-07      0.026 (TRAH MIcro)
  465     dE    -9.432746e-07     5.604719e-05    -9.4261e-07      0.027 (TRAH MIcro)
  465     dE    -9.539473e-07     5.039949e-05    -9.5325e-07      0.027 (TRAH MIcro)
  465     dE    -9.830161e-07     1.265126e-04    -9.8224e-07      0.028 (TRAH MIcro)
  465     dE    -1.078561e-06     1.544385e-04    -1.0774e-06      0.033 (TRAH MIcro)
  465     dE    -1.122084e-06     4.623725e-05    -1.1207e-06      0.035 (TRAH MIcro)
  465     dE    -1.131938e-06     5.712330e-05    -1.1305e-06      0.036 (TRAH MIcro)
  465     dE    -1.176215e-06     1.361952e-04    -1.1745e-06      0.039 (TRAH MIcro)
  465     dE    -1.232610e-06     8.737072e-05    -1.2304e-06      0.043 (TRAH MIcro)
  465     dE    -1.261428e-06     8.721349e-05    -1.2589e-06      0.045 (TRAH MIcro)
  465     dE    -1.308806e-06     1.087913e-04    -1.3058e-06      0.048 (TRAH MIcro)
  465     dE    -1.342075e-06     9.405213e-05    -1.3386e-06      0.051 (TRAH MIcro)
  465     dE    -1.461616e-06     3.109680e-04    -1.4561e-06      0.062 (TRAH MIcro)
  465     dE    -2.604294e-06     7.576141e-04    -1.2127e-04      0.093 (TRAH MIcro)
  465     dE    -3.413252e-06     2.400157e-04    -1.6718e-04      0.105 (TRAH MIcro)
  465     dE    -3.459283e-06     1.741083e-04    -1.7909e-04      0.103 (TRAH MIcro)
  465     dE    -1.758767e-06     1.172735e-04    -2.9257e-04      0.049 (TRAH MIcro)
  465     dE    -2.104125e-06     1.814827e-04    -3.0390e-04      0.057 (TRAH MIcro)
  466       -295.077917809535     2.321398e-04                     0.105 (TRAH MAcro)   No
  466     dE    -6.344129e-08     7.846166e-05    -6.3441e-08      0.000 (TRAH MIcro)
  466     dE    -9.947312e-08     1.245100e-04    -9.9473e-08      0.001 (TRAH MIcro)
  466     dE    -1.803080e-07     1.533599e-04    -1.8031e-07      0.004 (TRAH MIcro)
  466     dE    -2.483784e-07     1.443972e-04    -2.4837e-07      0.006 (TRAH MIcro)
  466     dE    -4.637679e-07     4.091095e-04    -4.6367e-07      0.014 (TRAH MIcro)
  466     dE    -7.038801e-07     1.310982e-04    -7.0346e-07      0.024 (TRAH MIcro)
  466     dE    -7.333963e-07     5.970662e-05    -7.3292e-07      0.026 (TRAH MIcro)
  466     dE    -7.459001e-07     8.068722e-05    -7.4539e-07      0.026 (TRAH MIcro)
  466     dE    -7.854335e-07     1.528260e-04    -7.8483e-07      0.028 (TRAH MIcro)
  466     dE    -8.764199e-07     1.672925e-04    -8.7550e-07      0.032 (TRAH MIcro)
  466     dE    -9.562472e-07     1.608168e-04    -9.5494e-07      0.037 (TRAH MIcro)
  466     dE    -1.039500e-06     1.510931e-04    -1.0377e-06      0.042 (TRAH MIcro)
  466     dE    -1.114894e-06     1.330930e-04    -1.1124e-06      0.047 (TRAH MIcro)
  466     dE    -1.215588e-06     2.498493e-04    -1.2121e-06      0.054 (TRAH MIcro)
  466     dE    -1.980293e-06     7.782626e-04    -9.5277e-06      0.105 (TRAH MIcro)
  466     dE    -2.671205e-06     2.612077e-04    -1.2297e-04      0.094 (TRAH MIcro)
  466     dE    -3.099847e-06     2.034260e-04    -1.3075e-04      0.104 (TRAH MIcro)
  466     dE    -3.754858e-06     7.990337e-04    -1.9625e-04      0.105 (TRAH MIcro)
  466     dE    -5.504062e-06     4.323720e-04    -3.7970e-04      0.105 (TRAH MIcro)
  466     dE    -5.915422e-06     2.358802e-04    -4.2250e-04      0.105 (TRAH MIcro)
  466     dE    -6.091186e-06     2.263327e-04    -4.4072e-04      0.105 (TRAH MIcro)
  466     dE    -6.316353e-06     2.013841e-04    -4.6402e-04      0.105 (TRAH MIcro)
  466     dE    -6.455807e-06     2.122422e-04    -4.7846e-04      0.105 (TRAH MIcro)
 ---------------------------------
          TRAH Step control 
 ---------------------------------
  predicted energy change =    -6.455807216044e-06
  actual energy  change   =     1.264733953121e-06
  energy change ratio     = -0.195906
  old trust radius        = 0.104773
  new trust radius        = 0.070198
  reject step?            = YES
  467       -295.077916544801     2.321398e-04                     0.070 (TRAH MAcro)  Yes
  468       -295.077916544801     6.696078e-04                     0.070 (TRAH MAcro)   No
  468     dE    -4.551157e-07     1.511872e-04    -4.5512e-07      0.001 (TRAH MIcro)
  468     dE    -5.300811e-07     1.506069e-04    -5.3008e-07      0.001 (TRAH MIcro)
  468     dE    -7.006520e-07     1.334627e-04    -7.0064e-07      0.004 (TRAH MIcro)
  468     dE    -8.168492e-07     2.584157e-04    -8.1681e-07      0.007 (TRAH MIcro)
  468     dE    -1.255711e-06     4.179216e-04    -1.2553e-06      0.019 (TRAH MIcro)
  468     dE    -1.595640e-06     1.563705e-04    -1.5944e-06      0.028 (TRAH MIcro)
  468     dE    -1.657365e-06     1.071754e-04    -1.6559e-06      0.030 (TRAH MIcro)
  468     dE    -1.796268e-06     3.034782e-04    -1.7942e-06      0.034 (TRAH MIcro)
  468     dE    -2.218873e-06     3.135914e-04    -2.2138e-06      0.048 (TRAH MIcro)
  468     dE    -2.454834e-06     1.733386e-04    -2.4471e-06      0.056 (TRAH MIcro)
  468     dE    -2.567601e-06     2.020168e-04    -2.5583e-06      0.060 (TRAH MIcro)
  468     dE    -2.726400e-06     2.272994e-04    -2.7145e-06      0.066 (TRAH MIcro)
  468     dE    -2.915213e-06     2.275804e-04    -2.2939e-05      0.070 (TRAH MIcro)
  468     dE    -3.169440e-06     2.891346e-04    -8.7468e-05      0.070 (TRAH MIcro)
  468     dE    -3.343447e-06     1.699200e-04    -1.3306e-04      0.070 (TRAH MIcro)
  468     dE    -3.393860e-06     7.861580e-05    -1.4655e-04      0.070 (TRAH MIcro)
  468     dE    -3.414661e-06     8.601448e-05    -1.5212e-04      0.070 (TRAH MIcro)
  468     dE    -3.491993e-06     3.233736e-04    -1.9886e-04      0.068 (TRAH MIcro)
  468     dE    -3.718255e-06     1.845592e-04    -2.4194e-04      0.070 (TRAH MIcro)
  468     dE    -3.757369e-06     8.045346e-05    -2.5259e-04      0.070 (TRAH MIcro)
  468     dE    -3.774091e-06     1.007442e-04    -2.5786e-04      0.070 (TRAH MIcro)
  468     dE    -3.790624e-06     3.633621e-05    -2.6309e-04      0.070 (TRAH MIcro)
  469       -295.077919407788     1.985347e-04                     0.084 (TRAH MAcro)   No
  469     dE    -4.391832e-08     4.425951e-05    -4.3918e-08      0.000 (TRAH MIcro)
  469     dE    -7.088562e-08     1.255818e-04    -7.0885e-08      0.001 (TRAH MIcro)
  469     dE    -1.999941e-07     1.832408e-04    -1.9998e-07      0.007 (TRAH MIcro)
  469     dE    -2.953495e-07     1.460038e-04    -2.9531e-07      0.012 (TRAH MIcro)
  469     dE    -4.015218e-07     1.795834e-04    -4.0140e-07      0.017 (TRAH MIcro)
  469     dE    -4.677347e-07     5.374092e-05    -4.6754e-07      0.021 (TRAH MIcro)
  469     dE    -4.744393e-07     3.180145e-05    -4.7423e-07      0.021 (TRAH MIcro)
  469     dE    -4.825446e-07     5.515215e-05    -4.8232e-07      0.021 (TRAH MIcro)
  469     dE    -5.152942e-07     1.207873e-04    -5.1501e-07      0.023 (TRAH MIcro)
  469     dE    -5.764456e-07     9.472834e-05    -5.7600e-07      0.028 (TRAH MIcro)
  469     dE    -6.145051e-07     8.006805e-05    -6.1392e-07      0.031 (TRAH MIcro)
  469     dE    -6.715367e-07     1.399647e-04    -6.7068e-07      0.036 (TRAH MIcro)
  469     dE    -7.499092e-07     1.213213e-04    -7.4852e-07      0.043 (TRAH MIcro)
  469     dE    -8.896033e-07     2.751265e-04    -8.8671e-07      0.057 (TRAH MIcro)
  469     dE    -1.357514e-06     2.884666e-04    -3.5225e-05      0.084 (TRAH MIcro)
  469     dE    -1.513985e-06     1.040218e-04    -6.0673e-05      0.084 (TRAH MIcro)
  469     dE    -1.472172e-06     1.145989e-04    -7.8102e-05      0.077 (TRAH MIcro)
  469     dE    -1.374628e-06     5.219965e-04    -2.0464e-04      0.056 (TRAH MIcro)
  469     dE    -2.940437e-06     3.137485e-04    -2.9705e-04      0.084 (TRAH MIcro)
  469     dE    -3.095683e-06     2.320210e-04    -3.3264e-04      0.083 (TRAH MIcro)
  469     dE    -3.238753e-06     1.425576e-04    -3.4624e-04      0.084 (TRAH MIcro)
  469     dE    -9.397986e-07     2.975810e-05    -4.7802e-04      0.032 (TRAH MIcro)
  469     dE    -9.544245e-07     2.618119e-05    -4.7933e-04      0.032 (TRAH MIcro)
  470       -295.077920136532     6.087447e-05                           (NR   MAcro)
  470     dE    -1.150504e-08     5.744779e-05                           (NR   MIcro)
  470     dE    -4.285502e-08     1.280107e-04                           (NR   MIcro)
  470     dE    -1.334534e-07     1.209078e-04                           (NR   MIcro)
  470     dE    -2.137911e-07     1.584508e-04                           (NR   MIcro)
  470     dE    -2.929130e-07     1.196935e-04                           (NR   MIcro)
  470     dE    -3.208071e-07     4.025612e-05                           (NR   MIcro)
  470     dE    -3.251815e-07     2.608934e-05                           (NR   MIcro)
  470     dE    -3.306141e-07     5.161388e-05                           (NR   MIcro)
  470     dE    -3.865605e-07     1.736173e-04                           (NR   MIcro)
  470     dE    -4.701666e-07     1.014666e-04                           (NR   MIcro)
  470     dE    -5.070819e-07     8.967881e-05                           (NR   MIcro)
  470     dE    -5.402008e-07     9.969294e-05                           (NR   MIcro)
  470     dE    -5.883550e-07     1.166289e-04                           (NR   MIcro)
  470     dE    -6.447212e-07     1.762819e-04                           (NR   MIcro)
  470     dE    -7.596203e-07     1.775103e-04                           (NR   MIcro)
  470     dE    -8.396957e-07     1.158545e-04                           (NR   MIcro)
  470     dE    -8.618494e-07     7.064314e-05                           (NR   MIcro)
  470     dE    -9.484868e-07     3.502873e-04                           (NR   MIcro)
  470     dE    -1.310889e-06     3.179494e-04                           (NR   MIcro)
  470     dE    -1.497655e-06     2.040169e-04                           (NR   MIcro)
  470     dE    -1.707691e-06     4.081749e-04                           (NR   MIcro)
  470     dE    -2.684005e-06     5.610177e-04                           (NR   MIcro)
  470     dE    -8.513286e-06     3.095398e-03                           (NR   MIcro)
  470     dE    -4.768863e-08     5.118911e-04                           (NR   MIcro)
  471       -295.077919373813     5.297821e-04                     0.101 (TRAH MAcro)   No
  471     dE    -3.319504e-07     1.858166e-04    -3.3195e-07      0.001 (TRAH MIcro)
  471     dE    -3.772006e-07     9.090605e-05    -3.7720e-07      0.001 (TRAH MIcro)
  471     dE    -4.103010e-07     1.412981e-04    -4.1030e-07      0.002 (TRAH MIcro)
  471     dE    -4.397255e-07     7.132247e-05    -4.3972e-07      0.003 (TRAH MIcro)
  471     dE    -4.684396e-07     1.308686e-04    -4.6843e-07      0.004 (TRAH MIcro)
  471     dE    -6.014431e-07     2.872623e-04    -6.0138e-07      0.011 (TRAH MIcro)
  471     dE    -7.363693e-07     1.169557e-04    -7.3613e-07      0.018 (TRAH MIcro)
  471     dE    -7.680133e-07     8.585023e-05    -7.6772e-07      0.020 (TRAH MIcro)
  471     dE    -8.273495e-07     1.872638e-04    -8.2691e-07      0.023 (TRAH MIcro)
  471     dE    -9.947561e-07     2.517429e-04    -9.9366e-07      0.033 (TRAH MIcro)
  471     dE    -1.124930e-06     1.624050e-04    -1.1230e-06      0.041 (TRAH MIcro)
  471     dE    -1.218621e-06     1.721992e-04    -1.2159e-06      0.047 (TRAH MIcro)
  471     dE    -1.332434e-06     1.975482e-04    -1.3284e-06      0.055 (TRAH MIcro)
  471     dE    -1.471515e-06     2.496067e-04    -1.4655e-06      0.064 (TRAH MIcro)
  471     dE    -2.435586e-06     7.230673e-04    -4.8049e-05      0.101 (TRAH MIcro)
  471     dE    -3.634918e-06     3.682201e-04    -1.7899e-04      0.101 (TRAH MIcro)
  471     dE    -3.786150e-06     1.176564e-04    -1.9555e-04      0.101 (TRAH MIcro)
  471     dE    -3.821895e-06     1.855740e-04    -2.0454e-04      0.100 (TRAH MIcro)
  471     dE    -4.159178e-06     3.570318e-04    -2.3680e-04      0.101 (TRAH MIcro)
  471     dE    -2.592201e-06     1.209483e-04    -3.4214e-04      0.063 (TRAH MIcro)
  471     dE    -2.701421e-06     5.842891e-05    -3.4599e-04      0.065 (TRAH MIcro)
  471     dE    -2.745031e-06     5.317348e-05    -3.4748e-04      0.065 (TRAH MIcro)
  471     dE    -2.766484e-06     2.827131e-05    -3.4819e-04      0.066 (TRAH MIcro)
  472       -295.077920807429     1.636231e-04                     0.101 (TRAH MAcro)   No
  472     dE    -2.892803e-08     3.311750e-05    -2.8928e-08      0.000 (TRAH MIcro)
  472     dE    -3.979969e-08     7.893828e-05    -3.9800e-08      0.001 (TRAH MIcro)
  472     dE    -1.577588e-07     2.165819e-04    -1.5775e-07      0.008 (TRAH MIcro)
  472     dE    -2.389080e-07     7.068606e-05    -2.3887e-07      0.013 (TRAH MIcro)
  472     dE    -2.528466e-07     4.962250e-05    -2.5280e-07      0.014 (TRAH MIcro)
  472     dE    -2.665490e-07     4.790499e-05    -2.6649e-07      0.015 (TRAH MIcro)
  472     dE    -2.748958e-07     4.046024e-05    -2.7483e-07      0.016 (TRAH MIcro)
  472     dE    -2.852104e-07     6.082318e-05    -2.8514e-07      0.016 (TRAH MIcro)
  472     dE    -3.295934e-07     1.338019e-04    -3.2946e-07      0.020 (TRAH MIcro)
  472     dE    -3.910532e-07     8.860701e-05    -3.9079e-07      0.026 (TRAH MIcro)
  472     dE    -4.129987e-07     5.131997e-05    -4.1268e-07      0.028 (TRAH MIcro)
  472     dE    -4.349264e-07     1.073471e-04    -4.3453e-07      0.030 (TRAH MIcro)
  472     dE    -7.347514e-07     4.985323e-04    -7.3166e-07      0.065 (TRAH MIcro)
  472     dE    -1.745604e-06     3.306976e-04    -7.7096e-05      0.101 (TRAH MIcro)
  472     dE    -2.055462e-06     2.612940e-04    -1.1020e-04      0.101 (TRAH MIcro)
  472     dE    -1.573820e-06     2.147451e-04    -1.8372e-04      0.070 (TRAH MIcro)
  472     dE    -1.867965e-06     1.387110e-04    -1.9449e-04      0.077 (TRAH MIcro)
  472     dE    -2.507131e-06     3.724921e-04    -2.1318e-04      0.090 (TRAH MIcro)
  472     dE    -3.221339e-06     2.279020e-04    -2.3495e-04      0.101 (TRAH MIcro)
  472     dE    -3.270876e-06     7.807068e-05    -2.4027e-04      0.101 (TRAH MIcro)
  472     dE    -3.293315e-06     1.322736e-04    -2.4268e-04      0.101 (TRAH MIcro)
  472     dE    -3.524749e-06     3.641009e-04    -2.6789e-04      0.101 (TRAH MIcro)
  472     dE    -1.150264e-06     1.638653e-04    -4.0861e-04      0.043 (TRAH MIcro)
  473       -295.077921199667     1.827402e-04                     0.101 (TRAH MAcro)   No
  473     dE    -3.932238e-08     6.274681e-05    -3.9322e-08      0.000 (TRAH MIcro)
  473     dE    -5.355079e-08     6.210033e-05    -5.3551e-08      0.001 (TRAH MIcro)
  473     dE    -6.893817e-08     7.759376e-05    -6.8938e-08      0.001 (TRAH MIcro)
  473     dE    -8.170499e-08     5.527322e-05    -8.1705e-08      0.002 (TRAH MIcro)
  473     dE    -1.110167e-07     1.687709e-04    -1.1101e-07      0.004 (TRAH MIcro)
  473     dE    -2.166656e-07     2.065731e-04    -2.1663e-07      0.012 (TRAH MIcro)
  473     dE    -2.567962e-07     6.050313e-05    -2.5673e-07      0.015 (TRAH MIcro)
  473     dE    -2.637824e-07     4.090994e-05    -2.6371e-07      0.016 (TRAH MIcro)
  473     dE    -2.769175e-07     8.318596e-05    -2.7684e-07      0.017 (TRAH MIcro)
  473     dE    -3.324507e-07     1.670203e-04    -3.3229e-07      0.022 (TRAH MIcro)
  473     dE    -4.251682e-07     1.929909e-04    -4.2474e-07      0.032 (TRAH MIcro)
  473     dE    -7.579412e-07     4.641725e-04    -7.5441e-07      0.068 (TRAH MIcro)
  473     dE    -1.879442e-06     4.776281e-04    -8.7662e-05      0.101 (TRAH MIcro)
  473     dE    -1.835390e-06     4.296341e-04    -1.9839e-04      0.075 (TRAH MIcro)
  473     dE    -4.249557e-06     6.555079e-04    -3.3498e-04      0.101 (TRAH MIcro)
  473     dE    -1.851617e-06     1.600394e-04    -4.8331e-04      0.054 (TRAH MIcro)
  473     dE    -1.974819e-06     5.329694e-05    -4.9116e-04      0.055 (TRAH MIcro)
  473     dE    -2.036690e-06     9.004457e-05    -4.9494e-04      0.056 (TRAH MIcro)
  473     dE    -2.297775e-06     1.655068e-04    -5.0932e-04      0.060 (TRAH MIcro)
  473     dE    -2.674569e-06     1.397769e-04    -5.2680e-04      0.064 (TRAH MIcro)
  473     dE    -2.867786e-06     8.415883e-05    -5.3465e-04      0.066 (TRAH MIcro)
  473     dE    -3.042704e-06     9.723111e-05    -5.4123e-04      0.068 (TRAH MIcro)
  473     dE    -3.187125e-06     8.120709e-05    -5.4624e-04      0.070 (TRAH MIcro)
 ---------------------------------
          TRAH Step control 
 ---------------------------------
  predicted energy change =    -3.187125262580e-06
  actual energy  change   =     1.594468130861e-07
  energy change ratio     = -0.050028
  old trust radius        = 0.101085
  new trust radius        = 0.067727
  reject step?            = YES
  474       -295.077921040220     1.827402e-04                     0.068 (TRAH MAcro)  Yes
  475       -295.077921040220     2.954474e-04                     0.068 (TRAH MAcro)   No
  475     dE    -8.831736e-08     5.230081e-05    -8.8317e-08      0.000 (TRAH MIcro)
  475     dE    -1.020333e-07     7.206409e-05    -1.0203e-07      0.001 (TRAH MIcro)
  475     dE    -1.604810e-07     1.131063e-04    -1.6048e-07      0.003 (TRAH MIcro)
  475     dE    -2.065144e-07     1.274833e-04    -2.0651e-07      0.005 (TRAH MIcro)
  475     dE    -3.242343e-07     2.288620e-04    -3.2419e-07      0.012 (TRAH MIcro)
  475     dE    -4.371639e-07     8.584356e-05    -4.3702e-07      0.018 (TRAH MIcro)
  475     dE    -4.578924e-07     6.411235e-05    -4.5773e-07      0.019 (TRAH MIcro)
  475     dE    -5.063149e-07     1.733739e-04    -5.0607e-07      0.022 (TRAH MIcro)
  475     dE    -7.453262e-07     2.948723e-04    -7.4431e-07      0.037 (TRAH MIcro)
  475     dE    -9.917712e-07     1.733694e-04    -9.8892e-07      0.054 (TRAH MIcro)
  475     dE    -1.114598e-06     2.015318e-04    -1.1103e-06      0.062 (TRAH MIcro)
  475     dE    -1.325757e-06     2.687768e-04    -3.2750e-05      0.068 (TRAH MIcro)
  475     dE    -1.620629e-06     2.550418e-04    -1.0487e-04      0.068 (TRAH MIcro)
  475     dE    -1.843430e-06     2.698471e-04    -1.6013e-04      0.068 (TRAH MIcro)
  475     dE    -1.699631e-06     1.481067e-04    -2.5253e-04      0.056 (TRAH MIcro)
  475     dE    -1.824771e-06     8.510355e-05    -2.5963e-04      0.058 (TRAH MIcro)
  475     dE    -1.888720e-06     9.659442e-05    -2.6305e-04      0.060 (TRAH MIcro)
  475     dE    -2.281523e-06     3.610529e-04    -2.8131e-04      0.067 (TRAH MIcro)
  475     dE    -2.428976e-06     1.234377e-04    -3.1101e-04      0.068 (TRAH MIcro)
  475     dE    -2.441756e-06     4.137517e-05    -3.1447e-04      0.068 (TRAH MIcro)
  475     dE    -2.444664e-06     3.430721e-05    -3.1524e-04      0.068 (TRAH MIcro)
  475     dE    -2.447410e-06     1.661100e-05    -3.1599e-04      0.068 (TRAH MIcro)
  476       -295.077921543977     2.095865e-04                     0.045 (TRAH MAcro)   No
  476     dE    -4.167855e-08     2.593649e-05    -4.1679e-08      0.000 (TRAH MIcro)
  476     dE    -5.064045e-08     7.486280e-05    -5.0640e-08      0.001 (TRAH MIcro)
  476     dE    -1.230296e-07     2.255203e-04    -1.2303e-07      0.006 (TRAH MIcro)
  476     dE    -2.726442e-07     1.032434e-04    -2.7256e-07      0.018 (TRAH MIcro)
  476     dE    -3.079349e-07     8.771445e-05    -3.0781e-07      0.020 (TRAH MIcro)
  476     dE    -3.487238e-07     7.266227e-05    -3.4853e-07      0.024 (TRAH MIcro)
  476     dE    -3.685346e-07     6.081992e-05    -3.6830e-07      0.025 (TRAH MIcro)
  476     dE    -4.050034e-07     1.297010e-04    -4.0469e-07      0.028 (TRAH MIcro)
  476     dE    -9.437250e-07     4.478424e-04    -1.8767e-04      0.045 (TRAH MIcro)
  476     dE    -1.230293e-06     1.920510e-04    -4.6660e-04      0.041 (TRAH MIcro)
  476     dE    -1.492150e-06     5.566036e-05    -4.9471e-04      0.045 (TRAH MIcro)
  476     dE    -1.507870e-06     6.357081e-05    -5.0144e-04      0.045 (TRAH MIcro)
  476     dE    -1.525490e-06     6.896909e-05    -5.1131e-04      0.045 (TRAH MIcro)
  476     dE    -1.545193e-06     7.283197e-05    -5.2239e-04      0.045 (TRAH MIcro)
  476     dE    -1.569164e-06     8.795165e-05    -5.3607e-04      0.045 (TRAH MIcro)
  476     dE    -1.608339e-06     7.767584e-05    -5.5904e-04      0.045 (TRAH MIcro)
  476     dE    -1.613896e-06     2.548663e-05    -5.6236e-04      0.045 (TRAH MIcro)
  476     dE    -1.619408e-06     7.540860e-05    -5.6565e-04      0.045 (TRAH MIcro)
  476     dE    -1.660978e-06     1.872078e-04    -5.9157e-04      0.045 (TRAH MIcro)
  476     dE    -1.659438e-06     1.266602e-04    -6.4799e-04      0.044 (TRAH MIcro)
  476     dE    -1.761985e-06     4.497671e-05    -6.5974e-04      0.045 (TRAH MIcro)
  476     dE    -1.771643e-06     5.388583e-05    -6.6649e-04      0.045 (TRAH MIcro)
  476     dE    -1.778157e-06     3.433771e-05    -6.7094e-04      0.045 (TRAH MIcro)
  477       -295.077921782872     1.661165e-04                     0.030 (TRAH MAcro)   No
  477     dE    -2.805146e-08     2.586496e-05    -2.8051e-08      0.000 (TRAH MIcro)
  477     dE    -3.283566e-08     4.532700e-05    -3.2836e-08      0.000 (TRAH MIcro)
  477     dE    -5.919201e-08     8.985951e-05    -5.9192e-08      0.003 (TRAH MIcro)
  477     dE    -8.099416e-08     7.553563e-05    -8.0992e-08      0.005 (TRAH MIcro)
  477     dE    -1.049426e-07     8.954184e-05    -1.0494e-07      0.007 (TRAH MIcro)
  477     dE    -1.286281e-07     5.860556e-05    -1.2862e-07      0.009 (TRAH MIcro)
  477     dE    -1.374671e-07     3.529287e-05    -1.3745e-07      0.010 (TRAH MIcro)
  477     dE    -1.457147e-07     6.354416e-05    -1.4570e-07      0.011 (TRAH MIcro)
  477     dE    -1.741739e-07     8.386214e-05    -1.7414e-07      0.014 (TRAH MIcro)
  477     dE    -1.866656e-07     3.357829e-05    -1.8662e-07      0.015 (TRAH MIcro)
  477     dE    -1.915127e-07     3.857922e-05    -1.9146e-07      0.016 (TRAH MIcro)
  477     dE    -2.163140e-07     1.378173e-04    -2.1624e-07      0.019 (TRAH MIcro)
  477     dE    -4.265573e-07     2.529204e-04    -1.7106e-04      0.030 (TRAH MIcro)
  477     dE    -5.457620e-07     1.441792e-04    -3.2625e-04      0.030 (TRAH MIcro)
  477     dE    -5.978840e-07     9.574356e-05    -3.9344e-04      0.030 (TRAH MIcro)
  477     dE    -6.155651e-07     4.520774e-05    -4.1616e-04      0.030 (TRAH MIcro)
  477     dE    -6.185931e-07     2.657372e-05    -4.2007e-04      0.030 (TRAH MIcro)
  477     dE    -2.922536e-07     2.737322e-05    -6.0018e-04      0.015 (TRAH MIcro)
  477     dE    -3.038731e-07     3.396954e-05    -6.0584e-04      0.016 (TRAH MIcro)
  477     dE    -3.081954e-07     1.009037e-05    -6.0767e-04      0.016 (TRAH MIcro)
  478       -295.077921998142     2.899944e-05                           (NR   MAcro)
  478     dE    -3.116197e-09     3.008552e-05                           (NR   MIcro)
  478     dE    -1.465676e-08     7.910261e-05                           (NR   MIcro)
  478     dE    -5.252777e-08     7.076600e-05                           (NR   MIcro)
  478     dE    -6.292806e-08     3.831489e-05                           (NR   MIcro)
  478     dE    -6.892577e-08     3.590577e-05                           (NR   MIcro)
  478     dE    -7.158890e-08     1.133358e-05                           (NR   MIcro)
  478     dE    -7.199903e-08     8.506954e-06                           (NR   MIcro)
  478     dE    -7.251045e-08     1.395198e-05                           (NR   MIcro)
  478     dE    -7.677906e-08     5.610001e-05                           (NR   MIcro)
  478     dE    -1.055942e-07     8.983222e-05                           (NR   MIcro)
  478     dE    -1.783434e-07     2.276750e-04                           (NR   MIcro)
  478     dE     4.255258e-08     2.304230e-04                           (NR   MIcro)
  478     dE    -2.501839e-08     7.349366e-05                           (NR   MIcro)
  478     dE    -4.085287e-08     6.077149e-05                           (NR   MIcro)
  478     dE    -4.961292e-08     3.201460e-05                           (NR   MIcro)
  478     dE    -5.159440e-08     1.428151e-05                           (NR   MIcro)
  478     dE    -5.206223e-08     1.205660e-05                           (NR   MIcro)
  478     dE    -5.454961e-08     6.105557e-05                           (NR   MIcro)
  478     dE    -5.784259e-08     1.705242e-05                           (NR   MIcro)
  478     dE    -5.843428e-08     1.195151e-05                           (NR   MIcro)
  478     dE    -5.889978e-08     1.737262e-05                           (NR   MIcro)
  478     dE    -6.025619e-08     1.699514e-05                           (NR   MIcro)
  478     dE    -6.140731e-08     2.053043e-05                           (NR   MIcro)
  478     dE    -6.412358e-08     3.140108e-05                           (NR   MIcro)
  479       -295.077922113000     3.574188e-05                           (NR   MAcro)
  479     dE    -3.252866e-09     3.154991e-05                           (NR   MIcro)
  479     dE    -7.564514e-09     4.070433e-05                           (NR   MIcro)
  479     dE    -2.139402e-08     9.070882e-05                           (NR   MIcro)
  479     dE    -3.705169e-08     5.749981e-05                           (NR   MIcro)
  479     dE    -5.155785e-08     7.373167e-05                           (NR   MIcro)
  479     dE    -6.172121e-08     3.522160e-05                           (NR   MIcro)
  479     dE    -6.324256e-08     1.237018e-05                           (NR   MIcro)
  479     dE    -6.373639e-08     1.628989e-05                           (NR   MIcro)
  479     dE    -6.676347e-08     4.168047e-05                           (NR   MIcro)
  479     dE    -8.118141e-08     8.221481e-05                           (NR   MIcro)
  479     dE    -1.003957e-07     7.627784e-05                           (NR   MIcro)
  479     dE    -1.464276e-07     1.749911e-04                           (NR   MIcro)
  479     dE     6.307764e-08     3.247062e-04                           (NR   MIcro)
  479     dE    -1.374321e-08     8.646466e-05                           (NR   MIcro)
  479     dE    -3.448476e-08     6.431980e-05                           (NR   MIcro)
  479     dE    -3.934171e-08     2.171059e-05                           (NR   MIcro)
  479     dE    -4.003661e-08     1.050929e-05                           (NR   MIcro)
  479     dE    -4.085719e-08     2.652427e-05                           (NR   MIcro)
  479     dE    -4.346770e-08     1.684925e-05                           (NR   MIcro)
  479     dE    -4.401291e-08     7.843176e-06                           (NR   MIcro)
  479     dE    -4.417555e-08     5.598153e-06                           (NR   MIcro)
  479     dE    -4.438568e-08     8.483564e-06                           (NR   MIcro)
  479     dE    -4.460905e-08     7.202795e-06                           (NR   MIcro)
  479     dE    -4.505086e-08     1.722737e-05                           (NR   MIcro)
  480       -295.077922194149     2.206396e-05                           (NR   MAcro)
  480     dE    -2.355442e-09     3.039129e-05                           (NR   MIcro)
  480     dE    -9.739622e-09     5.904102e-05                           (NR   MIcro)
  480     dE    -2.870493e-08     6.362657e-05                           (NR   MIcro)
  480     dE    -4.193881e-08     5.801338e-05                           (NR   MIcro)
  480     dE    -5.594411e-08     5.804331e-05                           (NR   MIcro)
  480     dE    -6.131902e-08     2.597131e-05                           (NR   MIcro)
  480     dE    -6.226290e-08     1.319261e-05                           (NR   MIcro)
  480     dE    -6.397258e-08     4.216782e-05                           (NR   MIcro)
  480     dE    -8.597865e-08     1.121207e-04                           (NR   MIcro)
  480     dE    -1.515535e-07     1.464522e-04                           (NR   MIcro)
  480     dE    -4.434833e-07     6.427775e-04                           (NR   MIcro)
  480     dE     1.130615e-07     2.345916e-04                           (NR   MIcro)
  480     dE     2.811958e-08     1.111436e-04                           (NR   MIcro)
  480     dE    -7.678562e-09     1.067371e-04                           (NR   MIcro)
  480     dE    -2.221709e-08     3.209930e-05                           (NR   MIcro)
  480     dE    -2.416605e-08     1.562346e-05                           (NR   MIcro)
  480     dE    -2.498899e-08     1.944556e-05                           (NR   MIcro)
  480     dE    -2.744206e-08     3.609665e-05                           (NR   MIcro)
  480     dE    -2.932171e-08     1.354013e-05                           (NR   MIcro)
  480     dE    -2.959937e-08     6.002931e-06                           (NR   MIcro)
  480     dE    -2.977973e-08     1.026281e-05                           (NR   MIcro)
  480     dE    -3.017195e-08     9.778039e-06                           (NR   MIcro)
  480     dE    -3.067353e-08     1.500878e-05                           (NR   MIcro)
  480     dE    -3.262832e-08     3.277708e-05                           (NR   MIcro)
  481       -295.077922249104     3.401197e-05                           (NR   MAcro)
  481     dE    -3.232634e-09     2.930980e-05                           (NR   MIcro)
  481     dE    -6.488241e-09     3.251079e-05                           (NR   MIcro)
  481     dE    -1.653529e-08     8.038001e-05                           (NR   MIcro)
  481     dE    -2.930313e-08     6.078328e-05                           (NR   MIcro)
  481     dE    -4.896169e-08     1.004098e-04                           (NR   MIcro)
  481     dE    -6.698102e-08     4.996118e-05                           (NR   MIcro)
  481     dE    -7.005407e-08     1.873704e-05                           (NR   MIcro)
  481     dE    -7.206174e-08     4.380180e-05                           (NR   MIcro)
  481     dE    -8.645268e-08     8.881780e-05                           (NR   MIcro)
  481     dE    -1.781779e-07     2.688012e-04                           (NR   MIcro)
  481     dE    -3.650458e-07     3.316552e-04                           (NR   MIcro)
  481     dE     5.232903e-07     7.721254e-04                           (NR   MIcro)
  481     dE     7.388851e-08     1.685157e-04                           (NR   MIcro)
  481     dE     2.327237e-08     7.843948e-05                           (NR   MIcro)
  481     dE     9.153256e-10     6.855016e-05                           (NR   MIcro)
  481     dE    -6.120555e-09     1.924405e-05                           (NR   MIcro)
  481     dE    -7.151923e-09     1.579804e-05                           (NR   MIcro)
  481     dE    -9.349759e-09     3.582397e-05                           (NR   MIcro)
  481     dE    -1.377111e-08     2.264464e-05                           (NR   MIcro)
  481     dE    -1.458394e-08     8.754125e-06                           (NR   MIcro)
  481     dE    -1.482897e-08     7.720560e-06                           (NR   MIcro)
  481     dE    -1.519113e-08     1.043531e-05                           (NR   MIcro)
  481     dE    -1.556142e-08     9.550311e-06                           (NR   MIcro)
  481     dE    -1.650887e-08     2.725775e-05                           (NR   MIcro)
  482       -295.077922267347     2.622602e-05                           (NR   MAcro)
  482     dE    -2.324538e-09     2.836605e-05                           (NR   MIcro)
  482     dE    -8.304843e-09     5.408145e-05                           (NR   MIcro)
  482     dE    -2.281377e-08     7.288298e-05                           (NR   MIcro)
  482     dE    -4.126347e-08     7.205681e-05                           (NR   MIcro)
  482     dE    -7.384572e-08     1.170180e-04                           (NR   MIcro)
  482     dE    -9.781930e-08     4.614659e-05                           (NR   MIcro)
  482     dE    -1.019731e-07     2.985426e-05                           (NR   MIcro)
  482     dE    -1.116304e-07     9.623784e-05                           (NR   MIcro)
  482     dE    -2.556477e-07     3.320959e-04                           (NR   MIcro)
  482     dE     4.515260e-06     3.517292e-03                           (NR   MIcro)
  482     dE     4.367164e-07     3.924272e-04                           (NR   MIcro)
  482     dE     2.026435e-07     1.628995e-04                           (NR   MIcro)
  482     dE     1.381874e-07     1.201838e-04                           (NR   MIcro)
  482     dE     7.743807e-08     1.630987e-04                           (NR   MIcro)
  482     dE     3.922220e-08     5.801754e-05                           (NR   MIcro)
  482     dE     3.305876e-08     2.757149e-05                           (NR   MIcro)
  482     dE     3.099832e-08     2.796773e-05                           (NR   MIcro)
  482     dE     2.467182e-08     6.440468e-05                           (NR   MIcro)
  482     dE     1.948586e-08     2.107196e-05                           (NR   MIcro)
  482     dE     1.867508e-08     1.152896e-05                           (NR   MIcro)
  482     dE     1.809104e-08     1.764817e-05                           (NR   MIcro)
  482     dE     1.691349e-08     1.834236e-05                           (NR   MIcro)
  482     dE     1.530647e-08     2.747612e-05                           (NR   MIcro)
  482     dE     7.347114e-09     7.858890e-05                           (NR   MIcro)
  483       -295.077922221637     7.818305e-05                           (NR   MAcro)
  483     dE    -9.749894e-09     3.934993e-05                           (NR   MIcro)
  483     dE    -1.402652e-08     3.393605e-05                           (NR   MIcro)
  483     dE    -2.115594e-08     6.253416e-05                           (NR   MIcro)
  483     dE    -3.061135e-08     5.547252e-05                           (NR   MIcro)
  483     dE    -5.338907e-08     1.255763e-04                           (NR   MIcro)
  483     dE    -1.246849e-07     1.582069e-04                           (NR   MIcro)
  483     dE    -1.554731e-07     5.967785e-05                           (NR   MIcro)
  483     dE    -1.681862e-07     9.482729e-05                           (NR   MIcro)
  483     dE    -2.359755e-07     1.936239e-04                           (NR   MIcro)
  483     dE    -6.476840e-07     5.406007e-04                           (NR   MIcro)
  483     dE    -1.349624e-06     5.463007e-04                           (NR   MIcro)
  483     dE     4.166908e-05     2.255836e-02                           (NR   MIcro)
  483     dE     7.364684e-07     5.159094e-04                           (NR   MIcro)
  483     dE     3.489571e-07     2.210975e-04                           (NR   MIcro)
  483     dE     1.861254e-07     1.768348e-04                           (NR   MIcro)
  483     dE     1.366604e-07     6.045595e-05                           (NR   MIcro)
  483     dE     1.284758e-07     4.130253e-05                           (NR   MIcro)
  483     dE     1.147453e-07     9.439213e-05                           (NR   MIcro)
  483     dE     7.628180e-08     7.339534e-05                           (NR   MIcro)
  483     dE     6.885086e-08     2.385378e-05                           (NR   MIcro)
  483     dE     6.714541e-08     1.961186e-05                           (NR   MIcro)
  483     dE     6.555829e-08     1.937119e-05                           (NR   MIcro)
  483     dE     6.421534e-08     1.651366e-05                           (NR   MIcro)
  483     dE     6.215620e-08     3.447906e-05                           (NR   MIcro)
  484       -295.077922025905     5.171912e-05                           (NR   MAcro)
  484     dE    -5.962647e-09     3.271354e-05                           (NR   MIcro)
  484     dE    -1.363000e-08     6.099157e-05                           (NR   MIcro)
  484     dE    -4.658675e-08     9.159984e-05                           (NR   MIcro)
  484     dE    -8.799486e-08     1.263177e-04                           (NR   MIcro)
  484     dE    -2.245092e-07     2.478332e-04                           (NR   MIcro)
  484     dE    -4.097956e-07     1.841173e-04                           (NR   MIcro)
  484     dE    -4.640281e-07     8.730436e-05                           (NR   MIcro)
  484     dE    -5.340988e-07     2.408892e-04                           (NR   MIcro)
  484     dE    -2.451006e-06     1.365184e-03                           (NR   MIcro)
  484     dE     5.407263e-06     1.311864e-03                           (NR   MIcro)
  484     dE     2.552870e-06     5.504103e-04                           (NR   MIcro)
  484     dE     1.823870e-06     3.890750e-04                           (NR   MIcro)
  484     dE     1.493345e-06     2.792796e-04                           (NR   MIcro)
  484     dE     1.147920e-06     5.490145e-04                           (NR   MIcro)
  484     dE     6.653949e-07     2.109771e-04                           (NR   MIcro)
  484     dE     5.846502e-07     1.082128e-04                           (NR   MIcro)
  484     dE     5.560937e-07     1.070091e-04                           (NR   MIcro)
  484     dE     4.831860e-07     1.905650e-04                           (NR   MIcro)
  484     dE     4.074497e-07     9.987399e-05                           (NR   MIcro)
  484     dE     3.946446e-07     3.798043e-05                           (NR   MIcro)
  484     dE     3.868456e-07     6.737296e-05                           (NR   MIcro)
  484     dE     3.724943e-07     6.558300e-05                           (NR   MIcro)
  484     dE     3.518122e-07     9.564894e-05                           (NR   MIcro)
  484     dE     2.766116e-07     2.317259e-04                           (NR   MIcro)
  485       -295.077921105450     2.469449e-04                     0.030 (TRAH MAcro)   No
  485     dE    -8.805033e-08     1.096394e-04    -8.8050e-08      0.001 (TRAH MIcro)
  485     dE    -1.179004e-07     8.472181e-05    -1.1790e-07      0.001 (TRAH MIcro)
  485     dE    -1.492148e-07     1.132922e-04    -1.4921e-07      0.002 (TRAH MIcro)
  485     dE    -1.770173e-07     8.814629e-05    -1.7702e-07      0.003 (TRAH MIcro)
  485     dE    -2.345828e-07     1.995042e-04    -2.3458e-07      0.006 (TRAH MIcro)
  485     dE    -4.251178e-07     2.761997e-04    -4.2501e-07      0.016 (TRAH MIcro)
  485     dE    -5.249741e-07     1.116649e-04    -5.2473e-07      0.022 (TRAH MIcro)
  485     dE    -5.628328e-07     1.573828e-04    -5.6252e-07      0.024 (TRAH MIcro)
  485     dE    -7.230427e-07     2.679629e-04    -5.2274e-05      0.031 (TRAH MIcro)
  485     dE    -9.266089e-07     1.970563e-04    -3.0871e-04      0.030 (TRAH MIcro)
  485     dE    -9.572792e-07     6.796409e-05    -3.4777e-04      0.030 (TRAH MIcro)
  485     dE    -9.683249e-07     7.889048e-05    -3.7441e-04      0.030 (TRAH MIcro)
  485     dE    -9.929647e-07     7.019114e-05    -3.9444e-04      0.030 (TRAH MIcro)
  485     dE    -8.496650e-07     4.157372e-05    -5.4612e-04      0.024 (TRAH MIcro)
  485     dE    -8.709930e-07     4.978967e-05    -5.5138e-04      0.025 (TRAH MIcro)
  485     dE    -8.833474e-07     1.945690e-05    -5.5421e-04      0.025 (TRAH MIcro)
  486       -295.077921890509     4.366406e-05                           (NR   MAcro)
  486     dE    -4.687576e-09     3.191074e-05                           (NR   MIcro)
  486     dE    -1.735817e-08     9.433143e-05                           (NR   MIcro)
  486     dE    -2.486575e-07     3.847527e-04                           (NR   MIcro)
  486     dE    -1.849910e-06     7.258986e-04                           (NR   MIcro)
  486     dE    -4.102169e-06     7.928737e-04                           (NR   MIcro)
  486     dE    -8.325745e-06     1.335179e-03                           (NR   MIcro)
  486     dE    -7.536748e-05     1.008079e-02                           (NR   MIcro)
  486     dE     2.009098e-05     2.507953e-03                           (NR   MIcro)
  486     dE     2.616383e-06     1.295272e-03                           (NR   MIcro)
  486     dE     8.966904e-07     2.936170e-04                           (NR   MIcro)
  486     dE     7.477018e-07     1.038722e-04                           (NR   MIcro)
  486     dE     7.234332e-07     8.088636e-05                           (NR   MIcro)
  486     dE     6.644249e-07     1.903826e-04                           (NR   MIcro)
  486     dE     6.070657e-07     1.203840e-04                           (NR   MIcro)
  486     dE     5.778808e-07     8.479382e-05                           (NR   MIcro)
  486     dE     5.478342e-07     1.187256e-04                           (NR   MIcro)
  486     dE     5.287941e-07     5.806351e-05                           (NR   MIcro)
  486     dE     5.001414e-07     1.463159e-04                           (NR   MIcro)
  486     dE     3.257787e-07     3.841841e-04                           (NR   MIcro)
  486     dE     7.228639e-08     2.210260e-04                           (NR   MIcro)
  486     dE    -1.122151e-08     1.235076e-04                           (NR   MIcro)
  486     dE    -2.423276e-07     3.978392e-04                           (NR   MIcro)
  486     dE    -2.095043e-06     1.069264e-03                           (NR   MIcro)
  486     dE     1.214603e-04     3.003424e-02                           (NR   MIcro)
  487       -294.092741730504     1.005283e+00                     0.036 (TRAH MAcro)   No
WARNING: 29 diagonal Hessian elements are negative!
WARNING : negative HOMO - LUMO gap : (op = alpha) -0.179139
WARNING : negative HOMO - LUMO gap : (op = alpha) -0.179139
  487     dE    -6.054660e-02     3.884344e-03    -3.1894e+01      0.031 (TRAH MIcro)
  488       -294.153283673301     9.750064e-01                     0.044 (TRAH MAcro)   No
WARNING: 29 diagonal Hessian elements are negative!
WARNING : negative HOMO - LUMO gap : (op = alpha) -0.156000
WARNING : negative HOMO - LUMO gap : (op = alpha) -0.156000
  488     dE    -8.352291e-02     4.487368e-03    -2.1320e+01      0.044 (TRAH MIcro)
  489       -294.236792246591     9.328658e-01                     0.053 (TRAH MAcro)   No
WARNING: 29 diagonal Hessian elements are negative!
WARNING : negative HOMO - LUMO gap : (op = alpha) -0.122885
WARNING : negative HOMO - LUMO gap : (op = alpha) -0.122885
  489     dE    -9.524722e-02     4.699343e-03    -1.6846e+01      0.052 (TRAH MIcro)
  490       -294.332013033720     8.828112e-01                     0.063 (TRAH MAcro)   No
WARNING: 28 diagonal Hessian elements are negative!
WARNING : negative HOMO - LUMO gap : (op = alpha) -0.083626
WARNING : negative HOMO - LUMO gap : (op = alpha) -0.083626
  490     dE    -9.970289e-02     5.255711e-03    -1.4193e+01      0.058 (TRAH MIcro)
  491       -294.431682690636     8.266580e-01                     0.076 (TRAH MAcro)   No
WARNING: 19 diagonal Hessian elements are negative!
WARNING : negative HOMO - LUMO gap : (op = alpha) -0.040978
WARNING : negative HOMO - LUMO gap : (op = alpha) -0.040978
  491     dE    -1.187938e-01     4.963529e-03    -1.0030e+01      0.075 (TRAH MIcro)
  492       -294.550398920410     7.523384e-01                     0.091 (TRAH MAcro)   No
WARNING : small    HOMO - LUMO gap : (op = alpha) 0.011710
WARNING : small    HOMO - LUMO gap : (op = alpha) 0.011710
  492     dE    -1.283202e-01     7.088021e-03    -7.2868e+00      0.091 (TRAH MIcro)
  493       -294.678561550512     6.590688e-01                     0.109 (TRAH MAcro)   No
  493     dE    -1.256411e-01     7.326798e-03    -5.3044e+00      0.104 (TRAH MIcro)
  494       -294.803951468089     5.476658e-01                     0.131 (TRAH MAcro)   No
  494     dE    -1.244882e-01     1.011316e-02    -3.0978e+00      0.131 (TRAH MIcro)
  494     dE    -1.245123e-01     3.889168e-04    -3.0978e+00      0.131 (TRAH MIcro)
  495       -294.928249572771     4.026576e-01                     0.157 (TRAH MAcro)   No
  495     dE    -9.775162e-02     1.120763e-02    -1.4923e+00      0.155 (TRAH MIcro)
  495     dE    -9.776875e-02     7.962669e-04    -1.4931e+00      0.154 (TRAH MIcro)
  496       -295.025862719249     2.292301e-01                     0.188 (TRAH MAcro)   No
  496     dE    -4.691258e-02     2.783790e-02    -2.3244e-01      0.188 (TRAH MIcro)
  496     dE    -4.787065e-02     5.447665e-03    -1.8882e-01      0.188 (TRAH MIcro)
  497       -295.073555727605     3.468746e-02                     0.226 (TRAH MAcro)   No
  497     dE    -2.059955e-03     1.279883e-02    -2.0455e-03      0.084 (TRAH MIcro)
  497     dE    -2.457642e-03     8.704399e-03    -2.4286e-03      0.109 (TRAH MIcro)
  497     dE    -2.742252e-03     5.781749e-03    -2.6830e-03      0.149 (TRAH MIcro)
  497     dE    -2.830125e-03     3.614496e-03    -2.7528e-03      0.168 (TRAH MIcro)
  497     dE    -2.937514e-03     4.490978e-03    -2.8225e-03      0.202 (TRAH MIcro)
  497     dE    -3.055937e-03     3.462997e-03    -5.4140e-03      0.226 (TRAH MIcro)
  498       -295.076596355356     3.987036e-03                     0.271 (TRAH MAcro)   No
  498     dE    -4.487015e-05     3.033106e-03    -4.4858e-05      0.017 (TRAH MIcro)
  498     dE    -1.282447e-04     5.375942e-03    -1.2751e-04      0.076 (TRAH MIcro)
  498     dE    -3.522132e-04     8.727409e-03    -3.3068e-04      0.255 (TRAH MIcro)
  498     dE    -4.710677e-04     2.962337e-03    -1.8578e-03      0.271 (TRAH MIcro)
  498     dE    -4.935204e-04     1.908975e-03    -2.2238e-03      0.271 (TRAH MIcro)
  498     dE    -5.042650e-04     1.369992e-03    -2.4100e-03      0.271 (TRAH MIcro)
  498     dE    -4.910337e-04     5.300189e-04    -2.7075e-03      0.258 (TRAH MIcro)
  498     dE    -4.999473e-04     1.225591e-03    -2.7274e-03      0.262 (TRAH MIcro)
  498     dE    -5.115136e-04     7.913847e-04    -2.7490e-03      0.267 (TRAH MIcro)
  498     dE    -5.157843e-04     3.077430e-04    -2.7557e-03      0.269 (TRAH MIcro)
  499       -295.077114884112     2.843836e-03                     0.325 (TRAH MAcro)   No
  499     dE    -2.398973e-05     2.498586e-03    -2.3983e-05      0.016 (TRAH MIcro)
  499     dE    -1.373531e-04     7.094814e-03    -1.3390e-04      0.161 (TRAH MIcro)
  499     dE    -2.928894e-04     3.202804e-03    -3.7260e-04      0.325 (TRAH MIcro)
  499     dE    -3.109861e-04     1.194215e-03    -5.5799e-04      0.325 (TRAH MIcro)
  499     dE    -3.157603e-04     9.754964e-04    -6.0279e-04      0.325 (TRAH MIcro)
  499     dE    -3.222303e-04     1.278102e-03    -6.7428e-04      0.325 (TRAH MIcro)
  499     dE    -3.268990e-04     9.649584e-04    -7.3105e-04      0.325 (TRAH MIcro)
  499     dE    -3.343776e-04     1.844687e-03    -8.3569e-04      0.325 (TRAH MIcro)
  499     dE    -3.420512e-04     9.798786e-04    -9.6021e-04      0.325 (TRAH MIcro)
  499     dE    -3.440477e-04     5.398014e-04    -9.9507e-04      0.325 (TRAH MIcro)
  499     dE    -3.462575e-04     9.705310e-04    -1.0360e-03      0.325 (TRAH MIcro)
  499     dE    -3.518308e-04     1.047561e-03    -1.1505e-03      0.325 (TRAH MIcro)
  499     dE    -3.539716e-04     5.535303e-04    -1.1979e-03      0.325 (TRAH MIcro)
  499     dE    -3.544845e-04     2.561271e-04    -1.2096e-03      0.325 (TRAH MIcro)

               *****************************************************
               *                      ERROR                        *
               *        SCF NOT CONVERGED AFTER 8289 CYCLES         *
               *****************************************************

[file orca_leanscf/orca_leanscf.cpp, line 306, Process 1]: Error (ORCA_LEANSCF): unfortunately, the SCF has not converged. There may be a way out but we have to stop here 
[file orca_leanscf/orca_leanscf.cpp, line 306, Process 2]: Error (ORCA_LEANSCF): unfortunately, the SCF has not converged. There may be a way out but we have to stop here 
[file orca_leanscf/orca_leanscf.cpp, line 306, Process 3]: Error (ORCA_LEANSCF): unfortunately, the SCF has not converged. There may be a way out but we have to stop here 
[file orca_leanscf/orca_leanscf.cpp, line 306, Process 4]: Error (ORCA_LEANSCF): unfortunately, the SCF has not converged. There may be a way out but we have to stop here 
[file orca_leanscf/orca_leanscf.cpp, line 306, Process 5]: Error (ORCA_LEANSCF): unfortunately, the SCF has not converged. There may be a way out but we have to stop here 
[file orca_leanscf/orca_leanscf.cpp, line 306, Process 6]: Error (ORCA_LEANSCF): unfortunately, the SCF has not converged. There may be a way out but we have to stop here 
[file orca_leanscf/orca_leanscf.cpp, line 306, Process 7]: Error (ORCA_LEANSCF): unfortunately, the SCF has not converged. There may be a way out but we have to stop here 
[file orca_leanscf/orca_leanscf.cpp, line 306, Process 0]: Error (ORCA_LEANSCF): unfortunately, the SCF has not converged. There may be a way out but we have to stop here 

ORCA finished by error termination in LEANSCF
Calling Command: mpirun -np 8  /opt/orca/orca_leanscf_mpi input.gbw input 
[file orca_tools/qcmsg.cpp, line 394]: 
  .... aborting the run

