12
B12 random_3d_03; neutral charge=0; multiplicity=1; 3D initial geometry; nominal d=3.0 A; Random 3D B12 cloud with controlled minimum distance 03.
B       -0.85613657       1.29498944       0.34582855
B       -2.88329165       1.58062252       2.23752416
B        5.54200286      -2.82509909       1.39899406
B       -1.04906251       3.02229437       4.03691658
B       -4.44337005       0.34907390      -1.93748130
B        5.67212969      -0.51421437      -0.89655278
B        0.12745482       4.08479567      -3.16330118
B        3.74506435       4.72779545      -1.43220985
B        2.55436925      -4.24273203       0.31187997
B       -1.55213286      -4.17665954      -1.64190959
B       -4.36568458       0.73700549       0.27107653
B       -2.49134275      -4.03787180       0.46923485
