12
B12 compact_3d; neutral charge=0; multiplicity=1; 3d initial geometry; nominal d=5.0 A; Compact non-planar B12 cage-like cluster.
B        0.00000000       0.00000000      10.06555789
B        7.58532729       0.00000000       4.60155095
B       -3.79266364       6.55680833       4.60155095
B       -3.79266364      -6.55680833       4.60155095
B        4.62833530       7.58532729      -0.21963165
B       -4.62833530       7.58532729      -0.21963165
B        4.62833530      -7.58532729      -0.21963165
B       -4.62833530      -7.58532729      -0.21963165
B        7.19963268       0.00000000      -5.10509669
B       -7.19963268       0.00000000      -5.10509669
B        0.00000000       6.29967860      -6.39074538
B        0.00000000      -6.29967860      -6.39074538
