12
B12 random_3d_03; neutral charge=0; multiplicity=1; 3D initial geometry; nominal d=2.5 A; Random 3D B12 cloud with controlled minimum distance 03.
B       -0.75995021       0.63010591       2.32065544
B       -0.81981013      -2.44296027       3.19110587
B        3.20956140       0.89477007      -3.48125495
B       -0.54036331       3.29471609       1.83876446
B       -3.14073378       2.99972768      -0.92407670
B       -0.22723670      -2.70463953      -1.35113099
B       -1.89162617      -2.48788495       1.36636544
B        3.70773165      -2.10834857      -3.95376660
B       -3.05128157       0.13743106       4.26161238
B        0.70929653      -2.38616568       1.72894171
B        2.75620531       1.84840439      -1.79597004
B        0.04820700       2.32484380      -3.20124603
