12
Coordinates from ORCA-job input E -297.318957367448
  B           1.63073130723574     -0.00024813162424      0.73412540684216
  B           0.81554575956794      1.41141662078155      0.73526632903398
  B          -0.81470179498307      1.41020319229978      0.73528028424131
  B          -1.63237615018114      0.00018517933231      0.73385773939513
  B          -0.81478918804098     -1.40997867916119      0.73510641514129
  B           0.81549407963984     -1.41185676675302      0.73509481718884
  B           1.41089840126844      0.81512205355894     -0.73506570368506
  B           0.00031308134971      1.63165720655698     -0.73388089987031
  B          -1.41071244513953      0.81508649882933     -0.73521427506118
  B          -1.41112733354024     -0.81489694308308     -0.73532821261259
  B          -0.00003881173476     -1.63145745754736     -0.73406322982916
  B           1.41076309455805     -0.81523277318999     -0.73517867078440
