12
Coordinates from ORCA-job input E -296.331984460201
  B       2.500000     -0.000000      0.775000
  B       1.250000      2.165064      0.775000
  B      -1.250000      2.165064      0.775000
  B      -2.500000      0.000000      0.775000
  B      -1.250000     -2.165064      0.775000
  B       1.250000     -2.165064      0.775000
  B       2.035160      1.175000     -0.775000
  B       0.000000      2.350000     -0.775000
  B      -2.035160      1.175000     -0.775000
  B      -2.035160     -1.175000     -0.775000
  B      -0.000000     -2.350000     -0.775000
  B       2.035160     -1.175000     -0.775000
12
Coordinates from ORCA-job input E -296.453665103699
  B       2.382351      0.000000      0.780114
  B       1.191182      2.063132      0.780253
  B      -1.191182      2.063132      0.780253
  B      -2.382351     -0.000000      0.780114
  B      -1.191182     -2.063132      0.780253
  B       1.191182     -2.063132      0.780253
  B       1.906627      1.100888     -0.780242
  B       0.000000      2.201757     -0.780136
  B      -1.906627      1.100888     -0.780242
  B      -1.906627     -1.100888     -0.780242
  B      -0.000000     -2.201757     -0.780136
  B       1.906627     -1.100888     -0.780242
12
Coordinates from ORCA-job input E -296.570954347370
  B       2.271808      0.000000      0.782844
  B       1.135936      1.967309      0.783194
  B      -1.135936      1.967309      0.783194
  B      -2.271808     -0.000000      0.782844
  B      -1.135936     -1.967309      0.783194
  B       1.135936     -1.967309      0.783194
  B       1.774161      1.024547     -0.783166
  B       0.000000      2.048994     -0.782900
  B      -1.774161      1.024547     -0.783166
  B      -1.774161     -1.024547     -0.783166
  B      -0.000000     -2.048994     -0.782900
  B       1.774161     -1.024547     -0.783166
12
Coordinates from ORCA-job input E -296.718880874522
  B       2.107148      0.000000      0.783078
  B       1.053756      1.824748      0.783996
  B      -1.053756      1.824748      0.783996
  B      -2.107148      0.000000      0.783078
  B      -1.053756     -1.824749      0.783996
  B       1.053756     -1.824749      0.783996
  B       1.578223      0.911952     -0.783911
  B       0.000000      1.823367     -0.783248
  B      -1.578223      0.911952     -0.783911
  B      -1.578223     -0.911952     -0.783911
  B      -0.000000     -1.823368     -0.783248
  B       1.578223     -0.911952     -0.783911
12
Coordinates from ORCA-job input E -297.048462731828
  B       1.999177      0.000014      0.741839
  B       0.999761      1.731065      0.741887
  B      -0.999761      1.731065      0.741887
  B      -1.999177      0.000014      0.741838
  B      -0.999827     -1.731030      0.741866
  B       0.999828     -1.731030      0.741866
  B       1.299427      0.749891     -0.741837
  B      -0.000000      1.500332     -0.741889
  B      -1.299427      0.749891     -0.741837
  B      -1.299436     -0.749931     -0.741854
  B       0.000000     -1.500348     -0.741913
  B       1.299437     -0.749931     -0.741854
12
Coordinates from ORCA-job input E -297.269708342331
  B       1.726117      0.000013      0.754206
  B       0.863338      1.494887      0.754699
  B      -0.863339      1.494886      0.754698
  B      -1.726115      0.000014      0.754206
  B      -0.863440     -1.494831      0.754667
  B       0.863440     -1.494832      0.754666
  B       1.329730      0.767966     -0.754582
  B       0.000000      1.536177     -0.754370
  B      -1.329730      0.767964     -0.754583
  B      -1.329753     -0.768021     -0.754604
  B      -0.000000     -1.536201     -0.754398
  B       1.329751     -0.768022     -0.754605
12
Coordinates from ORCA-job input E -297.266100184191
  B       1.620926      0.000041      0.751779
  B       0.810069      1.404063      0.748161
  B      -0.810062      1.404068      0.748174
  B      -1.620941      0.000036      0.751776
  B      -0.809832     -1.404085      0.748169
  B       0.809832     -1.404079      0.748170
  B       1.549553      0.890739     -0.748256
  B      -0.000005      1.784628     -0.751638
  B      -1.549550      0.890760     -0.748245
  B      -1.549475     -0.890822     -0.748175
  B       0.000003     -1.784535     -0.751745
  B       1.549483     -0.890814     -0.748169
12
Coordinates from ORCA-job input E -297.272078356039
  B       1.504745     -0.000079      0.745580
  B       0.753829      1.304295      0.746215
  B      -0.753840      1.304285      0.746216
  B      -1.504738     -0.000067      0.745578
  B      -0.754124     -1.304230      0.746229
  B       0.754126     -1.304239      0.746223
  B       1.407748      0.814297     -0.746523
  B      -0.000006      1.628841     -0.744955
  B      -1.407741      0.814295     -0.746527
  B      -1.407849     -0.814272     -0.746581
  B      -0.000007     -1.628851     -0.744871
  B       1.407858     -0.814275     -0.746584
12
Coordinates from ORCA-job input E -297.263457935239
  B       1.714557      0.000074      0.723424
  B       0.858133      1.488484      0.726540
  B      -0.858121      1.488473      0.726534
  B      -1.714553      0.000057      0.723430
  B      -0.858129     -1.488567      0.726543
  B       0.858115     -1.488568      0.726550
  B       1.307150      0.760979     -0.726296
  B       0.000014      1.517824     -0.723966
  B      -1.307154      0.760956     -0.726294
  B      -1.307216     -0.760950     -0.726246
  B      -0.000000     -1.517810     -0.723977
  B       1.307204     -0.760953     -0.726242
12
Coordinates from ORCA-job input E -297.306449004877
  B       1.694706     -0.000060      0.738736
  B       0.847069      1.459540      0.721615
  B      -0.847095      1.459553      0.721650
  B      -1.694698     -0.000033      0.738717
  B      -0.847159     -1.459516      0.721658
  B       0.847179     -1.459529      0.721656
  B       1.458617      0.818437     -0.723617
  B      -0.000052      1.656039     -0.734794
  B      -1.458605      0.818513     -0.723608
  B      -1.458559     -0.818493     -0.723626
  B       0.000006     -1.655957     -0.734772
  B       1.458591     -0.818495     -0.723615
12
Coordinates from ORCA-job input E -297.303723878346
  B       1.585711      0.000358      0.700579
  B       0.800019      1.439590      0.742469
  B      -0.799873      1.439541      0.742419
  B      -1.585739      0.000197      0.700611
  B      -0.799152     -1.439900      0.742475
  B       0.799021     -1.439796      0.742475
  B       1.364108      0.877968     -0.740605
  B       0.000154      1.716121     -0.704415
  B      -1.364062      0.877727     -0.740621
  B      -1.364032     -0.877960     -0.740321
  B      -0.000056     -1.715996     -0.704725
  B       1.363902     -0.877852     -0.740340
12
Coordinates from ORCA-job input E -297.309180641062
  B       1.609213     -0.000002      0.728286
  B       0.815776      1.346417      0.733571
  B      -0.815880      1.346439      0.733619
  B      -1.609204      0.000127      0.728308
  B      -0.815991     -1.346459      0.733546
  B       0.816062     -1.346503      0.733594
  B       1.413780      0.797276     -0.738075
  B      -0.000104      1.601016     -0.719328
  B      -1.413787      0.797335     -0.738070
  B      -1.413991     -0.797113     -0.738101
  B       0.000092     -1.601222     -0.719256
  B       1.414034     -0.797310     -0.738095
12
Coordinates from ORCA-job input E -297.314467199680
  B       1.632002     -0.000252      0.760892
  B       0.798824      1.435123      0.714998
  B      -0.798733      1.435128      0.715057
  B      -1.632014     -0.000375      0.760856
  B      -0.799483     -1.434866      0.715060
  B       0.799400     -1.434823      0.715035
  B       1.429958      0.793647     -0.716024
  B      -0.000005      1.620461     -0.758813
  B      -1.429885      0.793679     -0.715998
  B      -1.430011     -0.793721     -0.716303
  B      -0.000074     -1.620415     -0.758483
  B       1.430022     -0.793586     -0.716277
12
Coordinates from ORCA-job input E -297.316581051625
  B       1.657519     -0.000069      0.718079
  B       0.830413      1.427180      0.735907
  B      -0.830434      1.427193      0.735907
  B      -1.657518     -0.000045      0.718083
  B      -0.830285     -1.427118      0.735939
  B       0.830296     -1.427127      0.735925
  B       1.412135      0.832902     -0.735040
  B      -0.000005      1.647936     -0.719820
  B      -1.412124      0.832899     -0.735054
  B      -1.412042     -0.832970     -0.735034
  B      -0.000009     -1.647797     -0.719843
  B       1.412054     -0.832984     -0.735048
12
Coordinates from ORCA-job input E -297.318212615007
  B       1.591658      0.000555      0.730795
  B       0.814850      1.416280      0.735561
  B      -0.814693      1.416136      0.735524
  B      -1.591672      0.000467      0.730831
  B      -0.814072     -1.416747      0.735520
  B       0.813960     -1.416591      0.735575
  B       1.403621      0.817507     -0.735709
  B       0.000128      1.637401     -0.730604
  B      -1.403566      0.817328     -0.735741
  B      -1.403893     -0.817420     -0.735369
  B       0.000019     -1.637581     -0.731003
  B       1.403659     -0.817334     -0.735380
12
Coordinates from ORCA-job input E -297.318661771158
  B       1.640930     -0.001518      0.735976
  B       0.808719      1.402148      0.734117
  B      -0.809135      1.402333      0.734236
  B      -1.640837     -0.001172      0.735923
  B      -0.810131     -1.400705      0.734281
  B       0.810421     -1.401078      0.734223
  B       1.420206      0.814080     -0.732939
  B      -0.000369      1.610424     -0.738061
  B      -1.420293      0.814526     -0.732931
  B      -1.419563     -0.814434     -0.733743
  B       0.000022     -1.609823     -0.737352
  B       1.420030     -0.814781     -0.733729
12
Coordinates from ORCA-job input E -297.317239813774
  B       1.641486      0.002599      0.742997
  B       0.829733      1.432004      0.729987
  B      -0.828170      1.431405      0.729881
  B      -1.641769      0.001162      0.743024
  B      -0.828859     -1.434092      0.729821
  B       0.827626     -1.432847      0.729857
  B       1.412096      0.806300     -0.732719
  B       0.001038      1.648026     -0.737670
  B      -1.411468      0.805037     -0.732705
  B      -1.414068     -0.805934     -0.732076
  B      -0.000473     -1.649261     -0.738328
  B       1.412829     -0.804399     -0.732070
12
Coordinates from ORCA-job input E -297.318806318534
  B       1.639140      0.000449      0.726222
  B       0.814541      1.402296      0.738741
  B      -0.818137      1.405781      0.738442
  B      -1.639042      0.003054      0.726348
  B      -0.811291     -1.404014      0.738599
  B       0.814811     -1.407582      0.738578
  B       1.399939      0.813995     -0.739071
  B      -0.001125      1.647928     -0.726175
  B      -1.403654      0.817237     -0.738878
  B      -1.400215     -0.813835     -0.737754
  B       0.001462     -1.647499     -0.727482
  B       1.403572     -0.817810     -0.737569
12
Coordinates from ORCA-job input E -297.318281760198
  B       1.623228      0.003595      0.737756
  B       0.819556      1.426146      0.732944
  B      -0.796731      1.406878      0.733614
  B      -1.623780     -0.016572      0.737334
  B      -0.831479     -1.419791      0.733351
  B       0.809012     -1.400029      0.733028
  B       1.426057      0.828988     -0.730338
  B       0.009627      1.618980     -0.740642
  B      -1.405846      0.807515     -0.730631
  B      -1.425279     -0.829638     -0.734896
  B      -0.010740     -1.620674     -0.736188
  B       1.406377     -0.805397     -0.735330
12
Coordinates from ORCA-job input E -297.316837448253
  B       1.605882     -0.021125      0.749790
  B       0.791900      1.407528      0.727659
  B      -0.836456      1.450432      0.725785
  B      -1.606222      0.015657      0.749612
  B      -0.796267     -1.405297      0.727834
  B       0.841087     -1.447354      0.725545
  B       1.411082      0.796010     -0.726750
  B      -0.018887      1.589424     -0.750753
  B      -1.453287      0.841392     -0.724562
  B      -1.411855     -0.797169     -0.728562
  B       0.018468     -1.588246     -0.749055
  B       1.454556     -0.841252     -0.726544
12
Coordinates from ORCA-job input E -297.317115854297
  B       1.617646      0.018383      0.740501
  B       0.830356      1.408278      0.733118
  B      -0.833027      1.417527      0.729363
  B      -1.616970      0.013057      0.742003
  B      -0.800535     -1.423815      0.731772
  B       0.802539     -1.434481      0.730491
  B       1.420442      0.817077     -0.738960
  B       0.003748      1.608084     -0.734757
  B      -1.431705      0.815891     -0.736208
  B      -1.419339     -0.814004     -0.726186
  B      -0.001166     -1.605609     -0.747651
  B       1.428010     -0.820387     -0.723484
12
Coordinates from ORCA-job input E -297.318415031581
  B       1.624556      0.002306      0.734717
  B       0.816099      1.420555      0.736416
  B      -0.803307      1.413713      0.734018
  B      -1.622527     -0.014842      0.734234
  B      -0.829220     -1.412922      0.736512
  B       0.815333     -1.408911      0.733172
  B       1.414303      0.819141     -0.734209
  B       0.007627      1.629632     -0.735743
  B      -1.408312      0.806594     -0.731805
  B      -1.415989     -0.819779     -0.739652
  B      -0.009607     -1.629682     -0.731035
  B       1.411044     -0.805806     -0.736626
12
Coordinates from ORCA-job input E -297.317069037462
  B       1.632039     -0.012153      0.731668
  B       0.820873      1.425155      0.734251
  B      -0.812158      1.394373      0.738236
  B      -1.637725      0.013442      0.731416
  B      -0.816381     -1.430906      0.734219
  B       0.812788     -1.390649      0.737941
  B       1.423930      0.814421     -0.734214
  B      -0.009847      1.640668     -0.731007
  B      -1.390465      0.811752     -0.738619
  B      -1.425379     -0.818693     -0.733679
  B       0.014129     -1.639321     -0.731229
  B       1.388196     -0.808090     -0.738983
12
Coordinates from ORCA-job input E -297.318774143316
  B       1.638510      0.000727      0.732385
  B       0.812800      1.403506      0.734906
  B      -0.823506      1.412377      0.735983
  B      -1.637770      0.007201      0.733402
  B      -0.808208     -1.406397      0.734806
  B       0.816230     -1.417914      0.735566
  B       1.404092      0.812452     -0.737053
  B      -0.005315      1.638420     -0.731618
  B      -1.412026      0.819076     -0.736335
  B      -1.401176     -0.807481     -0.733563
  B       0.002515     -1.639941     -0.734858
  B       1.413854     -0.822025     -0.733620
12
Coordinates from ORCA-job input E -297.317825185016
  B       1.615689      0.001633      0.738257
  B       0.825410      1.417800      0.736666
  B      -0.801891      1.419351      0.730086
  B      -1.625455     -0.014873      0.735830
  B      -0.819990     -1.423413      0.735454
  B       0.813258     -1.401745      0.731322
  B       1.418541      0.816717     -0.730330
  B       0.021679      1.621258     -0.739159
  B      -1.419268      0.814085     -0.732752
  B      -1.429704     -0.839106     -0.735032
  B      -0.003255     -1.611561     -0.735899
  B       1.404986     -0.800146     -0.734443
12
Coordinates from ORCA-job input E -297.318145641743
  B       1.628676      0.005947      0.735921
  B       0.816707      1.432598      0.732804
  B      -0.803666      1.398379      0.735634
  B      -1.614139     -0.009373      0.736347
  B      -0.834756     -1.418539      0.733227
  B       0.805317     -1.409168      0.734537
  B       1.428078      0.830763     -0.734280
  B      -0.003750      1.617655     -0.737645
  B      -1.400526      0.802572     -0.730510
  B      -1.425229     -0.817421     -0.737238
  B      -0.012529     -1.618500     -0.734803
  B       1.415817     -0.814912     -0.733994
12
Coordinates from ORCA-job input E -297.318291196860
  B       1.632059     -0.005518      0.733504
  B       0.808139      1.397441      0.733731
  B      -0.831092      1.420955      0.736467
  B      -1.638706      0.017752      0.734172
  B      -0.798753     -1.408461      0.733412
  B       0.823899     -1.422567      0.736590
  B       1.400400      0.802075     -0.737775
  B      -0.011732      1.634924     -0.730932
  B      -1.419106      0.826928     -0.737396
  B      -1.400295     -0.800242     -0.730743
  B       0.013237     -1.635938     -0.736616
  B       1.421949     -0.827349     -0.734414
12
Coordinates from ORCA-job input E -297.318784290380
  B       1.635615     -0.004905      0.733432
  B       0.817207      1.410571      0.738591
  B      -0.818867      1.410169      0.732302
  B      -1.633609     -0.002369      0.732488
  B      -0.811408     -1.406634      0.738085
  B       0.813756     -1.409324      0.733697
  B       1.416244      0.817340     -0.733568
  B       0.005160      1.640590     -0.732508
  B      -1.411192      0.809330     -0.738336
  B      -1.405661     -0.818450     -0.733839
  B      -0.003194     -1.638075     -0.732379
  B       1.395949     -0.808241     -0.737965
12
Coordinates from ORCA-job input E -297.316403719713
  B       1.624108      0.029542      0.734660
  B       0.820014      1.414933      0.730135
  B      -0.777929      1.395373      0.742462
  B      -1.631938     -0.008216      0.733205
  B      -0.844948     -1.429668      0.727722
  B       0.813336     -1.396550      0.739693
  B       1.398996      0.822473     -0.740127
  B       0.007089      1.608718     -0.736087
  B      -1.395400      0.825203     -0.724649
  B      -1.435655     -0.820093     -0.745329
  B       0.001302     -1.641063     -0.733134
  B       1.421024     -0.800652     -0.728550
12
Coordinates from ORCA-job input E -297.318843931060
  B       1.625438      0.000006      0.735546
  B       0.819326      1.418273      0.730388
  B      -0.812977      1.412927      0.737601
  B      -1.628048     -0.004097      0.736250
  B      -0.818397     -1.417940      0.731016
  B       0.811431     -1.408886      0.736346
  B       1.409041      0.810579     -0.736374
  B      -0.004265      1.628641     -0.736303
  B      -1.415518      0.818220     -0.730073
  B      -1.412627     -0.815053     -0.736368
  B       0.001588     -1.617525     -0.736343
  B       1.425007     -0.825145     -0.731687
12
Coordinates from ORCA-job input E -297.318432729269
  B       1.640599     -0.008496      0.732821
  B       0.800719      1.400369      0.747213
  B      -0.826305      1.411287      0.724388
  B      -1.630033      0.016119      0.732401
  B      -0.805180     -1.398945      0.744631
  B       0.827719     -1.422540      0.727531
  B       1.411458      0.824464     -0.726419
  B       0.011444      1.634632     -0.730833
  B      -1.404885      0.804760     -0.748647
  B      -1.417462     -0.818458     -0.725976
  B      -0.006154     -1.640049     -0.732854
  B       1.398079     -0.803144     -0.744256
12
Coordinates from ORCA-job input E -297.318536418991
  B       1.637697      0.004896      0.732016
  B       0.817637      1.402756      0.734833
  B      -0.815974      1.409111      0.738551
  B      -1.638461     -0.004823      0.730405
  B      -0.812164     -1.399776      0.735286
  B       0.814288     -1.414267      0.738798
  B       1.419924      0.814899     -0.739238
  B      -0.005165      1.635530     -0.730163
  B      -1.409799      0.817708     -0.735745
  B      -1.401002     -0.809109     -0.739770
  B       0.005198     -1.651341     -0.730298
  B       1.387821     -0.805585     -0.734675
12
Coordinates from ORCA-job input E -297.318654530830
  B       1.621405     -0.000575      0.733930
  B       0.820894      1.416661      0.730900
  B      -0.810541      1.412757      0.739364
  B      -1.637323     -0.003296      0.735123
  B      -0.817853     -1.420956      0.734080
  B       0.810931     -1.401372      0.733935
  B       1.416324      0.818522     -0.735742
  B      -0.002474      1.623440     -0.736691
  B      -1.413314      0.820360     -0.727966
  B      -1.401653     -0.814977     -0.736921
  B      -0.006384     -1.632561     -0.734385
  B       1.419986     -0.818004     -0.735628
12
Coordinates from ORCA-job input E -297.318421430695
  B       1.640102      0.001084      0.735342
  B       0.814671      1.417968      0.733651
  B      -0.811652      1.409726      0.733784
  B      -1.615962     -0.003316      0.736385
  B      -0.824586     -1.420811      0.727104
  B       0.809522     -1.407400      0.741000
  B       1.391199      0.807682     -0.735373
  B       0.005529      1.637420     -0.736941
  B      -1.419225      0.814738     -0.731859
  B      -1.425031     -0.815407     -0.738139
  B       0.011336     -1.610409     -0.736353
  B       1.424095     -0.831277     -0.728601
12
Coordinates from ORCA-job input E -297.318684077179
  B       1.635822     -0.002201      0.736529
  B       0.807581      1.404934      0.739745
  B      -0.821345      1.412619      0.730203
  B      -1.628220      0.006014      0.731870
  B      -0.808556     -1.399612      0.740924
  B       0.822862     -1.424664      0.729782
  B       1.411013      0.809511     -0.731066
  B      -0.000958      1.639399     -0.732146
  B      -1.399872      0.811421     -0.743748
  B      -1.423491     -0.826434     -0.729368
  B      -0.004835     -1.623922     -0.735065
  B       1.410000     -0.807064     -0.737661
12
Coordinates from ORCA-job input E -297.318519178452
  B       1.624925     -0.000562      0.728059
  B       0.817295      1.403276      0.737311
  B      -0.816019      1.415564      0.737051
  B      -1.644900     -0.001791      0.735526
  B      -0.813471     -1.411479      0.736979
  B       0.813617     -1.400827      0.734646
  B       1.419833      0.826240     -0.739260
  B       0.000934      1.629769     -0.729549
  B      -1.404372      0.806848     -0.735067
  B      -1.399139     -0.803520     -0.734202
  B      -0.002091     -1.649453     -0.732499
  B       1.403389     -0.814065     -0.738995
12
Coordinates from ORCA-job input E -297.318770587103
  B       1.630191      0.003674      0.735142
  B       0.824446      1.423344      0.728934
  B      -0.806692      1.399087      0.740988
  B      -1.631234     -0.003245      0.732589
  B      -0.821408     -1.419024      0.729713
  B       0.807794     -1.404851      0.740414
  B       1.407980      0.810726     -0.739390
  B      -0.003035      1.625012     -0.735159
  B      -1.427534      0.829198     -0.728450
  B      -1.394911     -0.807551     -0.741770
  B       0.002297     -1.639243     -0.733872
  B       1.412106     -0.817126     -0.729138
12
Coordinates from ORCA-job input E -297.318838984695
  B       1.630285     -0.002189      0.736334
  B       0.810094      1.409155      0.736921
  B      -0.818570      1.418648      0.731054
  B      -1.625699      0.001490      0.735185
  B      -0.812437     -1.408269      0.736324
  B       0.819434     -1.420194      0.731688
  B       1.415070      0.818583     -0.728467
  B       0.002066      1.627467     -0.738509
  B      -1.410403      0.814234     -0.735297
  B      -1.422466     -0.821917     -0.732590
  B       0.000795     -1.620253     -0.735087
  B       1.411831     -0.816756     -0.737556
12
Coordinates from ORCA-job input E -297.318889821760
  B       1.638020     -0.000377      0.731980
  B       0.813200      1.405321      0.738021
  B      -0.816069      1.409115      0.735126
  B      -1.635210      0.000766      0.732665
  B      -0.815763     -1.408212      0.737462
  B       0.814631     -1.406498      0.735080
  B       1.403790      0.810874     -0.736433
  B       0.000053      1.642701     -0.730553
  B      -1.401304      0.809077     -0.738546
  B      -1.412373     -0.814708     -0.735174
  B      -0.001061     -1.633189     -0.732237
  B       1.412087     -0.814869     -0.737390
12
Coordinates from ORCA-job input E -297.318934887194
  B       1.628423      0.000246      0.733982
  B       0.817255      1.412708      0.734236
  B      -0.814608      1.410195      0.736292
  B      -1.632281      0.000248      0.734077
  B      -0.814573     -1.411672      0.734066
  B       0.814609     -1.411529      0.735862
  B       1.416520      0.818319     -0.736223
  B       0.000032      1.624502     -0.733732
  B      -1.416415      0.818738     -0.734193
  B      -1.405414     -0.811842     -0.735787
  B      -0.000266     -1.637167     -0.734518
  B       1.406719     -0.812745     -0.734061
12
Coordinates from ORCA-job input E -297.318947882086
  B       1.630404      0.000055      0.734787
  B       0.815756      1.412192      0.734077
  B      -0.813774      1.411220      0.735551
  B      -1.630522     -0.001052      0.734486
  B      -0.816568     -1.412589      0.734117
  B       0.814466     -1.410578      0.735423
  B       1.408326      0.813120     -0.735339
  B      -0.000171      1.633959     -0.734829
  B      -1.409493      0.814941     -0.734024
  B      -1.413704     -0.817062     -0.735391
  B       0.000164     -1.626124     -0.734965
  B       1.415116     -0.818082     -0.733892
12
Coordinates from ORCA-job input E -297.318954629212
  B       1.633081     -0.000612      0.733917
  B       0.814227      1.409705      0.736542
  B      -0.816257      1.411631      0.734430
  B      -1.630965      0.000700      0.733672
  B      -0.814751     -1.409819      0.735917
  B       0.815217     -1.411303      0.734389
  B       1.411077      0.815321     -0.733968
  B       0.000469      1.631287     -0.733747
  B      -1.410393      0.814941     -0.736144
  B      -1.411442     -0.814945     -0.734901
  B      -0.000139     -1.632527     -0.733674
  B       1.409876     -0.814378     -0.736434
12
Coordinates from ORCA-job input E -297.318956013015
  B       1.630652      0.000048      0.733985
  B       0.815240      1.410689      0.734956
  B      -0.814394      1.410006      0.735332
  B      -1.632511      0.000398      0.733920
  B      -0.815255     -1.410775      0.735138
  B       0.815675     -1.411791      0.735433
  B       1.411799      0.815431     -0.735489
  B       0.000216      1.631778     -0.733918
  B      -1.411281      0.815222     -0.735162
  B      -1.410061     -0.814449     -0.735333
  B      -0.000149     -1.631592     -0.733900
  B       1.410067     -0.814965     -0.734960
12
Coordinates from ORCA-job input E -297.318955304648
  B       1.631007     -0.000218      0.734262
  B       0.816161      1.411780      0.734679
  B      -0.814999      1.411367      0.735913
  B      -1.631185     -0.000598      0.734131
  B      -0.815391     -1.411359      0.734162
  B       0.814065     -1.410045      0.735452
  B       1.410352      0.814635     -0.735659
  B      -0.000040      1.631068     -0.733805
  B      -1.410550      0.815589     -0.734454
  B      -1.411362     -0.815251     -0.735665
  B      -0.000122     -1.631249     -0.734709
  B       1.412063     -0.815719     -0.734307
12
Coordinates from ORCA-job input E -297.318957499615
  B       1.631903     -0.000200      0.734090
  B       0.814927      1.410436      0.735510
  B      -0.815285      1.411373      0.734965
  B      -1.630945      0.000134      0.733978
  B      -0.815534     -1.411265      0.735213
  B       0.814804     -1.410778      0.734929
  B       1.411068      0.815023     -0.734767
  B       0.000158      1.631463     -0.734001
  B      -1.410873      0.815397     -0.735330
  B      -1.411017     -0.815058     -0.735105
  B      -0.000126     -1.631307     -0.734089
  B       1.410921     -0.815219     -0.735392
12
Coordinates from ORCA-job input E -297.318957367448
  B       1.630731     -0.000248      0.734125
  B       0.815546      1.411417      0.735266
  B      -0.814702      1.410203      0.735280
  B      -1.632376      0.000185      0.733858
  B      -0.814789     -1.409979      0.735106
  B       0.815494     -1.411857      0.735095
  B       1.410898      0.815122     -0.735066
  B       0.000313      1.631657     -0.733881
  B      -1.410712      0.815086     -0.735214
  B      -1.411127     -0.814897     -0.735328
  B      -0.000039     -1.631457     -0.734063
  B       1.410763     -0.815233     -0.735179
