12
Optimized coordinates extracted from calculations/B12/bilayer_3d/d_2.5/mult_1/output.out
B        1.63073131      -0.00024813       0.73412541
B        0.81554576       1.41141662       0.73526633
B       -0.81470179       1.41020319       0.73528028
B       -1.63237615       0.00018518       0.73385774
B       -0.81478919      -1.40997868       0.73510642
B        0.81549408      -1.41185677       0.73509482
B        1.41089840       0.81512205      -0.73506570
B        0.00031308       1.63165721      -0.73388090
B       -1.41071245       0.81508650      -0.73521428
B       -1.41112733      -0.81489694      -0.73532821
B       -0.00003881      -1.63145746      -0.73406323
B        1.41076309      -0.81523277      -0.73517867
