12
Coordinates from ORCA-job input
  B           2.02993395080762      0.15758009607114      0.66330413053126
  B           1.10753889923930      1.61369901020838      0.67010136851680
  B          -1.01389880410455      1.75446956564035      0.66614456226564
  B          -2.19832605749169      0.07320502013894      0.65159222014304
  B          -1.08136688075213     -1.89640506532325      0.61171950863286
  B           1.10384743820992     -1.76558161627274      0.67927174566040
  B           1.37657731193146      0.78942257339237     -0.73338895404381
  B           0.01104330261945      1.54371560788397     -0.66801020231299
  B          -1.36106149516438      0.80664970495944     -0.63980940408824
  B          -1.36735199300847     -0.75343928192443     -0.63375678557118
  B           0.00590232254836     -1.56658808020628     -0.61903362496783
  B           1.38716200516511     -0.75672753456790     -0.64813456476595
