12
Coordinates from ORCA-job input E -295.756107362871
  B       3.000000     -0.000000      0.930000
  B       1.500000      2.598076      0.930000
  B      -1.500000      2.598076      0.930000
  B      -3.000000      0.000000      0.930000
  B      -1.500000     -2.598076      0.930000
  B       1.500000     -2.598076      0.930000
  B       2.442192      1.410000     -0.930000
  B       0.000000      2.820000     -0.930000
  B      -2.442192      1.410000     -0.930000
  B      -2.442192     -1.410000     -0.930000
  B      -0.000000     -2.820000     -0.930000
  B       2.442192     -1.410000     -0.930000
12
Coordinates from ORCA-job input E -295.795648784059
  B       2.981134      0.000023      0.910166
  B       1.490432      2.581343      0.911627
  B      -1.490486      2.581571      0.910581
  B      -2.981328      0.000521      0.910269
  B      -1.490546     -2.581684      0.910786
  B       1.491030     -2.581838      0.910687
  B       2.417961      1.396342     -0.910835
  B       0.000094      2.791485     -0.910304
  B      -2.417504      1.395672     -0.911483
  B      -2.418202     -1.396064     -0.910289
  B      -0.000004     -2.791742     -0.909992
  B       2.417418     -1.395630     -0.911214
12
Coordinates from ORCA-job input E -295.836276870325
  B       2.961920      0.000049      0.890444
  B       1.480706      2.564336      0.893410
  B      -1.480798      2.564792      0.891295
  B      -2.962324      0.001054      0.890647
  B      -1.480927     -2.565009      0.891690
  B       1.481904     -2.565339      0.891504
  B       2.393531      1.382568     -0.891819
  B       0.000175      2.762730     -0.890725
  B      -2.392624      1.381222     -0.893101
  B      -2.394012     -1.382009     -0.890702
  B       0.000007     -2.763242     -0.890088
  B       2.392443     -1.381153     -0.892554
12
Coordinates from ORCA-job input E -295.898809199085
  B       2.931559      0.000087      0.861474
  B       1.465375      2.537564      0.866655
  B      -1.465509      2.538364      0.862987
  B      -2.932283      0.001830      0.861825
  B      -1.465759     -2.538709      0.863654
  B       1.467434     -2.539315      0.863341
  B       2.355959      1.361344     -0.863922
  B       0.000260      2.718571     -0.861977
  B      -2.354411      1.359023     -0.866071
  B      -2.356768     -1.360390     -0.861970
  B       0.000048     -2.719421     -0.860868
  B       2.354093     -1.358947     -0.865126
12
Coordinates from ORCA-job input E -295.995200128233
  B       2.882587      0.000139      0.819534
  B       1.440735      2.494595      0.827912
  B      -1.440889      2.495910      0.822058
  B      -2.883798      0.002937      0.820104
  B      -1.441376     -2.496400      0.823110
  B       1.443984     -2.497437      0.822610
  B       2.297364      1.328145     -0.823611
  B       0.000306      2.649870     -0.820394
  B      -2.294941      1.324463     -0.826858
  B      -2.298574     -1.326661     -0.820479
  B       0.000172     -2.651110     -0.818621
  B       2.294430     -1.324452     -0.825366
12
Coordinates from ORCA-job input E -296.099972423846
  B       2.829161      0.000182      0.777372
  B       1.413988      2.447979      0.789149
  B      -1.414090      2.449807      0.781056
  B      -2.830927      0.004058      0.778176
  B      -1.414896     -2.450394      0.782445
  B       1.418390     -2.451967      0.781808
  B       2.234482      1.292437     -0.783320
  B       0.000239      2.576269     -0.778674
  B      -2.231217      1.287396     -0.787471
  B      -2.235995     -1.290451     -0.778927
  B       0.000382     -2.577761     -0.776187
  B       2.230483     -1.287555     -0.785427
12
Coordinates from ORCA-job input E -296.208315606336
  B       2.773283      0.000214      0.736330
  B       1.386161      2.399499      0.751633
  B      -1.386133      2.401798      0.741286
  B      -2.775676      0.005172      0.737407
  B      -1.387319     -2.402435      0.742995
  B       1.391658     -2.404636      0.742271
  B       2.170129      1.255803     -0.744319
  B       0.000051      2.501057     -0.738179
  B      -2.166083      1.249480     -0.749172
  B      -2.171857     -1.253374     -0.738668
  B       0.000684     -2.502679     -0.734984
  B       2.165103     -1.249900     -0.746600
12
Coordinates from ORCA-job input E -296.312995033266
  B       2.714375      0.000253      0.697047
  B       1.357026      2.348670      0.715838
  B      -1.356804      2.351435      0.703431
  B      -2.717519      0.006270      0.698530
  B      -1.358521     -2.352177      0.705569
  B       1.363569     -2.355008      0.704742
  B       2.103035      1.217554     -0.707248
  B      -0.000223      2.422897     -0.699568
  B      -2.098310      1.210097     -0.712488
  B      -2.104896     -1.214720     -0.700572
  B       0.001147     -2.424466     -0.695828
  B       2.097121     -1.210803     -0.709453
12
Coordinates from ORCA-job input E -296.414339146091
  B       2.656021      0.000206      0.658765
  B       1.328715      2.299044      0.681979
  B      -1.328159      2.302142      0.667388
  B      -2.660171      0.007325      0.660961
  B      -1.330733     -2.303221      0.670037
  B       1.336188     -2.306823      0.669173
  B       2.031018      1.176676     -0.672343
  B      -0.000626      2.339476     -0.662400
  B      -2.025584      1.167993     -0.677309
  B      -2.032643     -1.173354     -0.664543
  B       0.001848     -2.340350     -0.658000
  B       2.024125     -1.169113     -0.673708
12
Coordinates from ORCA-job input E -296.509074837916
  B       2.596308      0.000189      0.621549
  B       1.300226      2.248822      0.649617
  B      -1.299317      2.252090      0.632866
  B      -2.601782      0.008386      0.624834
  B      -1.302914     -2.253855      0.636279
  B       1.308685     -2.258192      0.635399
  B       1.956329      1.134400     -0.639051
  B      -0.001002      2.253480     -0.626758
  B      -1.950246      1.124692     -0.643307
  B      -1.957615     -1.130520     -0.630417
  B       0.002747     -2.253328     -0.621818
  B       1.948582     -1.126165     -0.639192
12
Coordinates from ORCA-job input E -296.589294319329
  B       2.535746      0.000340      0.587270
  B       1.271967      2.198518      0.620202
  B      -1.270652      2.201848      0.601803
  B      -2.543037      0.009240      0.592215
  B      -1.275664     -2.204993      0.606172
  B       1.281394     -2.209862      0.605447
  B       1.875852      1.089511     -0.609301
  B      -0.000951      2.161996     -0.594443
  B      -1.869371      1.078879     -0.612220
  B      -1.876685     -1.084750     -0.600361
  B       0.003795     -2.160191     -0.589153
  B       1.867605     -1.080535     -0.607631
12
Coordinates from ORCA-job input E -296.655278080772
  B       2.479124      0.000712      0.556667
  B       1.246469      2.152602      0.594830
  B      -1.244723      2.155656      0.575145
  B      -2.488666      0.009635      0.563883
  B      -1.251289     -2.160874      0.580102
  B       1.256664     -2.166403      0.580328
  B       1.789143      1.042348     -0.584346
  B      -0.000352      2.065284     -0.566321
  B      -1.782641      1.030634     -0.584915
  B      -1.788986     -1.036144     -0.575173
  B       0.004729     -2.060650     -0.560376
  B       1.780526     -1.032799     -0.579826
12
Coordinates from ORCA-job input E -296.708724177937
  B       2.431773      0.001667      0.531297
  B       1.226396      2.115821      0.575036
  B      -1.223611      2.118272      0.554613
  B      -2.443651      0.009065      0.541014
  B      -1.232062     -2.125715      0.558997
  B       1.236417     -2.132474      0.561379
  B       1.698193      0.994339     -0.565752
  B       0.000870      1.966036     -0.543868
  B      -1.692426      0.980833     -0.562952
  B      -1.696478     -0.986013     -0.556029
  B       0.005266     -1.957407     -0.536502
  B       1.689312     -0.984424     -0.557233
12
Coordinates from ORCA-job input E -296.751240620702
  B       2.401895      0.003732      0.508468
  B       1.216212      2.095642      0.560809
  B      -1.210919      2.096538      0.538546
  B      -2.416524      0.007446      0.521404
  B      -1.221586     -2.106016      0.541044
  B       1.224523     -2.115217      0.547424
  B       1.609292      0.947990     -0.551905
  B       0.002690      1.870564     -0.525566
  B      -1.604947      0.931925     -0.545289
  B      -1.605744     -0.937279     -0.540710
  B       0.004909     -1.857572     -0.515566
  B       1.600200     -0.937751     -0.538659
12
Coordinates from ORCA-job input E -296.815211260209
  B       2.391691      0.007975      0.480509
  B       1.218083      2.098134      0.551763
  B      -1.206622      2.095439      0.522834
  B      -2.413180      0.004927      0.499998
  B      -1.220787     -2.107469      0.524609
  B       1.222824     -2.120600      0.536272
  B       1.528686      0.905600     -0.538695
  B       0.005136      1.785648     -0.507146
  B      -1.526158      0.887148     -0.529236
  B      -1.525168     -0.891782     -0.525802
  B       0.005469     -1.770027     -0.494109
  B       1.520027     -0.894993     -0.520999
12
Coordinates from ORCA-job input E -296.841530982246
  B       2.359875      0.015838      0.475754
  B       1.204564      2.065429      0.548055
  B      -1.188296      2.061501      0.518230
  B      -2.387228      0.005997      0.499684
  B      -1.210081     -2.080985      0.517063
  B       1.210591     -2.095809      0.535592
  B       1.439629      0.861770     -0.537587
  B       0.008491      1.688239     -0.504656
  B      -1.439857      0.842608     -0.523986
  B      -1.439120     -0.843029     -0.523556
  B       0.004863     -1.674108     -0.489453
  B       1.436569     -0.847451     -0.515141
12
Coordinates from ORCA-job input E -296.856128640794
  B       2.318333      0.047897      0.487032
  B       1.209514      1.991073      0.551818
  B      -1.162678      2.044412      0.533795
  B      -2.408143      0.022606      0.512837
  B      -1.200118     -2.090393      0.521952
  B       1.220694     -2.054925      0.551345
  B       1.416497      0.825760     -0.549541
  B       0.022365      1.639005     -0.520831
  B      -1.421262      0.828069     -0.532050
  B      -1.429822     -0.818267     -0.532424
  B       0.010464     -1.637881     -0.501440
  B       1.424155     -0.797357     -0.522493
12
Coordinates from ORCA-job input E -296.868466265339
  B       2.273697      0.079955      0.509475
  B       1.207341      1.912724      0.560494
  B      -1.134259      2.020435      0.555368
  B      -2.417459      0.038814      0.531675
  B      -1.184463     -2.090372      0.529149
  B       1.222467     -2.010383      0.572881
  B       1.390902      0.796914     -0.571154
  B       0.033494      1.593929     -0.543166
  B      -1.399421      0.817318     -0.544166
  B      -1.415661     -0.796981     -0.544665
  B       0.014962     -1.605576     -0.518319
  B       1.408400     -0.756777     -0.537571
12
Coordinates from ORCA-job input E -296.885737014372
  B       2.243543      0.107468      0.558206
  B       1.193880      1.848018      0.582612
  B      -1.107653      1.973177      0.577079
  B      -2.394377      0.049843      0.562320
  B      -1.163032     -2.060114      0.540690
  B       1.202308     -1.964778      0.594829
  B       1.380300      0.796004     -0.607732
  B       0.031761      1.574184     -0.576005
  B      -1.389533      0.813170     -0.562569
  B      -1.409122     -0.787194     -0.560037
  B       0.012073     -1.595506     -0.544110
  B       1.399851     -0.754272     -0.565282
12
Coordinates from ORCA-job input E -296.926196233437
  B       2.177927      0.159357      0.611843
  B       1.188130      1.746066      0.616696
  B      -1.064537      1.891072      0.613936
  B      -2.351002      0.052890      0.599846
  B      -1.146881     -2.013488      0.570889
  B       1.161400     -1.877639      0.618864
  B       1.392106      0.786550     -0.654271
  B       0.045785      1.543170     -0.619929
  B      -1.388118      0.781328     -0.593172
  B      -1.409738     -0.771525     -0.585423
  B      -0.005546     -1.572162     -0.578888
  B       1.400474     -0.725618     -0.600390
12
Coordinates from ORCA-job input E -296.989127842114
  B       2.096719      0.169110      0.647060
  B       1.149221      1.653397      0.651404
  B      -1.030557      1.798624      0.646134
  B      -2.275894      0.065447      0.634779
  B      -1.131269     -1.944852      0.594458
  B       1.147209     -1.800194      0.660492
  B       1.389665      0.781148     -0.710595
  B       0.018205      1.534250     -0.650368
  B      -1.374823      0.794569     -0.621065
  B      -1.394293     -0.752344     -0.617970
  B       0.000915     -1.563058     -0.605331
  B       1.404902     -0.736097     -0.628999
