12
Optimized coordinates extracted from calculations/B12/bilayer_3d/d_3.0/mult_1/output.out
B        2.02993395       0.15758010       0.66330413
B        1.10753890       1.61369901       0.67010137
B       -1.01389880       1.75446957       0.66614456
B       -2.19832606       0.07320502       0.65159222
B       -1.08136688      -1.89640507       0.61171951
B        1.10384744      -1.76558162       0.67927175
B        1.37657731       0.78942257      -0.73338895
B        0.01104330       1.54371561      -0.66801020
B       -1.36106150       0.80664970      -0.63980940
B       -1.36735199      -0.75343928      -0.63375679
B        0.00590232      -1.56658808      -0.61903362
B        1.38716201      -0.75672753      -0.64813456
