12
Coordinates from ORCA-job input E -294.906497724435
  B       5.000000     -0.000000      1.550000
  B       2.500000      4.330127      1.550000
  B      -2.500000      4.330127      1.550000
  B      -5.000000      0.000000      1.550000
  B      -2.500000     -4.330127      1.550000
  B       2.500000     -4.330127      1.550000
  B       4.070319      2.350000     -1.550000
  B       0.000000      4.700000     -1.550000
  B      -4.070319      2.350000     -1.550000
  B      -4.070319     -2.350000     -1.550000
  B      -0.000000     -4.700000     -1.550000
  B       4.070319     -2.350000     -1.550000
12
Coordinates from ORCA-job input E -294.915767308759
  B       4.986303      0.012847      1.528356
  B       2.482150      4.325099      1.530103
  B      -2.504223      4.312642      1.528986
  B      -4.986130     -0.012244      1.528397
  B      -2.482532     -4.325140      1.529585
  B       2.505418     -4.312680      1.528630
  B       4.061497      2.330234     -1.528808
  B       0.013470      4.683185     -1.528645
  B      -4.047748      2.353031     -1.529480
  B      -4.060759     -2.329420     -1.529811
  B      -0.014124     -4.684905     -1.527534
  B       4.046677     -2.352648     -1.529780
12
Coordinates from ORCA-job input E -294.925356017227
  B       4.972677      0.026238      1.506791
  B       2.463893      4.320417      1.510362
  B      -2.508890      4.294966      1.508065
  B      -4.972263     -0.024984      1.506858
  B      -2.464659     -4.320534      1.509297
  B       2.511368     -4.295010      1.507299
  B       4.053482      2.310328     -1.507673
  B       0.027482      4.667029     -1.507387
  B      -4.025423      2.356845     -1.509085
  B      -4.052007     -2.308690     -1.509777
  B      -0.028873     -4.670526     -1.505077
  B       4.023214     -2.356081     -1.509673
12
Coordinates from ORCA-job input E -294.940378048384
  B       4.951471      0.046882      1.474850
  B       2.435624      4.312897      1.481161
  B      -2.515883      4.267398      1.477062
  B      -4.950611     -0.044614      1.474934
  B      -2.436972     -4.313204      1.479278
  B       2.520338     -4.267371      1.475618
  B       4.041949      2.280037     -1.476301
  B       0.049058      4.642953     -1.475907
  B      -3.991848      2.363135     -1.478903
  B      -4.039429     -2.277222     -1.480162
  B      -0.051640     -4.649045     -1.471716
  B       3.987943     -2.361846     -1.479914
12
Coordinates from ORCA-job input E -294.964496004897
  B       4.918421      0.078912      1.427646
  B       2.391679      4.300827      1.438117
  B      -2.526416      4.224194      1.431252
  B      -4.916716     -0.075036      1.427737
  B      -2.393918     -4.301607      1.434987
  B       2.533939     -4.223886      1.428619
  B       4.025780      2.233908     -1.429833
  B       0.082468      4.607328     -1.429418
  B      -3.941507      2.373733     -1.434385
  B      -4.021783     -2.229431     -1.436544
  B      -0.087022     -4.617185     -1.422197
  B       3.935075     -2.371758     -1.435981
12
Coordinates from ORCA-job input E -294.991818855378
  B       4.885633      0.113982      1.378610
  B       2.345426      4.290403      1.393818
  B      -2.539243      4.179647      1.383853
  B      -4.882714     -0.108208      1.378739
  B      -2.348669     -4.291946      1.389205
  B       2.550269     -4.178826      1.379580
  B       4.012816      2.186264     -1.381560
  B       0.118904      4.573773     -1.381281
  B      -3.891204      2.387905     -1.388452
  B      -4.007269     -2.180041     -1.391675
  B      -0.125874     -4.587708     -1.370343
  B       3.881926     -2.385246     -1.390495
12
Coordinates from ORCA-job input E -295.021774441973
  B       4.854930      0.150472      1.329153
  B       2.299201      4.282344      1.349598
  B      -2.553851      4.136034      1.336310
  B      -4.850443     -0.142586      1.329408
  B      -2.303581     -4.284986      1.343284
  B       2.568621     -4.134450      1.329874
  B       4.003769      2.139437     -1.332971
  B       0.156684      4.543971     -1.332923
  B      -3.843330      2.405027     -1.342486
  B      -3.996620     -2.131444     -1.346923
  B      -0.166409     -4.562121     -1.317576
  B       3.831030     -2.401698     -1.344748
12
Coordinates from ORCA-job input E -295.054619240477
  B       4.826409      0.187779      1.278984
  B       2.253580      4.276415      1.305243
  B      -2.569786      4.093688      1.288422
  B      -4.820030     -0.177620      1.279504
  B      -2.259273     -4.280544      1.297015
  B       2.588383     -4.091073      1.279218
  B       3.998270      2.093927     -1.283895
  B       0.195218      4.517810     -1.284103
  B      -3.798076      2.424492     -1.296264
  B      -3.989425     -2.084156     -1.302054
  B      -0.207945     -4.540225     -1.263591
  B       3.782674     -2.420492     -1.298477
12
Coordinates from ORCA-job input E -295.090558609947
  B       4.799951      0.225344      1.227849
  B       2.209021      4.272249      1.260551
  B      -2.586527      4.052774      1.240022
  B      -4.791409     -0.212808      1.228808
  B      -2.216232     -4.278302      1.250227
  B       2.608839     -4.048850      1.227393
  B       3.995846      2.050098     -1.234195
  B       0.233946      4.495015     -1.234603
  B      -3.755500      2.445644     -1.249582
  B      -3.985155     -2.038563     -1.256850
  B      -0.249801     -4.521647     -1.208163
  B       3.737020     -2.440954     -1.251458
12
Coordinates from ORCA-job input E -295.129630714529
  B       4.775215      0.262650      1.175643
  B       2.165788      4.269336      1.215332
  B      -2.603531      4.013243      1.190973
  B      -4.764313     -0.247705      1.177200
  B      -2.174752     -4.277788      1.202827
  B       2.629230     -4.007750      1.174284
  B       3.995902      2.008154     -1.183836
  B       0.272388      4.475118     -1.184262
  B      -3.715462      2.467814     -1.202253
  B      -3.983148     -1.994874     -1.211153
  B      -0.291348     -4.505824     -1.151213
  B       3.694029     -2.462374     -1.203544
12
Coordinates from ORCA-job input E -295.171741172352
  B       4.751675      0.299242      1.122336
  B       2.123974      4.267054      1.169477
  B      -2.620264      3.974888      1.141190
  B      -4.738302     -0.281919      1.124614
  B      -2.134913     -4.278393      1.154815
  B       2.648824     -3.967591      1.119881
  B       3.997737      1.968139     -1.132821
  B       0.310139      4.457518     -1.132972
  B      -3.677657      2.490335     -1.154181
  B      -3.982642     -1.953153     -1.164850
  B      -0.332050     -4.492066     -1.092787
  B       3.653480     -2.484054     -1.154701
12
Coordinates from ORCA-job input E -295.216693287527
  B       4.728676      0.334781      1.067997
  B       2.083528      4.264744      1.122962
  B      -2.636222      3.937380      1.090671
  B      -4.712804     -0.315156      1.071067
  B      -2.096593     -4.279441      1.106274
  B       2.666975     -3.928062      1.064305
  B       4.000595      1.929902     -1.081208
  B       0.346881      4.441513     -1.080719
  B      -3.641667      2.512602     -1.105373
  B      -3.982854     -1.913302     -1.117906
  B      -0.371501     -4.479591     -1.033065
  B       3.614985     -2.505369     -1.105005
12
Coordinates from ORCA-job input E -295.264057646113
  B       4.705448      0.369023      1.012854
  B       2.044226      4.261713      1.075793
  B      -2.650946      3.900244      1.039460
  B      -4.687132     -0.347234      1.016660
  B      -2.059527     -4.280202      1.057395
  B       2.683119     -3.888764      1.007818
  B       4.003665      1.893146     -1.029147
  B       0.382412      4.426291     -1.027555
  B      -3.606932      2.534071     -1.055883
  B      -3.982965     -1.875041     -1.070330
  B      -0.409392     -4.467513     -0.972406
  B       3.578024     -2.525734     -1.054658
12
Coordinates from ORCA-job input E -295.313180994356
  B       4.681146      0.401778      0.957229
  B       2.005710      4.257220      1.028042
  B      -2.664013      3.862899      0.987660
  B      -4.660510     -0.378012      0.961593
  B      -2.023289     -4.279857      1.008430
  B       2.696785     -3.849200      0.950781
  B       4.006038      1.857454     -0.976846
  B       0.416595      4.410936     -0.973615
  B      -3.572761      2.554236     -1.005831
  B      -3.982115     -1.837978     -1.022227
  B      -0.445515     -4.454856     -0.911261
  B       3.541930     -2.544620     -1.003955
12
Coordinates from ORCA-job input E -295.363086619343
  B       4.654809      0.432938      0.901502
  B       1.967503      4.250474      0.979840
  B      -2.675015      3.824661      0.935416
  B      -4.632051     -0.407420      0.906078
  B      -1.987390     -4.277528      0.959768
  B       2.707554     -3.808835      0.893687
  B       4.006703      1.822288     -0.924547
  B       0.449358      4.394413     -0.919076
  B      -3.538329      2.572605     -0.955409
  B      -3.979365     -1.801579     -0.973694
  B      -0.479701     -4.440537     -0.850228
  B       3.505924     -2.561480     -0.953338
12
Coordinates from ORCA-job input E -295.412254139784
  B       4.625380      0.462344      0.846215
  B       1.928969      4.240566      0.931236
  B      -2.683498      3.784685      0.882842
  B      -4.600726     -0.435399      0.850366
  B      -1.951405     -4.272221      0.911890
  B       2.714933     -3.767145      0.837165
  B       4.004436      1.787115     -0.872618
  B       0.480647      4.375433     -0.864125
  B      -3.502572      2.588591     -0.904744
  B      -3.973598     -1.765141     -0.924804
  B      -0.511698     -4.423250     -0.790065
  B       3.469131     -2.575577     -0.903357
12
Coordinates from ORCA-job input E -295.459752458136
  B       4.595795      0.487572      0.787896
  B       1.892971      4.228861      0.879301
  B      -2.688931      3.746055      0.826257
  B      -4.568911     -0.459794      0.790001
  B      -1.920517     -4.266037      0.863414
  B       2.717861     -3.728284      0.778331
  B       3.998317      1.755529     -0.818596
  B       0.508186      4.354672     -0.804386
  B      -3.466407      2.600340     -0.850491
  B      -3.963376     -1.730984     -0.872456
  B      -0.538419     -4.404066     -0.727148
  B       3.433430     -2.583863     -0.852126
12
Coordinates from ORCA-job input E -295.504430164082
  B       4.560355      0.508715      0.731001
  B       1.856075      4.210451      0.826386
  B      -2.688761      3.703819      0.768691
  B      -4.531077     -0.480596      0.728740
  B      -1.891754     -4.253617      0.817484
  B       2.713896     -3.688116      0.721666
  B       3.982384      1.724182     -0.765963
  B       0.531848      4.324877     -0.743437
  B      -3.424178      2.604591     -0.795450
  B      -3.943324     -1.695222     -0.818950
  B      -0.559392     -4.375937     -0.666852
  B       3.393929     -2.583147     -0.803317
12
Coordinates from ORCA-job input E -295.550192948711
  B       4.518756      0.528922      0.675327
  B       1.819187      4.186425      0.776196
  B      -2.683394      3.658520      0.713727
  B      -4.487378     -0.498876      0.670012
  B      -1.859956     -4.235210      0.771784
  B       2.705913     -3.642265      0.665521
  B       3.959448      1.690191     -0.714378
  B       0.552592      4.287837     -0.684998
  B      -3.377979      2.602795     -0.742854
  B      -3.916528     -1.658884     -0.768241
  B      -0.579513     -4.341044     -0.607214
  B       3.348853     -2.578412     -0.754881
12
Coordinates from ORCA-job input E -295.588266899499
  B       4.467958      0.546380      0.623476
  B       1.777415      4.152450      0.726726
  B      -2.671877      3.604835      0.660361
  B      -4.433623     -0.515405      0.613090
  B      -1.826823     -4.207442      0.730131
  B       2.690384     -3.591552      0.613780
  B       3.931493      1.656465     -0.666532
  B       0.572057      4.245967     -0.628033
  B      -3.328075      2.598080     -0.691713
  B      -3.885199     -1.620132     -0.718709
  B      -0.596777     -4.300765     -0.552238
  B       3.303068     -2.568880     -0.710338
12
Coordinates from ORCA-job input E -295.609427899290
  B       4.413288      0.546428      0.580059
  B       1.738419      4.105410      0.676232
  B      -2.646388      3.549746      0.609206
  B      -4.371910     -0.519540      0.556184
  B      -1.808452     -4.167070      0.696367
  B       2.657473     -3.549566      0.571122
  B       3.888918      1.637299     -0.628147
  B       0.577789      4.196343     -0.571386
  B      -3.277353      2.578715     -0.641656
  B      -3.841375     -1.585503     -0.668424
  B      -0.594671     -4.252379     -0.506676
  B       3.264262     -2.539884     -0.672880
12
Coordinates from ORCA-job input E -295.628131036942
  B       4.371870      0.521278      0.544370
  B       1.747743      4.060536      0.654345
  B      -2.602071      3.536385      0.584913
  B      -4.333622     -0.490837      0.525807
  B      -1.805434     -4.124660      0.665538
  B       2.612623     -3.521189      0.534139
  B       3.840089      1.635946     -0.599245
  B       0.545245      4.154624     -0.542369
  B      -3.258467      2.529047     -0.617294
  B      -3.788889     -1.593711     -0.644867
  B      -0.566619     -4.209823     -0.468528
  B       3.237532     -2.497596     -0.636809
12
Coordinates from ORCA-job input E -295.650085703108
  B       4.314009      0.497279      0.513537
  B       1.751515      4.001074      0.636846
  B      -2.546756      3.510160      0.567932
  B      -4.280096     -0.461016      0.501797
  B      -1.794424     -4.065794      0.637745
  B       2.560833     -3.476386      0.500737
  B       3.776898      1.626913     -0.574044
  B       0.511643      4.095830     -0.519458
  B      -3.227429      2.467988     -0.599392
  B      -3.724320     -1.596528     -0.626419
  B      -0.539283     -4.150951     -0.436592
  B       3.197410     -2.448568     -0.602690
12
Coordinates from ORCA-job input E -295.673111074573
  B       4.254784      0.474177      0.483309
  B       1.750087      3.940436      0.617129
  B      -2.493167      3.476534      0.546960
  B      -4.223309     -0.434032      0.476086
  B      -1.783695     -4.006147      0.610116
  B       2.506967     -3.434340      0.471370
  B       3.713083      1.618649     -0.549878
  B       0.480876      4.035498     -0.494851
  B      -3.191052      2.410181     -0.577428
  B      -3.659655     -1.594243     -0.605640
  B      -0.513311     -4.090268     -0.405252
  B       3.158392     -2.396444     -0.571922
12
Coordinates from ORCA-job input E -295.697983197418
  B       4.195600      0.450996      0.454251
  B       1.747641      3.880019      0.597360
  B      -2.439651      3.441807      0.526896
  B      -4.166396     -0.407974      0.451474
  B      -1.774141     -3.946620      0.584040
  B       2.452649     -3.391220      0.441823
  B       3.649644      1.610569     -0.526643
  B       0.451737      3.975084     -0.470872
  B      -3.154017      2.352909     -0.556271
  B      -3.596030     -1.591688     -0.585490
  B      -0.486320     -4.029801     -0.375606
  B       3.119283     -2.344080     -0.540961
12
Coordinates from ORCA-job input E -295.725522381813
  B       4.136591      0.427516      0.425902
  B       1.744665      3.820356      0.578179
  B      -2.386682      3.405526      0.507730
  B      -4.108973     -0.383514      0.427865
  B      -1.764101     -3.887285      0.558176
  B       2.396848     -3.348956      0.413842
  B       3.586728      1.603039     -0.504707
  B       0.423996      3.915311     -0.447976
  B      -3.116376      2.296854     -0.535679
  B      -3.533775     -1.588613     -0.566214
  B      -0.459758     -3.969708     -0.346372
  B       3.080836     -2.290526     -0.510745
12
Coordinates from ORCA-job input E -295.756516093734
  B       4.077631      0.403533      0.398748
  B       1.741273      3.761561      0.559563
  B      -2.334333      3.368191      0.489431
  B      -4.051881     -0.360212      0.405965
  B      -1.754700     -3.828369      0.533704
  B       2.340262     -3.306155      0.386436
  B       3.524641      1.595554     -0.483810
  B       0.398047      3.856307     -0.426385
  B      -3.078504      2.242187     -0.515932
  B      -3.473284     -1.585745     -0.547986
  B      -0.431806     -3.910263     -0.318899
  B       3.042653     -2.236589     -0.480835
12
Coordinates from ORCA-job input E -295.791566747259
  B       4.018511      0.378571      0.372877
  B       1.737797      3.703785      0.541687
  B      -2.282692      3.330165      0.472214
  B      -3.994679     -0.338325      0.385545
  B      -1.744271     -3.769833      0.509856
  B       2.282484     -3.263541      0.360716
  B       3.463195      1.588204     -0.464319
  B       0.373489      3.798408     -0.406177
  B      -3.040713      2.188935     -0.497014
  B      -3.414280     -1.582969     -0.530864
  B      -0.403511     -3.851258     -0.292659
  B       3.004670     -2.182143     -0.451863
12
Coordinates from ORCA-job input E -295.831013639998
  B       3.958517      0.352824      0.348358
  B       1.734173      3.646670      0.524490
  B      -2.231646      3.291665      0.455772
  B      -3.937505     -0.317369      0.366695
  B      -1.733315     -3.711504      0.487234
  B       2.224163     -3.220239      0.336388
  B       3.402322      1.580235     -0.445786
  B       0.350259      3.741265     -0.387224
  B      -3.003027      2.136945     -0.478911
  B      -3.356492     -1.580469     -0.514685
  B      -0.373847     -3.792310     -0.268344
  B       2.966398     -2.127713     -0.423987
12
Coordinates from ORCA-job input E -295.876277913406
  B       3.897110      0.326115      0.325260
  B       1.730432      3.590081      0.507849
  B      -2.181043      3.252762      0.439996
  B      -3.879708     -0.297294      0.349139
  B      -1.720880     -3.653137      0.465320
  B       2.165266     -3.176608      0.313897
  B       3.341680      1.571651     -0.428233
  B       0.327853      3.684638     -0.369390
  B      -2.965356      2.085968     -0.461425
  B      -3.299348     -1.577964     -0.499252
  B      -0.343623     -3.732980     -0.245657
  B       2.927617     -2.073231     -0.397503
12
Coordinates from ORCA-job input E -295.931376909332
  B       3.830809      0.294936      0.302233
  B       1.731038      3.536155      0.493423
  B      -2.132520      3.214508      0.423969
  B      -3.827377     -0.279552      0.333175
  B      -1.701725     -3.593633      0.445382
  B       2.106743     -3.134784      0.291765
  B       3.283634      1.558704     -0.410327
  B       0.306971      3.629472     -0.352785
  B      -2.930148      2.039374     -0.446161
  B      -3.243342     -1.577191     -0.484187
  B      -0.311597     -3.675182     -0.224201
  B       2.887515     -2.012805     -0.372286
12
Coordinates from ORCA-job input E -295.994185099456
  B       3.764411      0.257637      0.281618
  B       1.731025      3.481782      0.477810
  B      -2.085603      3.176226      0.409760
  B      -3.777453     -0.263024      0.317932
  B      -1.680024     -3.533221      0.426501
  B       2.048558     -3.087927      0.270562
  B       3.223523      1.544193     -0.394781
  B       0.288045      3.574634     -0.336385
  B      -2.897125      1.995442     -0.431324
  B      -3.187427     -1.575672     -0.470205
  B      -0.273244     -3.614326     -0.204972
  B       2.845314     -1.955745     -0.346515
12
Coordinates from ORCA-job input E -296.064280086374
  B       3.695782      0.221760      0.261150
  B       1.729421      3.426738      0.461933
  B      -2.037422      3.135713      0.396070
  B      -3.727044     -0.245927      0.302554
  B      -1.655894     -3.471433      0.407594
  B       1.989312     -3.041828      0.252577
  B       3.162659      1.527745     -0.379769
  B       0.268686      3.518617     -0.319523
  B      -2.863921      1.951835     -0.416495
  B      -3.130014     -1.572095     -0.456568
  B      -0.234495     -3.551868     -0.186585
  B       2.802931     -1.899257     -0.322938
12
Coordinates from ORCA-job input E -296.141549794914
  B       3.625552      0.187097      0.241808
  B       1.724648      3.370569      0.445629
  B      -1.987431      3.093566      0.382064
  B      -3.674967     -0.227472      0.287227
  B      -1.630604     -3.407874      0.388713
  B       1.930884     -2.996575      0.236594
  B       3.100742      1.510629     -0.365105
  B       0.247632      3.461201     -0.302406
  B      -2.829419      1.907386     -0.401240
  B      -3.071132     -1.565942     -0.442651
  B      -0.196329     -3.487953     -0.169457
  B       2.760425     -1.844631     -0.301176
12
Coordinates from ORCA-job input E -296.225661147316
  B       3.553787      0.153795      0.223633
  B       1.716912      3.312808      0.429068
  B      -1.936232      3.050603      0.367802
  B      -3.620313     -0.208470      0.272110
  B      -1.605566     -3.342225      0.369757
  B       1.873734     -2.951769      0.222134
  B       3.037803      1.493252     -0.350408
  B       0.225745      3.402561     -0.285515
  B      -2.793245      1.861361     -0.385743
  B      -3.010682     -1.558214     -0.428025
  B      -0.159902     -3.422425     -0.153666
  B       2.717960     -1.791278     -0.281147
12
Coordinates from ORCA-job input E -296.315814843693
  B       3.481208      0.122388      0.206638
  B       1.707322      3.252562      0.412264
  B      -1.884144      3.006655      0.353424
  B      -3.562409     -0.189557      0.257409
  B      -1.582876     -3.274781      0.350742
  B       1.818562     -2.906184      0.208831
  B       2.973724      1.476712     -0.335368
  B       0.203994      3.342434     -0.269287
  B      -2.755326      1.813244     -0.370113
  B      -2.949204     -1.549997     -0.412740
  B      -0.126507     -3.355073     -0.139201
  B       2.675657     -1.738403     -0.262600
12
Coordinates from ORCA-job input E -296.409664904888
  B       3.409447      0.093244      0.191038
  B       1.696066      3.188659      0.395102
  B      -1.831785      2.961812      0.339147
  B      -3.500579     -0.170385      0.243401
  B      -1.563576     -3.206591      0.331974
  B       1.765251     -2.858841      0.196212
  B       2.908260      1.462150     -0.319897
  B       0.183292      3.280750     -0.254137
  B      -2.716068      1.762755     -0.354292
  B      -2.887626     -1.541435     -0.397392
  B      -0.095769     -3.285949     -0.125956
  B       2.633088     -1.686169     -0.245202
12
Coordinates from ORCA-job input E -296.504093356087
  B       3.338675      0.065606      0.176973
  B       1.683816      3.122010      0.377643
  B      -1.779368      2.915723      0.325202
  B      -3.436693     -0.150613      0.230375
  B      -1.545719     -3.136954      0.313220
  B       1.713367     -2.810612      0.184344
  B       2.842038      1.449169     -0.304465
  B       0.162803      3.217477     -0.240065
  B      -2.676266      1.710771     -0.338520
  B      -2.825651     -1.532445     -0.382147
  B      -0.067566     -3.215632     -0.114008
  B       2.590563     -1.634502     -0.228551
12
Coordinates from ORCA-job input E -296.606409144589
  B       3.279239      0.035923      0.167735
  B       1.674772      3.054133      0.361492
  B      -1.724099      2.868340      0.314974
  B      -3.375218     -0.123197      0.223414
  B      -1.547922     -3.060916      0.295939
  B       1.660526     -2.777291      0.176278
  B       2.777179      1.455097     -0.292258
  B       0.136819      3.154222     -0.230683
  B      -2.642203      1.656746     -0.326273
  B      -2.770737     -1.530638     -0.369570
  B      -0.036319     -3.155795     -0.107326
  B       2.567963     -1.576625     -0.213723
12
Coordinates from ORCA-job input E -296.700938980775
  B       3.222454      0.010724      0.161719
  B       1.664476      2.982196      0.345086
  B      -1.665640      2.817475      0.303392
  B      -3.310276     -0.091145      0.216311
  B      -1.556046     -2.981456      0.279140
  B       1.609340     -2.744689      0.169292
  B       2.711805      1.466595     -0.280246
  B       0.105565      3.086861     -0.221543
  B      -2.606236      1.597443     -0.313310
  B      -2.711673     -1.527574     -0.354965
  B      -0.010153     -3.095826     -0.103575
  B       2.546384     -1.520604     -0.201300
12
Coordinates from ORCA-job input E -296.781587075758
  B       3.164098      0.000971      0.156670
  B       1.648882      2.904860      0.325229
  B      -1.605354      2.756163      0.288148
  B      -3.237742     -0.062426      0.206631
  B      -1.562785     -2.897462      0.260157
  B       1.565989     -2.703521      0.161712
  B       2.644288      1.476069     -0.265096
  B       0.078957      3.010530     -0.210226
  B      -2.561676      1.533115     -0.296628
  B      -2.647698     -1.518802     -0.336502
  B      -0.002208     -3.028752     -0.100331
  B       2.515249     -1.470744     -0.189763
12
Coordinates from ORCA-job input E -296.846405072056
  B       3.108480      0.009095      0.152601
  B       1.628641      2.826592      0.302773
  B      -1.546508      2.684975      0.270350
  B      -3.160350     -0.040711      0.195257
  B      -1.572105     -2.810523      0.240032
  B       1.530638     -2.658997      0.153705
  B       2.577653      1.485614     -0.247363
  B       0.060619      2.928327     -0.197556
  B      -2.509628      1.467548     -0.277567
  B      -2.584540     -1.505265     -0.315045
  B      -0.011045     -2.958662     -0.097608
  B       2.478145     -1.427994     -0.179579
12
Coordinates from ORCA-job input E -296.891394862679
  B       3.053600      0.032417      0.147359
  B       1.602592      2.752172      0.278596
  B      -1.493222      2.604806      0.250618
  B      -3.079452     -0.033016      0.181462
  B      -1.579828     -2.725264      0.219747
  B       1.499085     -2.613591      0.145022
  B       2.512916      1.491171     -0.227586
  B       0.056512      2.843731     -0.183240
  B      -2.448311      1.406225     -0.256898
  B      -2.526024     -1.483715     -0.291279
  B      -0.033590     -2.886980     -0.093452
  B       2.435722     -1.387956     -0.170348
12
Coordinates from ORCA-job input E -296.913504086650
  B       2.999106      0.063580      0.136025
  B       1.571385      2.697583      0.255670
  B      -1.445554      2.528338      0.228058
  B      -3.002759     -0.041172      0.161678
  B      -1.579612     -2.658684      0.201513
  B       1.471107     -2.572472      0.133741
  B       2.458184      1.481823     -0.205906
  B       0.063447      2.769934     -0.164623
  B      -2.382758      1.352533     -0.234932
  B      -2.480923     -1.450622     -0.266311
  B      -0.060404     -2.820270     -0.084139
  B       2.388779     -1.350570     -0.160774
12
Coordinates from ORCA-job input E -296.916151751065
  B       2.992785      0.050491      0.135706
  B       1.575649      2.685861      0.233979
  B      -1.432741      2.510677      0.206526
  B      -2.987830     -0.009283      0.152663
  B      -1.598546     -2.633333      0.184276
  B       1.468040     -2.576155      0.122717
  B       2.429989      1.513770     -0.188229
  B       0.052723      2.749438     -0.151739
  B      -2.375997      1.338403     -0.215195
  B      -2.456622     -1.473347     -0.245291
  B      -0.053348     -2.803691     -0.083636
  B       2.385897     -1.352831     -0.151777
12
Coordinates from ORCA-job input E -296.927574524209
  B       2.970518      0.059429      0.116700
  B       1.575499      2.700614      0.223545
  B      -1.414850      2.505878      0.187661
  B      -2.979739     -0.033379      0.130545
  B      -1.575275     -2.659919      0.176538
  B       1.464686     -2.564622      0.110782
  B       2.427347      1.487336     -0.171600
  B       0.058500      2.746126     -0.132510
  B      -2.352943      1.326711     -0.200511
  B      -2.464638     -1.445386     -0.231289
  B      -0.072197     -2.789530     -0.067103
  B       2.363092     -1.333258     -0.142758
12
Coordinates from ORCA-job input E -296.926897372760
  B       2.975533      0.086708      0.110541
  B       1.578727      2.737947      0.216133
  B      -1.436710      2.506345      0.180356
  B      -2.999219     -0.064562      0.125458
  B      -1.604816     -2.669273      0.170519
  B       1.454503     -2.575460      0.103668
  B       2.453048      1.469841     -0.163502
  B       0.113344      2.766979     -0.125399
  B      -2.354329      1.339527     -0.193536
  B      -2.482714     -1.472640     -0.220821
  B      -0.049251     -2.790802     -0.064429
  B       2.351884     -1.334611     -0.138988
12
Coordinates from ORCA-job input E -296.938452294697
  B       2.996763      0.064865      0.107964
  B       1.623790      2.768361      0.205778
  B      -1.437468      2.529809      0.168158
  B      -3.025529     -0.075344      0.114477
  B      -1.606626     -2.698665      0.163847
  B       1.463182     -2.594000      0.095541
  B       2.461590      1.517046     -0.152047
  B       0.102959      2.788990     -0.117036
  B      -2.374868      1.331056     -0.184401
  B      -2.505278     -1.477207     -0.209068
  B      -0.065460     -2.807514     -0.059997
  B       2.366945     -1.347396     -0.133214
12
Coordinates from ORCA-job input E -296.939528993931
  B       2.990717      0.064550      0.100094
  B       1.613207      2.788630      0.199537
  B      -1.412816      2.544444      0.156655
  B      -3.031797     -0.020382      0.106785
  B      -1.601558     -2.720413      0.155516
  B       1.482093     -2.611604      0.092740
  B       2.463309      1.501979     -0.144631
  B       0.075232      2.798522     -0.105431
  B      -2.386854      1.323998     -0.173395
  B      -2.493078     -1.495532     -0.203493
  B      -0.073139     -2.823176     -0.055753
  B       2.374684     -1.351016     -0.128624
12
Coordinates from ORCA-job input E -296.946858757237
  B       2.973187      0.058477      0.094414
  B       1.630602      2.794534      0.181048
  B      -1.415732      2.527484      0.135917
  B      -3.047467     -0.034446      0.099775
  B      -1.600077     -2.736333      0.142720
  B       1.487988     -2.609034      0.081449
  B       2.443595      1.522789     -0.126960
  B       0.094185      2.786696     -0.093973
  B      -2.359352      1.355946     -0.158027
  B      -2.504342     -1.503058     -0.187139
  B      -0.068475     -2.818951     -0.051340
  B       2.365888     -1.344102     -0.117886
12
Coordinates from ORCA-job input E -296.949797596302
  B       2.983608      0.076388      0.092916
  B       1.653060      2.825202      0.172851
  B      -1.409713      2.523140      0.131022
  B      -3.045515     -0.082210      0.087578
  B      -1.625149     -2.724875      0.140058
  B       1.461541     -2.620523      0.075202
  B       2.459262      1.546647     -0.118850
  B       0.126105      2.799856     -0.086818
  B      -2.369925      1.306363     -0.153111
  B      -2.531962     -1.485012     -0.174490
  B      -0.056380     -2.814939     -0.050353
  B       2.355068     -1.350036     -0.116007
12
Coordinates from ORCA-job input E -296.954643080678
  B       2.964118      0.059129      0.085086
  B       1.678889      2.865659      0.156206
  B      -1.416081      2.520724      0.115636
  B      -3.060213     -0.083095      0.078509
  B      -1.609432     -2.729685      0.122418
  B       1.468020     -2.613410      0.067684
  B       2.461511      1.545104     -0.105443
  B       0.148696      2.812411     -0.073966
  B      -2.377878      1.295092     -0.136527
  B      -2.516649     -1.512344     -0.159542
  B      -0.080314     -2.803717     -0.046466
  B       2.339333     -1.355868     -0.103596
12
Coordinates from ORCA-job input E -296.957410553681
  B       2.944363      0.085910      0.081752
  B       1.684889      2.876531      0.148882
  B      -1.380945      2.507499      0.100849
  B      -3.080027     -0.052069      0.077245
  B      -1.617845     -2.746500      0.116514
  B       1.482536     -2.641595      0.065720
  B       2.456446      1.551157     -0.095036
  B       0.121128      2.800112     -0.067074
  B      -2.358162      1.319443     -0.127606
  B      -2.533104     -1.522431     -0.152209
  B      -0.065832     -2.829133     -0.048197
  B       2.346553     -1.348925     -0.100840
12
Coordinates from ORCA-job input E -296.959764712760
  B       2.911958      0.081082      0.079975
  B       1.664744      2.899287      0.128690
  B      -1.353354      2.480895      0.090989
  B      -3.090001     -0.020899      0.069914
  B      -1.611758     -2.756744      0.106270
  B       1.502408     -2.667244      0.063676
  B       2.416500      1.583813     -0.085488
  B       0.170052      2.795822     -0.055987
  B      -2.356213      1.305676     -0.112968
  B      -2.557200     -1.500482     -0.143183
  B      -0.048903     -2.851295     -0.050806
  B       2.351767     -1.349910     -0.091082
12
Coordinates from ORCA-job input E -296.964952653930
  B       2.896204      0.077815      0.079311
  B       1.702827      2.943313      0.120994
  B      -1.356348      2.463741      0.083287
  B      -3.092671     -0.072262      0.066057
  B      -1.608230     -2.724875      0.097691
  B       1.486117     -2.651448      0.060699
  B       2.433742      1.590631     -0.078976
  B       0.183372      2.805831     -0.051109
  B      -2.354748      1.276437     -0.106222
  B      -2.559878     -1.504751     -0.132170
  B      -0.051120     -2.828680     -0.054357
  B       2.320734     -1.375752     -0.085204
12
Coordinates from ORCA-job input E -296.967136713498
  B       2.870584      0.099860      0.077822
  B       1.735488      2.959925      0.117471
  B      -1.336174      2.448498      0.079666
  B      -3.109548     -0.091206      0.067595
  B      -1.605488     -2.711232      0.092233
  B       1.470488     -2.662225      0.065136
  B       2.442937      1.598849     -0.075462
  B       0.201429      2.805006     -0.049489
  B      -2.356157      1.262457     -0.103113
  B      -2.570783     -1.523429     -0.129341
  B      -0.063903     -2.836659     -0.058476
  B       2.321127     -1.349844     -0.084042
12
Coordinates from ORCA-job input E -296.971415268705
  B       2.817826      0.117893      0.076838
  B       1.750344      2.984632      0.110197
  B      -1.294772      2.414830      0.072824
  B      -3.135675     -0.068093      0.070213
  B      -1.593247     -2.697922      0.085993
  B       1.492753     -2.675140      0.070974
  B       2.428162      1.616720     -0.070919
  B       0.213133      2.795448     -0.045840
  B      -2.353640      1.259101     -0.095575
  B      -2.599265     -1.525177     -0.127992
  B      -0.038367     -2.856022     -0.066820
  B       2.312748     -1.366271     -0.079894
12
Coordinates from ORCA-job input E -296.976121649914
  B       2.772814      0.113361      0.075543
  B       1.748790      3.031025      0.104274
  B      -1.262082      2.366642      0.066670
  B      -3.142218     -0.060508      0.072250
  B      -1.582413     -2.661941      0.078933
  B       1.505890     -2.694287      0.078067
  B       2.411083      1.640010     -0.069223
  B       0.229365      2.792449     -0.041417
  B      -2.343640      1.244556     -0.089180
  B      -2.624386     -1.514138     -0.124924
  B      -0.025912     -2.871457     -0.075545
  B       2.312709     -1.385711     -0.075448
12
Coordinates from ORCA-job input E -296.982968569832
  B       2.686853      0.128862      0.070829
  B       1.775490      3.077415      0.096964
  B      -1.209623      2.288295      0.059281
  B      -3.166799     -0.069265      0.075383
  B      -1.551516     -2.612442      0.067742
  B       1.511636     -2.698073      0.088463
  B       2.385098      1.684328     -0.065519
  B       0.296075      2.781962     -0.035758
  B      -2.338147      1.210045     -0.081987
  B      -2.669580     -1.508846     -0.121142
  B      -0.012233     -2.882819     -0.085240
  B       2.292746     -1.399463     -0.069017
12
Coordinates from ORCA-job input E -296.990418092585
  B       2.599876      0.143361      0.062419
  B       1.805412      3.135555      0.089138
  B      -1.144128      2.209937      0.048030
  B      -3.194763     -0.071177      0.077111
  B      -1.535670     -2.553893      0.052765
  B       1.524415     -2.710312      0.097863
  B       2.357696      1.713733     -0.057429
  B       0.337996      2.764286     -0.028759
  B      -2.324539      1.175985     -0.073504
  B      -2.710349     -1.510304     -0.112084
  B       0.001730     -2.896541     -0.094305
  B       2.282324     -1.400631     -0.061246
12
Coordinates from ORCA-job input E -296.997750331322
  B       2.494186      0.172835      0.049282
  B       1.844648      3.207206      0.083588
  B      -1.059658      2.123683      0.035476
  B      -3.217380     -0.079395      0.077479
  B      -1.506717     -2.498844      0.037402
  B       1.507242     -2.738289      0.104733
  B       2.314170      1.750621     -0.046427
  B       0.384993      2.741413     -0.020371
  B      -2.288347      1.137909     -0.066001
  B      -2.721059     -1.523183     -0.103544
  B       0.001293     -2.905459     -0.094627
  B       2.246628     -1.388496     -0.056990
12
Coordinates from ORCA-job input E -297.004402292267
  B       2.394855      0.192968      0.037937
  B       1.881557      3.239847      0.072599
  B      -0.987463      2.024347      0.025180
  B      -3.252460     -0.078985      0.074317
  B      -1.496052     -2.433744      0.022351
  B       1.535993     -2.727409      0.107759
  B       2.263332      1.769647     -0.034969
  B       0.446277      2.696430     -0.011997
  B      -2.266320      1.084800     -0.055758
  B      -2.752067     -1.511638     -0.093982
  B       0.015999     -2.891367     -0.097402
  B       2.216349     -1.364895     -0.046036
12
Coordinates from ORCA-job input E -297.009857269057
  B       2.296507      0.210772      0.028773
  B       1.887754      3.285985      0.059306
  B      -0.917372      1.943000      0.017920
  B      -3.273478     -0.058378      0.067660
  B      -1.455393     -2.376680      0.006651
  B       1.545442     -2.754032      0.108222
  B       2.197416      1.800629     -0.026340
  B       0.497016      2.668104     -0.002839
  B      -2.231249      1.041326     -0.041897
  B      -2.759841     -1.490564     -0.085900
  B       0.040176     -2.889283     -0.095857
  B       2.173022     -1.380877     -0.035699
12
Coordinates from ORCA-job input E -297.014786486547
  B       2.198098      0.213995      0.020194
  B       1.897409      3.292224      0.045610
  B      -0.862037      1.850166      0.013330
  B      -3.326382     -0.040084      0.057948
  B      -1.413500     -2.293351     -0.003076
  B       1.586645     -2.779323      0.101854
  B       2.125233      1.795082     -0.017678
  B       0.537094      2.611874      0.004372
  B      -2.198386      0.986814     -0.027159
  B      -2.735030     -1.438260     -0.082905
  B       0.072189     -2.837585     -0.086192
  B       2.118668     -1.361551     -0.026298
12
Coordinates from ORCA-job input E -297.021252239852
  B       2.144202      0.190437      0.015758
  B       1.886609      3.267097      0.036297
  B      -0.882371      1.770827      0.011648
  B      -3.393898      0.007816      0.045296
  B      -1.339507     -2.184515     -0.006935
  B       1.648836     -2.836409      0.089900
  B       2.077841      1.754595     -0.013622
  B       0.523576      2.549912      0.008629
  B      -2.211459      0.950754     -0.016017
  B      -2.684493     -1.333016     -0.079504
  B       0.139972     -2.762995     -0.070502
  B       2.090692     -1.374502     -0.020949
12
Coordinates from ORCA-job input E -296.995132170327
  B       2.104160      0.158622     -0.041481
  B       1.777705      3.165552      0.024905
  B      -0.769230      1.770378     -0.008198
  B      -3.547386     -0.008695      0.013935
  B      -1.342698     -2.158177     -0.073176
  B       1.710538     -2.884704      0.047212
  B       2.116610      1.786852      0.014447
  B       0.529613      2.606715      0.023994
  B      -2.213169      0.908421      0.012241
  B      -2.550935     -1.263680     -0.037578
  B       0.159970     -2.662123      0.004282
  B       2.024824     -1.419161      0.019417
12
Coordinates from ORCA-job input E -297.034009105398
  B       2.099340      0.131157     -0.042539
  B       1.774053      3.161790      0.027957
  B      -0.837021      1.708598     -0.009664
  B      -3.539431      0.017890      0.008943
  B      -1.269016     -2.047157     -0.062130
  B       1.719787     -2.920520      0.043446
  B       2.099995      1.738062      0.013849
  B       0.475686      2.560560      0.024270
  B      -2.237821      0.866054      0.007788
  B      -2.529712     -1.151565     -0.033918
  B       0.218849     -2.615633      0.006035
  B       2.025291     -1.449235      0.015963
12
Coordinates from ORCA-job input E -297.052581417001
  B       2.077684      0.092079     -0.041765
  B       1.769417      3.151474      0.032577
  B      -0.906405      1.651029     -0.012556
  B      -3.551805      0.034466     -0.000346
  B      -1.166691     -1.895387     -0.041637
  B       1.736057     -2.974867      0.034403
  B       2.071759      1.681869      0.013998
  B       0.424387      2.510564      0.024173
  B      -2.269130      0.817856      0.000453
  B      -2.490406     -1.027674     -0.027531
  B       0.295072     -2.545522      0.008113
  B       2.010061     -1.495887      0.010118
12
Coordinates from ORCA-job input E -297.056784193912
  B       2.046740      0.058891     -0.039756
  B       1.778507      3.143263      0.037550
  B      -0.949146      1.649536     -0.015690
  B      -3.577966      0.026543     -0.010413
  B      -1.088969     -1.799236     -0.021671
  B       1.755165     -3.024253      0.024207
  B       2.046180      1.645667      0.014269
  B       0.401552      2.495652      0.024204
  B      -2.290894      0.803102     -0.007090
  B      -2.456631     -0.969319     -0.019952
  B       0.354130     -2.494089      0.010256
  B       1.981332     -1.535756      0.004085
12
Coordinates from ORCA-job input E -297.058344865325
  B       2.024440      0.042141     -0.035562
  B       1.793528      3.141258      0.038905
  B      -0.968696      1.691320     -0.017295
  B      -3.586543      0.012684     -0.014232
  B      -1.060588     -1.787282     -0.014297
  B       1.771712     -3.053709      0.019028
  B       2.028472      1.633446      0.014480
  B       0.399945      2.510934      0.023221
  B      -2.301225      0.824362     -0.010594
  B      -2.441267     -0.977284     -0.015318
  B       0.379822     -2.482161      0.009735
  B       1.960401     -1.555709      0.001929
12
Coordinates from ORCA-job input E -297.058917578322
  B       2.027486      0.038758     -0.032954
  B       1.797871      3.138376      0.038996
  B      -0.972138      1.713981     -0.017263
  B      -3.586696      0.006159     -0.014801
  B      -1.063140     -1.794996     -0.013315
  B       1.779191     -3.061360      0.018019
  B       2.021722      1.632741      0.014142
  B       0.404488      2.517417      0.022415
  B      -2.304977      0.832426     -0.011716
  B      -2.438951     -0.988165     -0.013588
  B       0.379611     -2.478741      0.008808
  B       1.955532     -1.556595      0.001255
12
Coordinates from ORCA-job input E -297.059191840329
  B       2.034473      0.034947     -0.030516
  B       1.796511      3.132805      0.039283
  B      -0.976727      1.725420     -0.016854
  B      -3.583860      0.003107     -0.016028
  B      -1.063098     -1.793408     -0.011335
  B       1.782410     -3.066868      0.016845
  B       2.012632      1.629830      0.013652
  B       0.406073      2.515952      0.021661
  B      -2.305976      0.832898     -0.013308
  B      -2.434075     -0.987846     -0.011382
  B       0.382396     -2.469695      0.007865
  B       1.949241     -1.557142      0.000118
12
Coordinates from ORCA-job input E -297.059303506554
  B       2.046566      0.036320     -0.029392
  B       1.793268      3.131196      0.039444
  B      -0.976744      1.726265     -0.015959
  B      -3.581444      0.004185     -0.016746
  B      -1.069435     -1.798023     -0.010428
  B       1.781071     -3.064933      0.016415
  B       2.009273      1.630908      0.013034
  B       0.408229      2.512424      0.021334
  B      -2.303301      0.830404     -0.014323
  B      -2.435141     -0.987620     -0.010345
  B       0.380378     -2.467360      0.007566
  B       1.947280     -1.553768     -0.000599
12
Coordinates from ORCA-job input E -297.059350487801
  B       2.054376      0.036912     -0.028305
  B       1.791529      3.131557      0.039346
  B      -0.977421      1.724172     -0.015119
  B      -3.581763      0.005922     -0.017364
  B      -1.071139     -1.798991     -0.009429
  B       1.779614     -3.063802      0.015712
  B       2.007152      1.631037      0.012578
  B       0.408803      2.509247      0.021092
  B      -2.302057      0.827950     -0.015174
  B      -2.436114     -0.985244     -0.009704
  B       0.381233     -2.465581      0.007336
  B       1.945787     -1.553179     -0.000968
12
Coordinates from ORCA-job input E -297.059372209741
  B       2.060385      0.038417     -0.027264
  B       1.791214      3.133742      0.038966
  B      -0.976642      1.721630     -0.014241
  B      -3.583115      0.007672     -0.017640
  B      -1.073745     -1.802251     -0.008854
  B       1.778334     -3.061651      0.014933
  B       2.007223      1.632287      0.012181
  B       0.409719      2.507661      0.020931
  B      -2.301156      0.826546     -0.015786
  B      -2.438651     -0.985085     -0.009572
  B       0.380333     -2.466689      0.007278
  B       1.946101     -1.552279     -0.000933
12
Coordinates from ORCA-job input E -297.059381715944
  B       2.061657      0.038578     -0.026048
  B       1.791881      3.135152      0.038388
  B      -0.976512      1.721104     -0.013620
  B      -3.584107      0.008169     -0.017682
  B      -1.073822     -1.803150     -0.008425
  B       1.778343     -3.061335      0.014071
  B       2.006845      1.632500      0.011985
  B       0.409937      2.507426      0.020731
  B      -2.301322      0.826488     -0.016236
  B      -2.439399     -0.985113     -0.009573
  B       0.380393     -2.467227      0.007082
  B       1.946106     -1.552591     -0.000672
12
Coordinates from ORCA-job input E -297.059391752380
  B       2.062013      0.038646     -0.023942
  B       1.792872      3.136599      0.037274
  B      -0.976173      1.721131     -0.012663
  B      -3.584649      0.008385     -0.017592
  B      -1.073934     -1.804260     -0.007873
  B       1.778647     -3.061145      0.012607
  B       2.006086      1.632709      0.011740
  B       0.410199      2.507586      0.020388
  B      -2.301528      0.826908     -0.016879
  B      -2.439829     -0.985548     -0.009689
  B       0.380066     -2.468208      0.006702
  B       1.946230     -1.552803     -0.000073
12
Coordinates from ORCA-job input E -297.059405527584
  B       2.061374      0.038340     -0.019508
  B       1.794210      3.138102      0.034846
  B      -0.975896      1.721760     -0.010835
  B      -3.584589      0.008455     -0.017316
  B      -1.073565     -1.805193     -0.006797
  B       1.779350     -3.061342      0.009531
  B       2.003923      1.632583      0.011411
  B       0.410337      2.507985      0.019627
  B      -2.301813      0.827941     -0.018132
  B      -2.439427     -0.985767     -0.009887
  B       0.379818     -2.469638      0.005800
  B       1.946277     -1.553226      0.001263
12
Coordinates from ORCA-job input E -297.059419337160
  B       2.059491      0.037679     -0.015237
  B       1.794892      3.138228      0.032264
  B      -0.976017      1.722881     -0.009019
  B      -3.583794      0.007977     -0.016807
  B      -1.072568     -1.804763     -0.006186
  B       1.779919     -3.062102      0.006770
  B       2.001853      1.632088      0.011063
  B       0.410097      2.508766      0.018915
  B      -2.302241      0.829125     -0.019023
  B      -2.438034     -0.985452     -0.010380
  B       0.379936     -2.470640      0.004769
  B       1.946465     -1.553788      0.002873
12
Coordinates from ORCA-job input E -297.059445045979
  B       2.055060      0.035596     -0.003776
  B       1.795287      3.136705      0.024853
  B      -0.977234      1.726038     -0.003870
  B      -3.581408      0.006726     -0.015157
  B      -1.069570     -1.802447     -0.005388
  B       1.781079     -3.064428     -0.000261
  B       1.996444      1.630229      0.010019
  B       0.408874      2.510929      0.016964
  B      -2.303547      0.832306     -0.020748
  B      -2.433595     -0.983419     -0.012138
  B       0.380818     -2.472693      0.001598
  B       1.947792     -1.555544      0.007904
12
Coordinates from ORCA-job input E -297.059455811682
  B       2.053598      0.033988      0.002545
  B       1.794357      3.134486      0.020353
  B      -0.978951      1.728057     -0.000873
  B      -3.580579      0.006106     -0.013991
  B      -1.067421     -1.800184     -0.005858
  B       1.781455     -3.066128     -0.003693
  B       1.993918      1.628638      0.009307
  B       0.407564      2.512331      0.015809
  B      -2.304781      0.834132     -0.020858
  B      -2.430842     -0.981212     -0.013541
  B       0.382003     -2.473052     -0.000588
  B       1.949679     -1.557162      0.011388
12
Coordinates from ORCA-job input E -297.059464304092
  B       2.053955      0.032119      0.007498
  B       1.792655      3.131645      0.016462
  B      -0.981524      1.730172      0.001491
  B      -3.580927      0.005756     -0.012834
  B      -1.065314     -1.797788     -0.007280
  B       1.781573     -3.067938     -0.005812
  B       1.992581      1.626749      0.008607
  B       0.405828      2.513774      0.014772
  B      -2.306534      0.835771     -0.019838
  B      -2.428733     -0.978550     -0.015103
  B       0.383668     -2.472382     -0.002787
  B       1.952771     -1.559328      0.014824
12
Coordinates from ORCA-job input E -297.059468954648
  B       2.055480      0.030808      0.009443
  B       1.791587      3.130046      0.014693
  B      -0.983482      1.731605      0.002340
  B      -3.582003      0.005705     -0.012223
  B      -1.064284     -1.796683     -0.008707
  B       1.781551     -3.069032     -0.006114
  B       1.992393      1.625453      0.008251
  B       0.404602      2.514620      0.014216
  B      -2.307948      0.836648     -0.018431
  B      -2.428142     -0.977011     -0.016072
  B       0.384853     -2.471197     -0.004041
  B       1.955393     -1.560962      0.016644
12
Coordinates from ORCA-job input E -297.059472943508
  B       2.057421      0.029433      0.010941
  B       1.790952      3.128922      0.013205
  B      -0.985333      1.733116      0.002891
  B      -3.583254      0.005688     -0.011713
  B      -1.063633     -1.796066     -0.010381
  B       1.781521     -3.070013     -0.005980
  B       1.992047      1.624131      0.007957
  B       0.403427      2.515348      0.013645
  B      -2.309401      0.837519     -0.016594
  B      -2.427973     -0.975892     -0.017014
  B       0.385926     -2.469599     -0.005257
  B       1.958301     -1.562587      0.018300
12
Coordinates from ORCA-job input E -297.059476983256
  B       2.059276      0.027674      0.012971
  B       1.790633      3.127803      0.011226
  B      -0.987274      1.734938      0.003617
  B      -3.584376      0.005571     -0.011138
  B      -1.062999     -1.795321     -0.012544
  B       1.781498     -3.071175     -0.005896
  B       1.990839      1.622442      0.007596
  B       0.402097      2.516104      0.012845
  B      -2.311046      0.838678     -0.014119
  B      -2.427714     -0.974836     -0.018196
  B       0.387145     -2.467421     -0.006837
  B       1.961921     -1.564459      0.020475
12
Coordinates from ORCA-job input E -297.059482790328
  B       2.061251      0.024599      0.016681
  B       1.790390      3.125831      0.007611
  B      -0.990119      1.737757      0.004958
  B      -3.585623      0.005244     -0.010241
  B      -1.061863     -1.793456     -0.016320
  B       1.781387     -3.073152     -0.006001
  B       1.987718      1.619447      0.006986
  B       0.399987      2.517191      0.011371
  B      -2.313598      0.840685     -0.009683
  B      -2.427014     -0.973195     -0.020239
  B       0.389244     -2.463416     -0.009578
  B       1.968240     -1.567535      0.024455
12
Coordinates from ORCA-job input E -297.059490813181
  B       2.062785      0.019779      0.021664
  B       1.790165      3.122488      0.002443
  B      -0.993897      1.741419      0.006675
  B      -3.586968      0.004692     -0.009261
  B      -1.059974     -1.789416     -0.022134
  B       1.780973     -3.076126     -0.006010
  B       1.981851      1.614687      0.006191
  B       0.397025      2.518442      0.009153
  B      -2.317146      0.843513     -0.002481
  B      -2.425923     -0.970861     -0.023212
  B       0.392669     -2.456415     -0.013363
  B       1.978439     -1.572201      0.030335
12
Coordinates from ORCA-job input E -297.059496855295
  B       2.062438      0.019772      0.019289
  B       1.790087      3.122254      0.004697
  B      -0.993294      1.740415      0.005191
  B      -3.586959      0.004906     -0.011128
  B      -1.060251     -1.788496     -0.020079
  B       1.780850     -3.075920     -0.005714
  B       1.981461      1.614655      0.006524
  B       0.397247      2.517822      0.009762
  B      -2.316933      0.843155     -0.003011
  B      -2.426524     -0.971179     -0.021659
  B       0.392704     -2.455285     -0.011901
  B       1.979174     -1.572098      0.028029
12
Coordinates from ORCA-job input E -297.059519526577
  B       2.062720      0.014368      0.015617
  B       1.789207      3.117378      0.008755
  B      -0.994865      1.740301      0.001952
  B      -3.588060      0.004931     -0.018965
  B      -1.058262     -1.778867     -0.015279
  B       1.779591     -3.078597     -0.005190
  B       1.972199      1.609379      0.007053
  B       0.395272      2.516837      0.010241
  B      -2.319837      0.844968     -0.000148
  B      -2.427522     -0.969920     -0.017090
  B       0.396758     -2.443884     -0.009359
  B       1.992797     -1.576895      0.022413
12
Coordinates from ORCA-job input E -297.059532108715
  B       2.064316      0.007713      0.017202
  B       1.788267      3.111777      0.007998
  B      -0.998477      1.742537      0.002180
  B      -3.589683      0.004453     -0.023569
  B      -1.054441     -1.768608     -0.014520
  B       1.778126     -3.082181     -0.005288
  B       1.961714      1.602689      0.006720
  B       0.392322      2.517117      0.009317
  B      -2.323968      0.847657      0.004231
  B      -2.427281     -0.967435     -0.015715
  B       0.401880     -2.432595     -0.009769
  B       2.007225     -1.583123      0.021212
12
Coordinates from ORCA-job input E -297.059545815435
  B       2.067890     -0.002319      0.020053
  B       1.786820      3.103245      0.006141
  B      -1.004472      1.746408      0.003363
  B      -3.592614      0.003725     -0.028802
  B      -1.048210     -1.753325     -0.014779
  B       1.775498     -3.087118     -0.004967
  B       1.946887      1.592316      0.005731
  B       0.387552      2.518149      0.007784
  B      -2.330138      0.851235      0.011103
  B      -2.427239     -0.963909     -0.015511
  B       0.409579     -2.415801     -0.010613
  B       2.028447     -1.592606      0.020497
12
Coordinates from ORCA-job input E -297.059562676669
  B       2.070533     -0.010225      0.023727
  B       1.785710      3.096426      0.003389
  B      -1.009323      1.750018      0.006198
  B      -3.594943      0.003121     -0.030678
  B      -1.042453     -1.740895     -0.016158
  B       1.773280     -3.090765     -0.004769
  B       1.935551      1.583939      0.004287
  B       0.383598      2.519992      0.006382
  B      -2.334368      0.853575      0.015520
  B      -2.427271     -0.961664     -0.017414
  B       0.415484     -2.403424     -0.011567
  B       2.044203     -1.600098      0.021084
12
Coordinates from ORCA-job input E -297.059599061596
  B       2.076938     -0.027063      0.026777
  B       1.783511      3.081651      0.001596
  B      -1.018869      1.757177      0.009957
  B      -3.600080      0.002294     -0.034825
  B      -1.031414     -1.714488     -0.017550
  B       1.767597     -3.097056     -0.002142
  B       1.912582      1.565781      0.001826
  B       0.374997      2.524364      0.004190
  B      -2.341702      0.856573      0.023777
  B      -2.429411     -0.958866     -0.021545
  B       0.427858     -2.374709     -0.010447
  B       2.077993     -1.615658      0.018385
12
Coordinates from ORCA-job input E -297.059761505076
  B       2.085693     -0.068425      0.013700
  B       1.780871      3.044571      0.014956
  B      -1.036556      1.773621      0.012329
  B      -3.609735      0.001998     -0.045717
  B      -1.008082     -1.651319     -0.011056
  B       1.751314     -3.105490      0.013652
  B       1.856527      1.520393     -0.000519
  B       0.354895      2.540020      0.003315
  B      -2.348768      0.854901      0.031336
  B      -2.440262     -0.960848     -0.030038
  B       0.458157     -2.298355      0.008424
  B       2.155946     -1.651067     -0.010382
12
Coordinates from ORCA-job input E -297.059867971470
  B       2.081423     -0.082359      0.005774
  B       1.780586      3.031493      0.022607
  B      -1.039198      1.777233      0.012551
  B      -3.610090      0.001930     -0.051433
  B      -1.002585     -1.633010     -0.008672
  B       1.746363     -3.105136      0.020257
  B       1.836310      1.505656     -0.004526
  B       0.350200      2.544306      0.004219
  B      -2.348124      0.852815      0.035904
  B      -2.442165     -0.961620     -0.033403
  B       0.469113     -2.270421      0.016938
  B       2.178167     -1.660888     -0.020214
12
Coordinates from ORCA-job input E -297.060016786046
  B       2.129743     -0.193388     -0.063468
  B       1.751591      2.918777      0.095610
  B      -1.033013      1.746445      0.037772
  B      -3.620648     -0.012503     -0.064513
  B      -0.976868     -1.454288     -0.032326
  B       1.629376     -3.039260      0.175106
  B       1.720143      1.385803     -0.060373
  B       0.319285      2.548352      0.013839
  B      -2.321860      0.785707      0.084778
  B      -2.483660     -1.000664     -0.087713
  B       0.555578     -1.941066      0.023754
  B       2.330332     -1.743915     -0.122467
12
Coordinates from ORCA-job input E -297.061433914446
  B       2.090629     -0.192817     -0.073600
  B       1.770813      2.916143      0.101776
  B      -1.030187      1.742461      0.036087
  B      -3.620676     -0.019511     -0.064932
  B      -0.961905     -1.434706     -0.030339
  B       1.629101     -3.038823      0.179992
  B       1.718208      1.381308     -0.058384
  B       0.319688      2.551630      0.015272
  B      -2.322519      0.781847      0.079452
  B      -2.482758     -1.008602     -0.086283
  B       0.562643     -1.937121      0.027113
  B       2.326963     -1.741808     -0.126153
12
Coordinates from ORCA-job input E -297.062115748115
  B       2.014726     -0.219924     -0.092658
  B       1.830159      2.877323      0.110583
  B      -1.012823      1.688584      0.036213
  B      -3.629152     -0.047260     -0.065514
  B      -0.934562     -1.294953     -0.033242
  B       1.575982     -3.022368      0.190511
  B       1.681564      1.363053     -0.051990
  B       0.313107      2.532183      0.014073
  B      -2.318595      0.744498      0.072521
  B      -2.495020     -1.049021     -0.076689
  B       0.590598     -1.830870      0.021355
  B       2.384014     -1.741244     -0.125163
12
Coordinates from ORCA-job input E -297.064145684053
  B       2.001675     -0.217978     -0.088663
  B       1.821399      2.882943      0.107526
  B      -1.001237      1.696706      0.033759
  B      -3.613109     -0.044345     -0.066674
  B      -0.946239     -1.326015     -0.020754
  B       1.585537     -3.010906      0.175959
  B       1.681206      1.367135     -0.046730
  B       0.321068      2.541656      0.013999
  B      -2.302523      0.746116      0.064768
  B      -2.493045     -1.053763     -0.075262
  B       0.586660     -1.845265      0.024556
  B       2.358607     -1.736284     -0.122484
12
Coordinates from ORCA-job input E -297.065817929822
  B       1.994360     -0.244528     -0.083331
  B       1.796689      2.868556      0.098927
  B      -0.994700      1.711662      0.038316
  B      -3.598458     -0.040047     -0.066842
  B      -0.948754     -1.324987     -0.026470
  B       1.588743     -3.004224      0.169581
  B       1.647132      1.347165     -0.047726
  B       0.321549      2.557751      0.013367
  B      -2.288434      0.746169      0.074543
  B      -2.491267     -1.051479     -0.079419
  B       0.596624     -1.814873      0.019206
  B       2.376515     -1.751165     -0.110152
12
Coordinates from ORCA-job input E -297.066578243638
  B       1.990709     -0.258396     -0.079245
  B       1.795425      2.856300      0.093647
  B      -0.987706      1.716010      0.040722
  B      -3.592678     -0.037484     -0.067788
  B      -0.950252     -1.318808     -0.028136
  B       1.574285     -2.992816      0.162634
  B       1.618911      1.330524     -0.045850
  B       0.320637      2.570114      0.010215
  B      -2.274487      0.736045      0.081130
  B      -2.495075     -1.060662     -0.081799
  B       0.604394     -1.786212      0.017899
  B       2.395836     -1.754614     -0.103430
12
Coordinates from ORCA-job input E -297.067756473142
  B       1.978744     -0.266684     -0.067518
  B       1.795419      2.847386      0.078598
  B      -0.960370      1.700360      0.045753
  B      -3.580207     -0.031119     -0.060516
  B      -0.960105     -1.314884     -0.040070
  B       1.544641     -2.969338      0.150631
  B       1.587170      1.318325     -0.041922
  B       0.324135      2.583940      0.005786
  B      -2.239387      0.703533      0.091604
  B      -2.499586     -1.077546     -0.088997
  B       0.606473     -1.744832      0.009676
  B       2.403072     -1.749141     -0.083026
12
Coordinates from ORCA-job input E -297.069644564341
  B       1.956043     -0.277515     -0.044778
  B       1.801832      2.831036      0.051250
  B      -0.917052      1.670920      0.051790
  B      -3.557674     -0.023668     -0.044428
  B      -0.969814     -1.294455     -0.060407
  B       1.491493     -2.937706      0.124514
  B       1.532217      1.300420     -0.034392
  B       0.322727      2.606724     -0.001463
  B      -2.177071      0.644529      0.106792
  B      -2.508595     -1.106157     -0.101334
  B       0.612463     -1.668122     -0.003083
  B       2.413432     -1.746005     -0.044460
12
Coordinates from ORCA-job input E -296.869987680988
  B       1.632488     -0.241817      0.128855
  B       1.802269      2.677523     -0.109571
  B      -0.508930      1.408600     -0.047043
  B      -3.086622      0.090867      0.272337
  B      -1.109574     -1.169555     -0.193009
  B       1.097669     -2.629358     -0.145439
  B       1.116330      1.273265      0.070836
  B       0.303963      2.727735      0.015348
  B      -1.501589      0.043882     -0.093322
  B      -2.531065     -1.312005     -0.135083
  B       0.504969     -1.270739      0.002739
  B       2.280093     -1.598398      0.233352
12
Coordinates from ORCA-job input E -297.026800903882
  B       1.810171     -0.203870      0.056147
  B       1.761642      2.995558     -0.056195
  B      -0.598109      1.682930     -0.022081
  B      -3.228755      0.207712      0.106868
  B      -1.198788     -1.843254      0.047429
  B       1.349992     -2.923354     -0.109640
  B       1.350291      1.450897      0.046834
  B       0.250788      2.954664      0.050601
  B      -1.655920      0.459483     -0.069748
  B      -2.629092     -1.266727     -0.192862
  B       0.450538     -1.730383      0.059689
  B       2.337243     -1.783655      0.082956
12
Coordinates from ORCA-job input E -297.050104692521
  B       1.842475     -0.237705      0.035086
  B       1.768824      2.948112     -0.020758
  B      -0.650903      1.651999     -0.019523
  B      -3.329213      0.181309      0.056368
  B      -1.146548     -1.734071      0.078346
  B       1.426520     -2.938881     -0.096807
  B       1.404521      1.406758      0.037344
  B       0.269403      2.890337      0.037271
  B      -1.784151      0.490862     -0.048533
  B      -2.635412     -1.206702     -0.176063
  B       0.488715     -1.688079      0.064337
  B       2.345769     -1.763939      0.052933
12
Coordinates from ORCA-job input E -297.038151467534
  B       1.870306     -0.238311     -0.030637
  B       1.826102      2.772261      0.044109
  B      -0.717570      1.513809      0.023554
  B      -3.402391      0.011177     -0.205524
  B      -1.055636     -1.372491      0.279637
  B       1.416510     -2.858857     -0.130338
  B       1.520645      1.304344      0.015871
  B       0.320922      2.679582      0.033908
  B      -1.974855      0.426529      0.028001
  B      -2.551681     -1.113675     -0.115679
  B       0.500382     -1.518879      0.117150
  B       2.247265     -1.605487     -0.060052
12
Coordinates from ORCA-job input E -297.065863852238
  B       1.864941     -0.237024     -0.019674
  B       1.809900      2.814428      0.046816
  B      -0.714869      1.552650      0.016942
  B      -3.410394      0.054506     -0.184791
  B      -1.049665     -1.382979      0.240385
  B       1.415190     -2.917378     -0.122991
  B       1.459839      1.327100      0.021899
  B       0.294683      2.724388      0.025083
  B      -1.952254      0.470500      0.027458
  B      -2.554548     -1.150433     -0.101944
  B       0.536789     -1.567889      0.098004
  B       2.300388     -1.687870     -0.047186
12
Coordinates from ORCA-job input E -297.055481556704
  B       1.891394     -0.246385     -0.002440
  B       1.772853      2.944095      0.121479
  B      -0.648556      1.618540     -0.035868
  B      -3.371432      0.057857      0.027748
  B      -1.111500     -1.359095      0.017838
  B       1.327821     -2.899379      0.046659
  B       1.389132      1.395775      0.046490
  B       0.322167      2.798015     -0.019202
  B      -1.822527      0.493991     -0.028903
  B      -2.618799     -1.338074     -0.098881
  B       0.536638     -1.661373     -0.017393
  B       2.332809     -1.803966     -0.057527
12
Coordinates from ORCA-job input E -297.073657678879
  B       1.850811     -0.275661     -0.033457
  B       1.800521      2.862149      0.102370
  B      -0.707410      1.608860     -0.018608
  B      -3.412237      0.038459     -0.033309
  B      -1.037417     -1.256531      0.041097
  B       1.415915     -2.946145      0.074919
  B       1.417858      1.326917      0.050599
  B       0.290969      2.775567      0.008506
  B      -1.932565      0.531898     -0.009882
  B      -2.604262     -1.267091     -0.091425
  B       0.559955     -1.627033     -0.002841
  B       2.357862     -1.771388     -0.087970
12
Coordinates from ORCA-job input E -297.076511423641
  B       1.847217     -0.251035     -0.042012
  B       1.802952      2.858157      0.090798
  B      -0.682461      1.578991     -0.008562
  B      -3.377587      0.045806     -0.070988
  B      -1.072905     -1.267582      0.093127
  B       1.391255     -2.916309      0.050812
  B       1.432049      1.338684      0.043132
  B       0.299191      2.764799      0.024465
  B      -1.883473      0.459506     -0.013017
  B      -2.606557     -1.269327     -0.096620
  B       0.522752     -1.610530      0.029412
  B       2.327568     -1.731161     -0.100548
12
Coordinates from ORCA-job input E -297.077401643234
  B       1.847889     -0.252203     -0.048724
  B       1.807392      2.851070      0.085823
  B      -0.692364      1.578919     -0.001987
  B      -3.389232      0.044759     -0.066071
  B      -1.072743     -1.268581      0.066919
  B       1.408792     -2.916383      0.065525
  B       1.440679      1.340894      0.028575
  B       0.304629      2.754372      0.038878
  B      -1.902721      0.465472     -0.008588
  B      -2.600701     -1.256953     -0.101312
  B       0.525317     -1.617208      0.039787
  B       2.323065     -1.724159     -0.098826
12
Coordinates from ORCA-job input E -297.078736680617
  B       1.825351     -0.257116     -0.084421
  B       1.807924      2.837789      0.097948
  B      -0.697845      1.582881      0.011124
  B      -3.391740      0.060816     -0.110095
  B      -1.071825     -1.275947      0.080769
  B       1.447337     -2.921806      0.088794
  B       1.423307      1.343066      0.002733
  B       0.306594      2.751017      0.064715
  B      -1.907744      0.470939     -0.008402
  B      -2.594501     -1.231149     -0.096994
  B       0.532768     -1.650161      0.095129
  B       2.320374     -1.710328     -0.141301
12
Coordinates from ORCA-job input E -297.078512377069
  B       1.729408     -0.264198     -0.159264
  B       1.805072      2.816398      0.114470
  B      -0.689706      1.602892      0.043127
  B      -3.370945      0.127635     -0.187824
  B      -1.076771     -1.361472      0.088103
  B       1.567379     -2.934427      0.163197
  B       1.357836      1.357017     -0.046092
  B       0.308670      2.772184      0.116718
  B      -1.883182      0.482390      0.004439
  B      -2.584150     -1.158380     -0.107920
  B       0.545755     -1.773239      0.209568
  B       2.290634     -1.666801     -0.238521
12
Coordinates from ORCA-job input E -297.080563112639
  B       1.737361     -0.273079     -0.139628
  B       1.799142      2.811578      0.114482
  B      -0.692229      1.612264      0.032392
  B      -3.365365      0.104583     -0.176959
  B      -1.055796     -1.297276      0.120201
  B       1.526123     -2.941464      0.126535
  B       1.342166      1.339174     -0.038625
  B       0.297347      2.786217      0.106104
  B      -1.870764      0.475694     -0.003747
  B      -2.573744     -1.183496     -0.108980
  B       0.544101     -1.739721      0.178795
  B       2.311657     -1.694474     -0.210570
12
Coordinates from ORCA-job input E -297.081372043203
  B       1.713369     -0.267803     -0.143106
  B       1.804182      2.813166      0.105640
  B      -0.686941      1.622960      0.042090
  B      -3.359071      0.101226     -0.172299
  B      -1.046607     -1.292125      0.109677
  B       1.537643     -2.950476      0.152238
  B       1.331884      1.340308     -0.047561
  B       0.296969      2.804167      0.115737
  B      -1.859229      0.476196      0.008665
  B      -2.566177     -1.187494     -0.122304
  B       0.532018     -1.768158      0.158265
  B       2.301958     -1.691966     -0.207043
12
Coordinates from ORCA-job input E -297.081648764564
  B       1.657373     -0.264773     -0.147773
  B       1.796621      2.806853      0.106009
  B      -0.665203      1.640745      0.032243
  B      -3.324434      0.122911     -0.128201
  B      -1.036056     -1.310540      0.101407
  B       1.566253     -2.955927      0.178894
  B       1.285598      1.335223     -0.047416
  B       0.290760      2.842082      0.132306
  B      -1.804182      0.458125     -0.029606
  B      -2.560953     -1.180554     -0.141708
  B       0.518673     -1.814325      0.156951
  B       2.275549     -1.679821     -0.213105
12
Coordinates from ORCA-job input E -297.081948185456
  B       1.664813     -0.252591     -0.159581
  B       1.807105      2.816243      0.097459
  B      -0.660952      1.629993      0.047892
  B      -3.329974      0.120471     -0.153788
  B      -1.049503     -1.324380      0.086710
  B       1.571791     -2.949989      0.207761
  B       1.307149      1.345235     -0.042950
  B       0.296673      2.834119      0.134420
  B      -1.816279      0.460624     -0.000861
  B      -2.568357     -1.189213     -0.135655
  B       0.512117     -1.814462      0.144948
  B       2.265417     -1.676049     -0.226354
12
Coordinates from ORCA-job input E -297.082038101762
  B       1.677724     -0.256593     -0.152357
  B       1.806347      2.817427      0.091063
  B      -0.669525      1.628198      0.052305
  B      -3.345242      0.113036     -0.143290
  B      -1.046183     -1.313410      0.077893
  B       1.564405     -2.955052      0.189254
  B       1.319623      1.346816     -0.052527
  B       0.296707      2.825097      0.135938
  B      -1.836627      0.474182     -0.005475
  B      -2.567583     -1.186456     -0.139109
  B       0.517394     -1.814662      0.154064
  B       2.282960     -1.678585     -0.207760
12
Coordinates from ORCA-job input E -297.082097707496
  B       1.652288     -0.264471     -0.148756
  B       1.804615      2.802711      0.073010
  B      -0.662670      1.629120      0.071676
  B      -3.328673      0.127345     -0.172139
  B      -1.047818     -1.311563      0.084122
  B       1.581928     -2.952208      0.188079
  B       1.290111      1.343406     -0.073565
  B       0.296447      2.832942      0.153078
  B      -1.820659      0.465063      0.015894
  B      -2.568232     -1.179580     -0.145505
  B       0.517165     -1.824181      0.162604
  B       2.285498     -1.668583     -0.208499
12
Coordinates from ORCA-job input E -297.082329633662
  B       1.652266     -0.260013     -0.165170
  B       1.803805      2.803578      0.061466
  B      -0.650958      1.622557      0.078935
  B      -3.320663      0.126244     -0.157109
  B      -1.053942     -1.314112      0.073235
  B       1.578819     -2.943698      0.207396
  B       1.290126      1.341360     -0.068210
  B       0.296757      2.834581      0.167687
  B      -1.810399      0.458312      0.005658
  B      -2.574720     -1.188083     -0.155429
  B       0.511375     -1.812676      0.156099
  B       2.277534     -1.668052     -0.204559
12
Coordinates from ORCA-job input E -297.082509165150
  B       1.654630     -0.253707     -0.140927
  B       1.804712      2.813609      0.026754
  B      -0.637554      1.609334      0.091524
  B      -3.324876      0.116115     -0.118080
  B      -1.055318     -1.312917      0.026791
  B       1.565003     -2.942448      0.218910
  B       1.307483      1.344524     -0.066952
  B       0.297648      2.833498      0.176109
  B      -1.816068      0.460505      0.009663
  B      -2.576522     -1.198354     -0.175870
  B       0.505159     -1.803346      0.133714
  B       2.275702     -1.666814     -0.181635
12
Coordinates from ORCA-job input E -297.082701875934
  B       1.637516     -0.253715     -0.186770
  B       1.797506      2.814917      0.005729
  B      -0.621253      1.596873      0.123027
  B      -3.318739      0.124953     -0.131158
  B      -1.057991     -1.313982      0.021840
  B       1.575418     -2.939673      0.246181
  B       1.301595      1.349160     -0.101234
  B       0.295696      2.830591      0.221539
  B      -1.812743      0.467293      0.016495
  B      -2.578208     -1.194166     -0.190606
  B       0.501565     -1.821966      0.133402
  B       2.279637     -1.660285     -0.158445
12
Coordinates from ORCA-job input E -297.082919588340
  B       1.622714     -0.268528     -0.155522
  B       1.786945      2.812267     -0.030514
  B      -0.607752      1.577219      0.137386
  B      -3.323726      0.132426     -0.139092
  B      -1.054892     -1.301747      0.028339
  B       1.577578     -2.941834      0.214057
  B       1.296168      1.345472     -0.108330
  B       0.292184      2.823311      0.235617
  B      -1.820350      0.473172      0.015101
  B      -2.578646     -1.184249     -0.192468
  B       0.511324     -1.812273      0.128451
  B       2.298452     -1.655235     -0.133024
12
Coordinates from ORCA-job input E -297.083023120998
  B       1.629275     -0.265422     -0.168375
  B       1.782060      2.818657     -0.030576
  B      -0.597237      1.560816      0.135797
  B      -3.324899      0.131859     -0.136026
  B      -1.058206     -1.297155      0.025997
  B       1.565525     -2.934874      0.218906
  B       1.302725      1.347410     -0.126705
  B       0.292545      2.814603      0.251134
  B      -1.817392      0.462040      0.019500
  B      -2.579391     -1.183742     -0.196410
  B       0.506201     -1.799716      0.123930
  B       2.298795     -1.654476     -0.117174
12
Coordinates from ORCA-job input E -297.083073666038
  B       1.636749     -0.268542     -0.166593
  B       1.779436      2.819282     -0.038205
  B      -0.606500      1.561332      0.133897
  B      -3.337545      0.131074     -0.138175
  B      -1.051806     -1.290710      0.027178
  B       1.569944     -2.936319      0.216570
  B       1.305833      1.343446     -0.124229
  B       0.294626      2.807829      0.255832
  B      -1.829778      0.466455      0.021949
  B      -2.573167     -1.172589     -0.194988
  B       0.507257     -1.804751      0.118736
  B       2.304952     -1.656509     -0.111971
12
Coordinates from ORCA-job input E -297.083114371400
  B       1.633982     -0.265330     -0.168399
  B       1.775859      2.821394     -0.054808
  B      -0.596752      1.554081      0.142971
  B      -3.335905      0.134475     -0.133071
  B      -1.050977     -1.296465      0.011930
  B       1.570424     -2.934735      0.230136
  B       1.300888      1.344556     -0.126826
  B       0.295388      2.807796      0.269204
  B      -1.826893      0.465903      0.026655
  B      -2.573615     -1.169431     -0.203987
  B       0.505523     -1.808210      0.114953
  B       2.302078     -1.654036     -0.108758
12
Coordinates from ORCA-job input E -297.083137870874
  B       1.638824     -0.267166     -0.172632
  B       1.768564      2.822311     -0.072956
  B      -0.595686      1.549033      0.159329
  B      -3.336078      0.138434     -0.134811
  B      -1.050847     -1.292653      0.002019
  B       1.567801     -2.933401      0.235625
  B       1.296692      1.341908     -0.136698
  B       0.296965      2.801343      0.283260
  B      -1.826602      0.464781      0.035082
  B      -2.573403     -1.166014     -0.214083
  B       0.507809     -1.804056      0.115050
  B       2.305961     -1.654520     -0.099185
12
Coordinates from ORCA-job input E -297.083149980605
  B       1.640832     -0.267384     -0.168648
  B       1.764304      2.823344     -0.085347
  B      -0.595637      1.547230      0.166629
  B      -3.335890      0.139593     -0.134845
  B      -1.048880     -1.289628     -0.002595
  B       1.565227     -2.934563      0.236523
  B       1.297055      1.342474     -0.136820
  B       0.296394      2.799643      0.288135
  B      -1.827037      0.464851      0.038819
  B      -2.571606     -1.164937     -0.217852
  B       0.508742     -1.804214      0.110785
  B       2.306497     -1.656408     -0.094783
12
Coordinates from ORCA-job input E -297.083161971734
  B       1.641857     -0.267844     -0.167474
  B       1.758544      2.823918     -0.104104
  B      -0.597334      1.548468      0.179948
  B      -3.334512      0.141618     -0.136682
  B      -1.047894     -1.287640     -0.010270
  B       1.566091     -2.935303      0.240467
  B       1.293927      1.341578     -0.145681
  B       0.300078      2.796758      0.302274
  B      -1.826325      0.464752      0.046213
  B      -2.570661     -1.162744     -0.225594
  B       0.508657     -1.807367      0.105445
  B       2.307573     -1.656194     -0.084541
12
Coordinates from ORCA-job input E -297.083172698000
  B       1.645875     -0.267248     -0.170094
  B       1.751944      2.824538     -0.123833
  B      -0.596288      1.546863      0.191624
  B      -3.333499      0.142197     -0.133669
  B      -1.048302     -1.286409     -0.019474
  B       1.563465     -2.934475      0.245782
  B       1.291808      1.341721     -0.157673
  B       0.304772      2.792209      0.322030
  B      -1.825574      0.464342      0.050455
  B      -2.571368     -1.161988     -0.234772
  B       0.508340     -1.805880      0.098278
  B       2.308827     -1.655868     -0.068657
12
Coordinates from ORCA-job input E -297.083180787426
  B       1.642333     -0.265938     -0.170772
  B       1.749492      2.827512     -0.131893
  B      -0.593845      1.546200      0.196266
  B      -3.331391      0.144044     -0.134043
  B      -1.050347     -1.291234     -0.020998
  B       1.564623     -2.935059      0.247803
  B       1.291903      1.344201     -0.165767
  B       0.307857      2.790792      0.332218
  B      -1.822566      0.463281      0.052436
  B      -2.572478     -1.161585     -0.239062
  B       0.507311     -1.808724      0.095454
  B       2.307108     -1.653489     -0.061641
12
Coordinates from ORCA-job input E -297.083186312670
  B       1.642259     -0.266446     -0.173726
  B       1.748242      2.827610     -0.136810
  B      -0.594613      1.546345      0.198916
  B      -3.331889      0.143307     -0.131767
  B      -1.051032     -1.290936     -0.021977
  B       1.564078     -2.934107      0.249673
  B       1.292178      1.343504     -0.170206
  B       0.310406      2.788044      0.338703
  B      -1.822812      0.463344      0.053947
  B      -2.572353     -1.161155     -0.244859
  B       0.507228     -1.807031      0.094911
  B       2.308308     -1.652481     -0.056804
12
Coordinates from ORCA-job input E -297.083193583581
  B       1.637489     -0.267296     -0.182985
  B       1.738653      2.827685     -0.162656
  B      -0.590841      1.542229      0.217585
  B      -3.329182      0.144577     -0.127484
  B      -1.051207     -1.289752     -0.029868
  B       1.563093     -2.931379      0.259712
  B       1.287715      1.342337     -0.186982
  B       0.318460      2.780013      0.364333
  B      -1.819683      0.461753      0.063929
  B      -2.569949     -1.157063     -0.268789
  B       0.506321     -1.804670      0.093522
  B       2.309131     -1.648434     -0.040317
12
Coordinates from ORCA-job input E -297.083201332974
  B       1.635988     -0.268408     -0.185058
  B       1.735549      2.828461     -0.171158
  B      -0.591808      1.541350      0.226371
  B      -3.329544      0.144064     -0.125696
  B      -1.049872     -1.287736     -0.033784
  B       1.562913     -2.930424      0.264176
  B       1.288939      1.341076     -0.189723
  B       0.320721      2.776914      0.367883
  B      -1.820927      0.461875      0.070387
  B      -2.567748     -1.154768     -0.279813
  B       0.506346     -1.804182      0.095143
  B       2.309444     -1.648222     -0.038729
12
Coordinates from ORCA-job input E -297.083209403454
  B       1.627514     -0.269837     -0.189914
  B       1.729993      2.828455     -0.186967
  B      -0.589228      1.538337      0.242665
  B      -3.325921      0.144261     -0.121052
  B      -1.046898     -1.285892     -0.043190
  B       1.562523     -2.928114      0.275764
  B       1.287360      1.341376     -0.194873
  B       0.323488      2.774617      0.375006
  B      -1.818805      0.459273      0.084169
  B      -2.562395     -1.150114     -0.303168
  B       0.505245     -1.805044      0.099306
  B       2.307124     -1.647318     -0.037745
12
Coordinates from ORCA-job input E -297.083212175219
  B       1.626155     -0.272447     -0.193969
  B       1.717636      2.827330     -0.213959
  B      -0.588919      1.535912      0.265273
  B      -3.325036      0.145533     -0.116960
  B      -1.043523     -1.280948     -0.058106
  B       1.562646     -2.925549      0.287174
  B       1.281085      1.337633     -0.210976
  B       0.332308      2.766459      0.395320
  B      -1.819391      0.458914      0.099674
  B      -2.558014     -1.142519     -0.327240
  B       0.506027     -1.804622      0.096599
  B       2.309024     -1.645697     -0.022830
12
Coordinates from ORCA-job input E -297.083214348231
  B       1.626190     -0.270757     -0.195349
  B       1.716310      2.829296     -0.214505
  B      -0.585061      1.533327      0.266878
  B      -3.323016      0.147656     -0.117523
  B      -1.045008     -1.284497     -0.058379
  B       1.562652     -2.925825      0.288527
  B       1.280711      1.339756     -0.212511
  B       0.331559      2.767655      0.396925
  B      -1.816750      0.457767      0.098469
  B      -2.559315     -1.142895     -0.326641
  B       0.504807     -1.806172      0.095824
  B       2.306922     -1.645311     -0.021715
12
Coordinates from ORCA-job input E -297.083216839385
  B       1.627553     -0.270999     -0.195160
  B       1.720053      2.828639     -0.208329
  B      -0.587669      1.535672      0.262159
  B      -3.324647      0.145918     -0.116442
  B      -1.045705     -1.284858     -0.056170
  B       1.562718     -2.925590      0.287811
  B       1.283155      1.340072     -0.210044
  B       0.330163      2.769149      0.392454
  B      -1.818114      0.458286      0.096760
  B      -2.560083     -1.144095     -0.323816
  B       0.504919     -1.806131      0.095262
  B       2.307656     -1.646063     -0.024485
12
Coordinates from ORCA-job input E -297.083218506858
  B       1.626482     -0.271918     -0.195240
  B       1.718211      2.827864     -0.212641
  B      -0.587296      1.534979      0.265888
  B      -3.324632      0.145686     -0.113793
  B      -1.045156     -1.283957     -0.059050
  B       1.562592     -2.924713      0.290216
  B       1.281779      1.339033     -0.212920
  B       0.331278      2.768105      0.394858
  B      -1.818084      0.458019      0.100412
  B      -2.558737     -1.141956     -0.330459
  B       0.505063     -1.805491      0.094868
  B       2.308500     -1.645651     -0.022140
12
Coordinates from ORCA-job input E -297.083220633710
  B       1.626022     -0.272691     -0.196909
  B       1.715697      2.827113     -0.217623
  B      -0.586397      1.533653      0.271708
  B      -3.324426      0.145685     -0.110017
  B      -1.044798     -1.283631     -0.062665
  B       1.562591     -2.923388      0.295064
  B       1.279870      1.337880     -0.216767
  B       0.332197      2.767112      0.397432
  B      -1.817856      0.457561      0.105584
  B      -2.556940     -1.138616     -0.340355
  B       0.504919     -1.805344      0.094403
  B       2.309122     -1.645334     -0.019855
12
Coordinates from ORCA-job input E -297.083221581028
  B       1.626179     -0.272737     -0.196623
  B       1.716033      2.826640     -0.217148
  B      -0.586266      1.533784      0.272122
  B      -3.324246      0.145492     -0.108215
  B      -1.044857     -1.284036     -0.062603
  B       1.562626     -2.923276      0.296023
  B       1.279106      1.337701     -0.216412
  B       0.331430      2.768001      0.395760
  B      -1.817677      0.457551      0.106589
  B      -2.556275     -1.137833     -0.343041
  B       0.504874     -1.805616      0.094144
  B       2.309072     -1.645670     -0.020596
12
Coordinates from ORCA-job input E -297.083221875352
  B       1.626658     -0.272484     -0.196998
  B       1.716098      2.826619     -0.217285
  B      -0.586455      1.533974      0.272654
  B      -3.324148      0.145325     -0.107954
  B      -1.044889     -1.284134     -0.062189
  B       1.562590     -2.923380      0.296373
  B       1.278894      1.337743     -0.216129
  B       0.331428      2.768068      0.395287
  B      -1.817722      0.457570      0.107110
  B      -2.555990     -1.137687     -0.344239
  B       0.504830     -1.805784      0.094272
  B       2.308707     -1.645830     -0.020902
