12
Coordinates from ORCA-job input E -297.083221875352
  B           1.62665823574761     -0.27248429222727     -0.19699762931630
  B           1.71609786492853      2.82661923438172     -0.21728504662451
  B          -0.58645498034605      1.53397425067657      0.27265377775827
  B          -3.32414794168551      0.14532484162440     -0.10795362074578
  B          -1.04488930500124     -1.28413388970773     -0.06218864507655
  B           1.56259017226943     -2.92338038950736      0.29637326157390
  B           1.27889360241933      1.33774284367853     -0.21612929450879
  B           0.33142774282153      2.76806811180230      0.39528682513129
  B          -1.81772167279143      0.45757035468396      0.10711010191290
  B          -2.55599043856027     -1.13768696899247     -0.34423911649874
  B           0.50482986052184     -1.80578425574846      0.09427188071877
  B           2.30870685967622     -1.64582984066420     -0.02090249432445
