12
Optimized coordinates extracted from calculations\B12\bilayer_3d\d_5.0\mult_1\output.out
B        1.62665824      -0.27248429      -0.19699763
B        1.71609786       2.82661923      -0.21728505
B       -0.58645498       1.53397425       0.27265378
B       -3.32414794       0.14532484      -0.10795362
B       -1.04488931      -1.28413389      -0.06218865
B        1.56259017      -2.92338039       0.29637326
B        1.27889360       1.33774284      -0.21612929
B        0.33142774       2.76806811       0.39528683
B       -1.81772167       0.45757035       0.10711010
B       -2.55599044      -1.13768697      -0.34423912
B        0.50482986      -1.80578426       0.09427188
B        2.30870686      -1.64582984      -0.02090249
