12
B12 bilayer_3d; neutral charge=0; multiplicity=1; 3D initial geometry; nominal d=5.0 A; Two staggered non-planar B6 layers.
B        5.00000000      -0.00000000       1.55000000
B        2.50000000       4.33012702       1.55000000
B       -2.50000000       4.33012702       1.55000000
B       -5.00000000       0.00000000       1.55000000
B       -2.50000000      -4.33012702       1.55000000
B        2.50000000      -4.33012702       1.55000000
B        4.07031940       2.35000000      -1.55000000
B        0.00000000       4.70000000      -1.55000000
B       -4.07031940       2.35000000      -1.55000000
B       -4.07031940      -2.35000000      -1.55000000
B       -0.00000000      -4.70000000      -1.55000000
B        4.07031940      -2.35000000      -1.55000000
