12
B12 planar_double_ring; neutral charge=0; multiplicity=5; planar initial geometry; nominal d=2.5 A; Planar B6@B6 double-ring control motif.
B        2.50000000       0.00000000       0.00000000
B        1.25000000       2.16506351       0.00000000
B       -1.25000000       2.16506351       0.00000000
B       -2.50000000       0.00000000       0.00000000
B       -1.25000000      -2.16506351       0.00000000
B        1.25000000      -2.16506351       0.00000000
B        3.75000000       2.16506351       0.00000000
B        0.00000000       4.33012702       0.00000000
B       -3.75000000       2.16506351       0.00000000
B       -3.75000000      -2.16506351       0.00000000
B       -0.00000000      -4.33012702       0.00000000
B        3.75000000      -2.16506351       0.00000000
