12
Coordinates from ORCA-job input E -297.264683288679
  B           1.57262631499349     -0.00106501456818      0.76429076826371
  B           0.80642323354008      1.43288513451307      0.74946673942990
  B          -0.80652750877084      1.43304886952941      0.74941122216194
  B          -1.57253279327021     -0.00096248318838      0.76437107908643
  B          -0.80652943459868     -1.43499541362861      0.74572367357954
  B           0.80655904344514     -1.43501403633976      0.74565142547656
  B           1.25686870423983      0.81977421880336     -0.77219799077832
  B           0.00001955843238      1.82310417719587     -0.71037626778828
  B          -1.25682396520423      0.81978966314363     -0.77224328400823
  B          -1.25740650504428     -0.81798992944842     -0.77433287833467
  B          -0.00000135935103     -1.82062059035788     -0.71530708915339
  B           1.25732471158834     -0.81795459565411     -0.77445739793521
