12
Coordinates from ORCA-job input E -296.358987190405
  B       2.500000     -0.000000      0.775000
  B       1.250000      2.165064      0.775000
  B      -1.250000      2.165064      0.775000
  B      -2.500000      0.000000      0.775000
  B      -1.250000     -2.165064      0.775000
  B       1.250000     -2.165064      0.775000
  B       2.035160      1.175000     -0.775000
  B       0.000000      2.350000     -0.775000
  B      -2.035160      1.175000     -0.775000
  B      -2.035160     -1.175000     -0.775000
  B      -0.000000     -2.350000     -0.775000
  B       2.035160     -1.175000     -0.775000
12
Coordinates from ORCA-job input E -296.476491963582
  B       2.418732     -0.000000      0.774776
  B       1.209372      2.094640      0.774925
  B      -1.209372      2.094640      0.774925
  B      -2.418732      0.000000      0.774776
  B      -1.209372     -2.094640      0.774925
  B       1.209372     -2.094640      0.774925
  B       1.890791      1.091751     -0.774911
  B      -0.000000      2.183483     -0.774804
  B      -1.890791      1.091751     -0.774911
  B      -1.890791     -1.091751     -0.774911
  B       0.000000     -2.183483     -0.774804
  B       1.890791     -1.091751     -0.774911
12
Coordinates from ORCA-job input E -296.635893787647
  B       2.344928     -0.000000      0.770794
  B       1.172503      2.030711      0.771160
  B      -1.172503      2.030711      0.771160
  B      -2.344928     -0.000000      0.770794
  B      -1.172503     -2.030711      0.771160
  B       1.172503     -2.030711      0.771160
  B       1.742112      1.006077     -0.771119
  B      -0.000000      2.012029     -0.770875
  B      -1.742112      1.006077     -0.771119
  B      -1.742112     -1.006077     -0.771119
  B       0.000000     -2.012029     -0.770875
  B       1.742112     -1.006077     -0.771119
12
Coordinates from ORCA-job input E -296.874460442828
  B       2.216738     -0.005607      0.765790
  B       1.111995      1.910436      0.767747
  B      -1.111995      1.910436      0.767747
  B      -2.216738     -0.005607      0.765790
  B      -1.113234     -1.903244      0.768294
  B       1.113234     -1.903244      0.768294
  B       1.521920      0.868266     -0.767899
  B      -0.000000      1.750688     -0.762745
  B      -1.521920      0.868266     -0.767899
  B      -1.520407     -0.872612     -0.770936
  B       0.000000     -1.745168     -0.763247
  B       1.520407     -0.872612     -0.770936
12
Coordinates from ORCA-job input E -297.042646239214
  B       1.997267     -0.028225      0.770433
  B       1.027818      1.713412      0.787080
  B      -1.027818      1.713412      0.787080
  B      -1.997267     -0.028225      0.770433
  B      -1.016006     -1.677919      0.790597
  B       1.016006     -1.677919      0.790597
  B       1.367372      0.764166     -0.787610
  B       0.000000      1.572778     -0.758656
  B      -1.367372      0.764166     -0.787610
  B      -1.351979     -0.781362     -0.796442
  B       0.000000     -1.552924     -0.769461
  B       1.351978     -0.781362     -0.796442
12
Coordinates from ORCA-job input E -297.182374814518
  B       1.615852     -0.048266      0.782036
  B       0.896805      1.364741      0.822160
  B      -0.896803      1.364743      0.822160
  B      -1.615854     -0.048267      0.782035
  B      -0.830631     -1.267945      0.805904
  B       0.830632     -1.267943      0.805904
  B       1.341695      0.710361     -0.813905
  B       0.000001      1.504481     -0.743050
  B      -1.341695      0.710362     -0.813905
  B      -1.320239     -0.768356     -0.832166
  B       0.000000     -1.485557     -0.785009
  B       1.320238     -0.768354     -0.832166
12
Coordinates from ORCA-job input E -297.199711021385
  B       1.557688      0.096945      0.794711
  B       0.751386      1.361529      0.784858
  B      -0.751405      1.361533      0.784861
  B      -1.557680      0.096964      0.794712
  B      -0.697702     -1.426941      0.756845
  B       0.697715     -1.426956      0.756847
  B       1.380728      0.837645     -0.792019
  B      -0.000014      1.569832     -0.780817
  B      -1.380735      0.837653     -0.792020
  B      -1.454250     -0.818337     -0.725261
  B       0.000007     -1.671506     -0.857460
  B       1.454262     -0.818361     -0.725259
12
Coordinates from ORCA-job input E -297.119383221700
  B       1.845840      0.001799      0.725088
  B       0.854919      1.629410      0.766651
  B      -0.854919      1.629435      0.766651
  B      -1.845852      0.001795      0.725089
  B      -0.959675     -1.629807      0.750553
  B       0.959686     -1.629817      0.750557
  B       1.500063      0.926867     -0.748705
  B      -0.000000      1.794513     -0.756604
  B      -1.500083      0.926880     -0.748696
  B      -1.549855     -0.925042     -0.739841
  B       0.000010     -1.800981     -0.750912
  B       1.549865     -0.925053     -0.739833
12
Coordinates from ORCA-job input E -297.217546602497
  B       1.760681     -0.042508      0.756629
  B       0.740209      1.500102      0.738755
  B      -0.740171      1.500154      0.738801
  B      -1.760670     -0.042625      0.756627
  B      -0.866771     -1.478995      0.737256
  B       0.866736     -1.479062      0.737311
  B       1.461967      0.858508     -0.714575
  B      -0.000022      1.673836     -0.808319
  B      -1.462025      0.858554     -0.714499
  B      -1.474359     -0.874793     -0.732730
  B       0.000017     -1.598327     -0.762606
  B       1.474407     -0.874844     -0.732651
12
Coordinates from ORCA-job input E -297.243410011541
  B       1.721560     -0.011658      0.747752
  B       0.845455      1.391364      0.750873
  B      -0.845440      1.391428      0.750877
  B      -1.721566     -0.011721      0.747750
  B      -0.783766     -1.376991      0.744891
  B       0.783762     -1.377021      0.744893
  B       1.404111      0.789065     -0.751556
  B       0.000010      1.577230     -0.746134
  B      -1.404159      0.789087     -0.751525
  B      -1.383328     -0.829163     -0.730613
  B      -0.000009     -1.502449     -0.776618
  B       1.383371     -0.829171     -0.730589
12
Coordinates from ORCA-job input E -297.238258242763
  B       1.545130      0.039042      0.731726
  B       0.794044      1.395337      0.760141
  B      -0.793616      1.395057      0.760032
  B      -1.545128      0.038658      0.731729
  B      -0.808201     -1.414833      0.739749
  B       0.807774     -1.414506      0.739647
  B       1.207173      0.839007     -0.757533
  B       0.000298      1.676159     -0.711966
  B      -1.206865      0.838479     -0.757579
  B      -1.322666     -0.812565     -0.748212
  B      -0.000260     -1.767762     -0.739464
  B       1.322318     -0.812074     -0.748269
12
Coordinates from ORCA-job input E -297.247928061627
  B       1.519972     -0.017155      0.777380
  B       0.753678      1.511084      0.716050
  B      -0.753333      1.510645      0.716323
  B      -1.519787     -0.017373      0.777321
  B      -0.778867     -1.503184      0.716222
  B       0.778364     -1.502933      0.716315
  B       1.285515      0.819562     -0.723091
  B      -0.000300      1.887528     -0.760264
  B      -1.284952      0.819531     -0.722992
  B      -1.335207     -0.829456     -0.725841
  B      -0.000101     -1.848857     -0.761715
  B       1.335020     -0.829390     -0.725708
12
Coordinates from ORCA-job input E -297.258018115657
  B       1.591986      0.007613      0.732600
  B       0.815688      1.408402      0.729071
  B      -0.815437      1.408190      0.729151
  B      -1.592041      0.007651      0.732654
  B      -0.819968     -1.447937      0.746373
  B       0.819733     -1.447574      0.746453
  B       1.306584      0.815261     -0.762248
  B       0.000030      1.885119     -0.701811
  B      -1.306367      0.815112     -0.762296
  B      -1.306137     -0.835338     -0.733957
  B       0.000079     -1.781214     -0.721988
  B       1.305852     -0.835285     -0.734001
12
Coordinates from ORCA-job input E -297.261617760254
  B       1.580366     -0.008892      0.729244
  B       0.821469      1.446961      0.742926
  B      -0.821173      1.446763      0.743030
  B      -1.580327     -0.009087      0.729231
  B      -0.791728     -1.441971      0.743923
  B       0.791386     -1.441767      0.743908
  B       1.247747      0.821343     -0.752495
  B       0.000043      1.849981     -0.708574
  B      -1.247518      0.821201     -0.752539
  B      -1.260556     -0.844712     -0.744882
  B      -0.000162     -1.795379     -0.728868
  B       1.260452     -0.844443     -0.744904
12
Coordinates from ORCA-job input E -297.259762427414
  B       1.602646     -0.003706      0.755005
  B       0.797043      1.440642      0.743813
  B      -0.796941      1.440565      0.744011
  B      -1.602582     -0.003727      0.755025
  B      -0.810864     -1.421896      0.727621
  B       0.810700     -1.421878      0.727765
  B       1.249197      0.797010     -0.737530
  B      -0.000146      1.775942     -0.735939
  B      -1.249159      0.797184     -0.737474
  B      -1.311723     -0.796978     -0.751020
  B       0.000082     -1.805946     -0.740338
  B       1.311747     -0.797213     -0.750939
12
Coordinates from ORCA-job input E -297.263481486626
  B       1.602263     -0.000585      0.735628
  B       0.793131      1.426399      0.749284
  B      -0.793217      1.426514      0.749206
  B      -1.602344     -0.000262      0.735708
  B      -0.813059     -1.426670      0.742145
  B       0.813216     -1.426632      0.742174
  B       1.257605      0.827220     -0.754469
  B       0.000092      1.833447     -0.713903
  B      -1.257834      0.827320     -0.754576
  B      -1.296370     -0.834619     -0.756493
  B       0.000177     -1.817249     -0.718101
  B       1.296340     -0.834884     -0.756605
12
Coordinates from ORCA-job input E -297.263076216721
  B       1.567255      0.005187      0.743223
  B       0.815799      1.427696      0.747668
  B      -0.815566      1.427552      0.747898
  B      -1.566975      0.004677      0.743109
  B      -0.789207     -1.436490      0.746128
  B       0.788799     -1.436652      0.746162
  B       1.246032      0.809350     -0.766593
  B      -0.000175      1.845944     -0.706998
  B      -1.245840      0.809557     -0.766476
  B      -1.257412     -0.825843     -0.752490
  B      -0.000345     -1.805355     -0.729305
  B       1.257635     -0.825621     -0.752325
12
Coordinates from ORCA-job input E -297.264172768890
  B       1.601752     -0.003172      0.750218
  B       0.813121      1.431329      0.749827
  B      -0.813007      1.431229      0.749695
  B      -1.601923     -0.002881      0.750389
  B      -0.802729     -1.427840      0.742691
  B       0.802665     -1.427270      0.742697
  B       1.270621      0.820604     -0.760452
  B       0.000236      1.801070     -0.719431
  B      -1.270497      0.820257     -0.760527
  B      -1.288860     -0.826242     -0.757514
  B       0.000245     -1.790743     -0.729949
  B       1.288375     -0.826342     -0.757643
12
Coordinates from ORCA-job input E -297.263365037123
  B       1.563717      0.005938      0.756098
  B       0.782353      1.429113      0.747215
  B      -0.782247      1.428978      0.747580
  B      -1.563023      0.005242      0.755844
  B      -0.814399     -1.442520      0.742860
  B       0.813859     -1.443105      0.742873
  B       1.248917      0.821918     -0.764130
  B      -0.000499      1.837731     -0.720462
  B      -1.248613      0.822437     -0.764018
  B      -1.276350     -0.820370     -0.762281
  B      -0.000701     -1.825424     -0.719541
  B       1.276987     -0.819937     -0.762038
12
Coordinates from ORCA-job input E -297.264480690825
  B       1.597199     -0.002675      0.745273
  B       0.803608      1.421229      0.753241
  B      -0.804007      1.422128      0.752962
  B      -1.597433     -0.001964      0.745617
  B      -0.803546     -1.422739      0.747806
  B       0.803887     -1.422250      0.747811
  B       1.253219      0.819810     -0.768930
  B       0.000453      1.828033     -0.707132
  B      -1.254033      0.819851     -0.769046
  B      -1.264624     -0.820727     -0.767229
  B       0.000564     -1.819270     -0.712935
  B       1.264712     -0.821426     -0.767437
12
Coordinates from ORCA-job input E -297.264390382400
  B       1.570621      0.004136      0.765106
  B       0.811032      1.441544      0.745346
  B      -0.810945      1.439772      0.746573
  B      -1.568044      0.002405      0.764300
  B      -0.805996     -1.444961      0.740355
  B       0.804182     -1.446622      0.740563
  B       1.264242      0.818674     -0.764695
  B      -0.002231      1.815390     -0.721200
  B      -1.262247      0.819993     -0.764128
  B      -1.272529     -0.823019     -0.761153
  B      -0.001857     -1.805095     -0.730917
  B       1.273774     -0.822216     -0.760151
12
Coordinates from ORCA-job input E -297.264585425182
  B       1.573422     -0.000458      0.758789
  B       0.806937      1.431312      0.749802
  B      -0.804571      1.433412      0.747804
  B      -1.576359      0.000287      0.760823
  B      -0.805741     -1.440535      0.744754
  B       0.804631     -1.431843      0.744694
  B       1.258104      0.822049     -0.767922
  B       0.005253      1.820392     -0.715064
  B      -1.259068      0.817434     -0.768817
  B      -1.271086     -0.821472     -0.765826
  B       0.002973     -1.811110     -0.721712
  B       1.265506     -0.819468     -0.767324
12
Coordinates from ORCA-job input E -297.263616797423
  B       1.599452     -0.006099      0.750799
  B       0.791385      1.417502      0.752349
  B      -0.805005      1.415967      0.758399
  B      -1.585438     -0.005878      0.746544
  B      -0.803195     -1.399688      0.750993
  B       0.807443     -1.431257      0.752998
  B       1.247016      0.810586     -0.777597
  B      -0.018126      1.830681     -0.700749
  B      -1.250857      0.828439     -0.773998
  B      -1.243966     -0.809071     -0.780985
  B      -0.007790     -1.824970     -0.702854
  B       1.269081     -0.826211     -0.775899
12
Coordinates from ORCA-job input E -297.264633786030
  B       1.576893      0.000140      0.760018
  B       0.807461      1.433274      0.750865
  B      -0.803297      1.430258      0.750239
  B      -1.578595     -0.000439      0.758924
  B      -0.806736     -1.436926      0.746196
  B       0.804952     -1.430273      0.744395
  B       1.259020      0.819614     -0.770037
  B       0.000920      1.824649     -0.710651
  B      -1.252480      0.818476     -0.771444
  B      -1.264780     -0.825269     -0.770090
  B      -0.002228     -1.819293     -0.716837
  B       1.258868     -0.814209     -0.771579
12
Coordinates from ORCA-job input E -297.263186056361
  B       1.566759     -0.003499      0.762322
  B       0.793745      1.423002      0.746523
  B      -0.823571      1.452663      0.746900
  B      -1.565447      0.005350      0.771443
  B      -0.795071     -1.420434      0.738037
  B       0.816242     -1.465221      0.747825
  B       1.237594      0.816083     -0.772805
  B      -0.002439      1.819410     -0.717145
  B      -1.281761      0.823693     -0.764694
  B      -1.245894     -0.783210     -0.769860
  B       0.016133     -1.812606     -0.723569
  B       1.283711     -0.855233     -0.764978
12
Coordinates from ORCA-job input E -297.264671932878
  B       1.573811     -0.002291      0.762853
  B       0.805689      1.432590      0.749285
  B      -0.806501      1.431325      0.748816
  B      -1.572549     -0.000496      0.762316
  B      -0.805379     -1.434510      0.745968
  B       0.806337     -1.436035      0.745580
  B       1.257505      0.820165     -0.770809
  B       0.000106      1.821614     -0.712668
  B      -1.259334      0.820743     -0.771401
  B      -1.262292     -0.818277     -0.771366
  B       0.000069     -1.815894     -0.717362
  B       1.262539     -0.818934     -0.771210
12
Coordinates from ORCA-job input E -297.264584534207
  B       1.573247      0.004020      0.761264
  B       0.806102      1.426762      0.749127
  B      -0.805357      1.439155      0.752495
  B      -1.578243     -0.003753      0.762562
  B      -0.806874     -1.434946      0.744361
  B       0.805992     -1.431920      0.745800
  B       1.257090      0.816629     -0.774127
  B      -0.000372      1.823788     -0.709362
  B      -1.253261      0.820036     -0.769287
  B      -1.259165     -0.820189     -0.773978
  B       0.001216     -1.820507     -0.716107
  B       1.259625     -0.819074     -0.772747
12
Coordinates from ORCA-job input E -297.264662091564
  B       1.574757      0.001226      0.761908
  B       0.807411      1.435786      0.750905
  B      -0.804368      1.430870      0.750395
  B      -1.575332     -0.000936      0.762906
  B      -0.809038     -1.436532      0.745494
  B       0.803972     -1.431354      0.744548
  B       1.259632      0.823061     -0.771922
  B       0.000563      1.824158     -0.709330
  B      -1.250475      0.813785     -0.771751
  B      -1.260708     -0.821286     -0.772777
  B      -0.002526     -1.821421     -0.715859
  B       1.256110     -0.817356     -0.774516
12
Coordinates from ORCA-job input E -297.264276620676
  B       1.572342     -0.016969      0.767571
  B       0.794994      1.421724      0.748873
  B      -0.818601      1.441776      0.745667
  B      -1.566634      0.011023      0.762124
  B      -0.788904     -1.420685      0.746476
  B       0.822398     -1.454302      0.746425
  B       1.233722      0.799537     -0.768476
  B      -0.003759      1.820941     -0.714460
  B      -1.286987      0.845362     -0.774504
  B      -1.244182     -0.803270     -0.773720
  B       0.010209     -1.816454     -0.716190
  B       1.275402     -0.828683     -0.769786
12
Coordinates from ORCA-job input E -297.264658806520
  B       1.572341      0.000365      0.764699
  B       0.809487      1.435082      0.747944
  B      -0.803768      1.428646      0.748768
  B      -1.570720     -0.004927      0.763901
  B      -0.808185     -1.437025      0.745411
  B       0.803958     -1.434834      0.747161
  B       1.260735      0.822834     -0.772217
  B       0.001116      1.821912     -0.712554
  B      -1.256668      0.819406     -0.771769
  B      -1.264717     -0.819672     -0.773883
  B       0.000405     -1.816881     -0.715963
  B       1.256016     -0.814905     -0.771498
12
Coordinates from ORCA-job input E -297.264306205974
  B       1.572978     -0.003592      0.759164
  B       0.797131      1.423392      0.753999
  B      -0.813775      1.446533      0.751873
  B      -1.582211      0.008479      0.764803
  B      -0.804009     -1.432281      0.747985
  B       0.810475     -1.430859      0.739652
  B       1.251014      0.815266     -0.773155
  B      -0.002416      1.824545     -0.705617
  B      -1.253499      0.815488     -0.771431
  B      -1.241281     -0.814770     -0.769964
  B      -0.006736     -1.824466     -0.715712
  B       1.272327     -0.827734     -0.781597
12
Coordinates from ORCA-job input E -297.264666310764
  B       1.574428     -0.000959      0.763225
  B       0.805494      1.433576      0.750505
  B      -0.806764      1.433954      0.750935
  B      -1.573844      0.001416      0.763314
  B      -0.806132     -1.434276      0.744581
  B       0.807204     -1.433884      0.745276
  B       1.255837      0.817330     -0.772414
  B      -0.001799      1.823486     -0.708938
  B      -1.255684      0.819946     -0.771996
  B      -1.257377     -0.817791     -0.774804
  B       0.002020     -1.822682     -0.715421
  B       1.256616     -0.820117     -0.774264
12
Coordinates from ORCA-job input E -297.264340933963
  B       1.571485      0.003952      0.766757
  B       0.813187      1.434917      0.748258
  B      -0.801252      1.426456      0.744620
  B      -1.566875     -0.012676      0.764393
  B      -0.810064     -1.436424      0.748100
  B       0.801337     -1.438999      0.746606
  B       1.261055      0.831304     -0.769838
  B       0.011549      1.821564     -0.714937
  B      -1.261131      0.816287     -0.774299
  B      -1.264512     -0.825214     -0.772621
  B      -0.009059     -1.816132     -0.715070
  B       1.254278     -0.805037     -0.771968
12
Coordinates from ORCA-job input E -297.264671760924
  B       1.570741     -0.002657      0.764432
  B       0.806407      1.431581      0.747730
  B      -0.807009      1.432498      0.748688
  B      -1.571583     -0.001942      0.765203
  B      -0.806583     -1.437189      0.746104
  B       0.805820     -1.435160      0.746466
  B       1.258998      0.820940     -0.772756
  B      -0.001027      1.822434     -0.712354
  B      -1.258578      0.821804     -0.771439
  B      -1.257265     -0.815669     -0.773228
  B       0.000376     -1.818663     -0.715345
  B       1.259704     -0.817975     -0.773500
12
Coordinates from ORCA-job input E -297.264623009516
  B       1.577653      0.002359      0.763103
  B       0.805988      1.435809      0.753633
  B      -0.805538      1.434567      0.751765
  B      -1.575717      0.002339      0.761933
  B      -0.806234     -1.430219      0.744119
  B       0.808191     -1.433801      0.743661
  B       1.252868      0.816262     -0.771008
  B       0.001205      1.823886     -0.705875
  B      -1.253498      0.815624     -0.773545
  B      -1.258369     -0.822665     -0.776171
  B       0.000015     -1.824950     -0.715666
  B       1.253435     -0.819211     -0.775950
12
Coordinates from ORCA-job input E -297.264683302059
  B       1.572549     -0.000948      0.764105
  B       0.806552      1.433098      0.749528
  B      -0.806418      1.433032      0.749577
  B      -1.572410     -0.001048      0.764180
  B      -0.806564     -1.435216      0.745610
  B       0.806335     -1.434951      0.745674
  B       1.257420      0.820097     -0.772275
  B       0.000008      1.822724     -0.710344
  B      -1.257372      0.820070     -0.772228
  B      -1.257013     -0.817782     -0.774345
  B      -0.000039     -1.821300     -0.715109
  B       1.256952     -0.817776     -0.774374
12
Coordinates from ORCA-job input E -297.264683288679
  B       1.572626     -0.001065      0.764291
  B       0.806423      1.432885      0.749467
  B      -0.806528      1.433049      0.749411
  B      -1.572533     -0.000962      0.764371
  B      -0.806529     -1.434995      0.745724
  B       0.806559     -1.435014      0.745651
  B       1.256869      0.819774     -0.772198
  B       0.000020      1.823104     -0.710376
  B      -1.256824      0.819790     -0.772243
  B      -1.257407     -0.817990     -0.774333
  B      -0.000001     -1.820621     -0.715307
  B       1.257325     -0.817955     -0.774457
