12
Optimized coordinates extracted from calculations/B12/bilayer_3d/d_2.5/mult_3/output.out
B        1.57262631      -0.00106501       0.76429077
B        0.80642323       1.43288513       0.74946674
B       -0.80652751       1.43304887       0.74941122
B       -1.57253279      -0.00096248       0.76437108
B       -0.80652943      -1.43499541       0.74572367
B        0.80655904      -1.43501404       0.74565143
B        1.25686870       0.81977422      -0.77219799
B        0.00001956       1.82310418      -0.71037627
B       -1.25682397       0.81978966      -0.77224328
B       -1.25740651      -0.81798993      -0.77433288
B       -0.00000136      -1.82062059      -0.71530709
B        1.25732471      -0.81795460      -0.77445740
