12
B12 bilayer_3d; neutral charge=0; multiplicity=3; 3d initial geometry; nominal d=2.5 A; Two staggered non-planar B6 layers.
B        2.50000000       0.00000000       0.77500000
B        1.25000000       2.16506351       0.77500000
B       -1.25000000       2.16506351       0.77500000
B       -2.50000000       0.00000000       0.77500000
B       -1.25000000      -2.16506351       0.77500000
B        1.25000000      -2.16506351       0.77500000
B        2.03515970       1.17500000      -0.77500000
B        0.00000000       2.35000000      -0.77500000
B       -2.03515970       1.17500000      -0.77500000
B       -2.03515970      -1.17500000      -0.77500000
B       -0.00000000      -2.35000000      -0.77500000
B        2.03515970      -1.17500000      -0.77500000
