12
Coordinates from ORCA-job input E -294.857910976441
  B       0.000000      0.000000      6.039335
  B       4.551196      0.000000      2.760931
  B      -2.275598      3.934085      2.760931
  B      -2.275598     -3.934085      2.760931
  B       2.777001      4.551196     -0.131779
  B      -2.777001      4.551196     -0.131779
  B       2.777001     -4.551196     -0.131779
  B      -2.777001     -4.551196     -0.131779
  B       4.319780      0.000000     -3.063058
  B      -4.319780      0.000000     -3.063058
  B       0.000000      3.779807     -3.834447
  B       0.000000     -3.779807     -3.834447
12
Coordinates from ORCA-job input E -294.869842088958
  B       0.000239     -0.000410      6.014655
  B       4.550870      0.000327      2.756617
  B      -2.285487      3.919313      2.707161
  B      -2.285867     -3.919925      2.706985
  B       2.778206      4.547566     -0.140105
  B      -2.769384      4.523411     -0.090260
  B       2.778370     -4.547388     -0.139457
  B      -2.769883     -4.523848     -0.090624
  B       4.325861      0.000111     -3.063519
  B      -4.327131      0.000381     -3.058638
  B       0.002156      3.775898     -3.802190
  B       0.002050     -3.775436     -3.800626
12
Coordinates from ORCA-job input E -294.882094393101
  B       0.000320     -0.000827      5.989936
  B       4.550674      0.000658      2.752315
  B      -2.295169      3.904556      2.653353
  B      -2.295934     -3.905788      2.653004
  B       2.779246      4.543872     -0.148292
  B      -2.761750      4.495137     -0.048741
  B       2.779572     -4.543510     -0.146994
  B      -2.762758     -4.496025     -0.049458
  B       4.331939      0.000220     -3.064062
  B      -4.334560      0.000764     -3.054254
  B       0.004317      3.771802     -3.769973
  B       0.004103     -3.770859     -3.766834
12
Coordinates from ORCA-job input E -294.900908640204
  B       0.000148     -0.001402      5.952968
  B       4.550016      0.001102      2.745807
  B      -2.309140      3.883289      2.572652
  B      -2.310454     -3.885386      2.572073
  B       2.780003      4.538236     -0.160357
  B      -2.750068      4.452916      0.013440
  B       2.780541     -4.537609     -0.158163
  B      -2.751790     -4.454472      0.012231
  B       4.339926      0.000393     -3.064823
  B      -4.344283      0.001313     -3.046979
  B       0.007725      3.766500     -3.722115
  B       0.007377     -3.764880     -3.716735
12
Coordinates from ORCA-job input E -294.923592851376
  B       0.003681     -0.001954      5.908370
  B       4.541611      0.001409      2.735273
  B      -2.324806      3.861251      2.480371
  B      -2.326690     -3.864160      2.479460
  B       2.774563      4.530619     -0.179497
  B      -2.737190      4.406350      0.084747
  B       2.775250     -4.529740     -0.176539
  B      -2.739566     -4.408565      0.083189
  B       4.347571      0.000693     -3.065845
  B      -4.347281      0.001871     -3.037220
  B       0.016615      3.764509     -3.660054
  B       0.016240     -3.762283     -3.652255
12
Coordinates from ORCA-job input E -294.946362368046
  B       0.007895     -0.002497      5.862996
  B       4.531282      0.001679      2.723416
  B      -2.340098      3.839214      2.387568
  B      -2.342567     -3.842939      2.386359
  B       2.766771      4.522435     -0.200319
  B      -2.724309      4.358295      0.156240
  B       2.767563     -4.521297     -0.196647
  B      -2.727331     -4.361191      0.154380
  B       4.355211      0.001023     -3.067096
  B      -4.348583      0.002420     -3.027108
  B       0.027268      3.762976     -3.595019
  B       0.026899     -3.760118     -3.584770
12
Coordinates from ORCA-job input E -294.964512390699
  B       0.009775     -0.003245      5.824464
  B       4.526834      0.002174      2.713179
  B      -2.353359      3.815310      2.306972
  B      -2.356531     -3.820105      2.305502
  B       2.762627      4.515249     -0.216889
  B      -2.713770      4.309992      0.217694
  B       2.763629     -4.513786     -0.212237
  B      -2.717652     -4.313695      0.215493
  B       4.366905      0.001247     -3.069175
  B      -4.357759      0.003021     -3.021112
  B       0.034902      3.755673     -3.538432
  B       0.034399     -3.751835     -3.525460
12
Coordinates from ORCA-job input E -294.975085457794
  B       0.012423     -0.003805      5.798688
  B       4.521989      0.002524      2.704763
  B      -2.362003      3.798542      2.255126
  B      -2.365693     -3.804120      2.253463
  B       2.757733      4.509888     -0.230050
  B      -2.707475      4.276924      0.256830
  B       2.758871     -4.508192     -0.224712
  B      -2.711970     -4.281193      0.254457
  B       4.376092      0.001408     -3.070707
  B      -4.363198      0.003432     -3.017747
  B       0.041914      3.750107     -3.497524
  B       0.041318     -3.745516     -3.482587
12
Coordinates from ORCA-job input E -294.988065571862
  B       0.022165     -0.004592      5.761262
  B       4.505785      0.002917      2.687039
  B      -2.374500      3.773792      2.187451
  B      -2.378962     -3.780505      2.185541
  B       2.742179      4.500432     -0.257941
  B      -2.700821      4.230411      0.307460
  B       2.743388     -4.498392     -0.251751
  B      -2.706167     -4.235499      0.304959
  B       4.391102      0.001750     -3.073232
  B      -4.363414      0.003986     -3.014173
  B       0.059942      3.744144     -3.427262
  B       0.059304     -3.738443     -3.409352
12
Coordinates from ORCA-job input E -295.008605209899
  B       0.047235     -0.005239      5.708668
  B       4.471962      0.003321      2.658794
  B      -2.390806      3.738260      2.106751
  B      -2.395914     -3.746360      2.105072
  B       2.709817      4.484182     -0.306101
  B      -2.695237      4.168025      0.363831
  B       2.711427     -4.482115     -0.298435
  B      -2.701406     -4.174337      0.360612
  B       4.410437      0.002144     -3.075122
  B      -4.354396      0.004911     -3.010951
  B       0.093973      3.737820     -3.317076
  B       0.092908     -3.730611     -3.296041
12
Coordinates from ORCA-job input E -295.031225365380
  B       0.064598     -0.006320      5.657545
  B       4.446264      0.003775      2.631192
  B      -2.409235      3.702054      2.017495
  B      -2.415400     -3.711846      2.015863
  B       2.680724      4.465884     -0.351437
  B      -2.689306      4.099434      0.429992
  B       2.682417     -4.463405     -0.342823
  B      -2.696635     -4.107100      0.426550
  B       4.434499      0.002669     -3.082037
  B      -4.350601      0.005777     -3.005906
  B       0.126914      3.724746     -3.211021
  B       0.125760     -3.715668     -3.185413
12
Coordinates from ORCA-job input E -295.041266274654
  B       0.087897     -0.007296      5.634412
  B       4.410853      0.003658      2.604675
  B      -2.421451      3.684701      1.993638
  B      -2.428251     -3.695162      1.990146
  B       2.644170      4.451656     -0.397351
  B      -2.694892      4.071949      0.453195
  B       2.645816     -4.448849     -0.388559
  B      -2.702311     -4.079327      0.451340
  B       4.451408      0.003079     -3.087379
  B      -4.325124      0.005868     -3.007341
  B       0.166394      3.722792     -3.137662
  B       0.165490     -3.713069     -3.109114
12
Coordinates from ORCA-job input E -295.049136126508
  B       0.106499     -0.006774      5.626500
  B       4.381387      0.003524      2.585698
  B      -2.427897      3.678246      1.995764
  B      -2.434856     -3.689028      1.994134
  B       2.616218      4.442254     -0.430818
  B      -2.702128      4.065225      0.455564
  B       2.617170     -4.439129     -0.422364
  B      -2.710179     -4.073729      0.452341
  B       4.463200      0.003429     -3.091694
  B      -4.301312      0.005956     -3.010170
  B       0.196234      3.724407     -3.091945
  B       0.195665     -3.714382     -3.063009
12
Coordinates from ORCA-job input E -295.061491837576
  B       0.133549     -0.007697      5.612867
  B       4.339138      0.003138      2.557635
  B      -2.437983      3.667708      1.997440
  B      -2.445403     -3.678912      1.993515
  B       2.573812      4.427378     -0.480774
  B      -2.712262      4.053638      0.460237
  B       2.574500     -4.423905     -0.472575
  B      -2.719984     -4.061329      0.459345
  B       4.480021      0.003886     -3.097862
  B      -4.266167      0.005777     -3.014490
  B       0.240496      3.726302     -3.023360
  B       0.240283     -3.715984     -2.991978
12
Coordinates from ORCA-job input E -295.077048600928
  B       0.174379     -0.005428      5.589059
  B       4.287285      0.003155      2.527298
  B      -2.449062      3.650882      1.989616
  B      -2.456308     -3.662536      1.992499
  B       2.523451      4.409640     -0.536986
  B      -2.721382      4.031679      0.470231
  B       2.522923     -4.405792     -0.528845
  B      -2.730865     -4.043126      0.463423
  B       4.494325      0.004288     -3.098003
  B      -4.224926      0.006383     -3.020540
  B       0.290128      3.728328     -2.938852
  B       0.290052     -3.717473     -2.908902
12
Coordinates from ORCA-job input E -295.094275295366
  B       0.215853     -0.012330      5.566829
  B       4.235798      0.001987      2.497657
  B      -2.459297      3.635726      2.001639
  B      -2.467341     -3.647342      1.982317
  B       2.469154      4.390459     -0.594102
  B      -2.734671      4.019858      0.464310
  B       2.472171     -4.387506     -0.584135
  B      -2.738227     -4.020586      0.476676
  B       4.507917      0.004221     -3.097672
  B      -4.181518      0.005136     -3.027808
  B       0.340502      3.730676     -2.861447
  B       0.339659     -3.720300     -2.824264
12
Coordinates from ORCA-job input E -295.109870207876
  B       0.242349      0.002239      5.556848
  B       4.195829      0.003895      2.471823
  B      -2.469355      3.627620      1.988452
  B      -2.475795     -3.639946      2.013516
  B       2.428482      4.374837     -0.641486
  B      -2.738432      4.000991      0.484846
  B       2.423828     -4.369450     -0.633456
  B      -2.753667     -4.024394      0.458303
  B       4.523138      0.004867     -3.102641
  B      -4.143377      0.008098     -3.033997
  B       0.383488      3.734312     -2.792287
  B       0.383513     -3.723069     -2.769922
12
Coordinates from ORCA-job input E -295.121768497009
  B       0.260286     -0.001202      5.559120
  B       4.165597      0.003551      2.454275
  B      -2.472978      3.628801      2.019811
  B      -2.480149     -3.641718      2.033707
  B       2.398235      4.364899     -0.674361
  B      -2.749820      4.012412      0.465854
  B       2.394022     -4.358634     -0.665282
  B      -2.763025     -4.031058      0.448649
  B       4.535537      0.005018     -3.107746
  B      -4.114574      0.007198     -3.039126
  B       0.413329      3.737827     -2.760537
  B       0.413541     -3.727095     -2.734364
12
Coordinates from ORCA-job input E -295.139051256334
  B       0.285249     -0.001749      5.551436
  B       4.122666      0.003252      2.427086
  B      -2.481899      3.622617      2.031772
  B      -2.489313     -3.635997      2.043680
  B       2.351391      4.345247     -0.725370
  B      -2.760001      4.007011      0.465805
  B       2.346380     -4.338085     -0.716231
  B      -2.772827     -4.025080      0.450541
  B       4.555313      0.005319     -3.115160
  B      -4.075734      0.006896     -3.043917
  B       0.459164      3.739264     -2.698403
  B       0.459612     -3.728696     -2.671240
12
Coordinates from ORCA-job input E -295.159840693326
  B       0.323653     -0.000398      5.535856
  B       4.068519      0.003395      2.397723
  B      -2.491021      3.611999      2.040942
  B      -2.498387     -3.626113      2.055759
  B       2.295135      4.321275     -0.783561
  B      -2.770413      3.995292      0.467022
  B       2.288338     -4.312676     -0.773726
  B      -2.784351     -4.015755      0.448712
  B       4.575518      0.005527     -3.117484
  B      -4.030134      0.007125     -3.050232
  B       0.511305      3.740525     -2.623428
  B       0.511839     -3.730197     -2.597583
12
Coordinates from ORCA-job input E -295.180632819834
  B       0.363266      0.000861      5.518321
  B       4.014342      0.003428      2.370067
  B      -2.499671      3.600102      2.047784
  B      -2.506865     -3.614920      2.064831
  B       2.237568      4.295165     -0.840951
  B      -2.779442      3.981099      0.469776
  B       2.229063     -4.285182     -0.830325
  B      -2.794147     -4.003582      0.449017
  B       4.594640      0.005687     -3.118046
  B      -3.984886      0.007344     -3.056475
  B       0.562787      3.741142     -2.549232
  B       0.563345     -3.731145     -2.524766
12
Coordinates from ORCA-job input E -295.197798221081
  B       0.390673     -0.003743      5.503028
  B       3.970347      0.001810      2.346539
  B      -2.508361      3.588953      2.051276
  B      -2.515813     -3.603420      2.053331
  B       2.188241      4.270038     -0.888469
  B      -2.787134      3.967726      0.474615
  B       2.181901     -4.260862     -0.877561
  B      -2.796415     -3.981792      0.468687
  B       4.614019      0.005830     -3.122812
  B      -3.949497      0.005974     -3.059421
  B       0.605815      3.738889     -2.488479
  B       0.606224     -3.729402     -2.460734
12
Coordinates from ORCA-job input E -295.208050740000
  B       0.412087     -0.003723      5.493039
  B       3.939042      0.001650      2.331961
  B      -2.513429      3.581657      2.054142
  B      -2.520849     -3.596101      2.054859
  B       2.154083      4.252918     -0.920392
  B      -2.791183      3.958225      0.478336
  B       2.147996     -4.243692     -0.908704
  B      -2.799978     -3.971900      0.473343
  B       4.625772      0.005857     -3.123906
  B      -3.923659      0.005966     -3.062432
  B       0.634985      3.738630     -2.448580
  B       0.635133     -3.729486     -2.421666
12
Coordinates from ORCA-job input E -295.220708724738
  B       0.453171     -0.003448      5.471963
  B       3.887433      0.001485      2.313386
  B      -2.519643      3.568340      2.057840
  B      -2.526646     -3.582442      2.056430
  B       2.101484      4.226040     -0.965662
  B      -2.796992      3.941629      0.482088
  B       2.096786     -4.217443     -0.951888
  B      -2.804809     -3.954634      0.478012
  B       4.641540      0.005683     -3.120340
  B      -3.885170      0.006246     -3.067688
  B       0.676860      3.737641     -2.389332
  B       0.675986     -3.729095     -2.364809
12
Coordinates from ORCA-job input E -295.233883140744
  B       0.546958     -0.002478      5.416229
  B       3.801572      0.001483      2.301882
  B      -2.518988      3.536006      2.054499
  B      -2.525770     -3.550318      2.053920
  B       2.032014      4.189788     -1.008821
  B      -2.802185      3.906666      0.476799
  B       2.026914     -4.180601     -0.993519
  B      -2.810253     -3.920966      0.471129
  B       4.652045      0.005790     -3.090819
  B      -3.838371      0.006553     -3.076253
  B       0.718808      3.732782     -2.313928
  B       0.717256     -3.724707     -2.291119
12
Coordinates from ORCA-job input E -295.251061450939
  B       0.642094     -0.001467      5.357176
  B       3.719116      0.000879      2.292326
  B      -2.517047      3.502126      2.049503
  B      -2.523230     -3.516133      2.049051
  B       1.962590      4.152605     -1.049048
  B      -2.806239      3.870265      0.469606
  B       1.955797     -4.142533     -1.034302
  B      -2.813583     -3.884761      0.463219
  B       4.657741      0.005710     -3.057217
  B      -3.793194      0.006247     -3.084936
  B       0.758402      3.727317     -2.238778
  B       0.757552     -3.720255     -2.216600
12
Coordinates from ORCA-job input E -295.257732518778
  B       0.710402     -0.001033      5.311412
  B       3.659635      0.000687      2.287732
  B      -2.519136      3.481443      2.049722
  B      -2.524735     -3.494967      2.046736
  B       1.910881      4.125100     -1.082910
  B      -2.810548      3.845898      0.467517
  B       1.906473     -4.116522     -1.065357
  B      -2.816765     -3.859572      0.461864
  B       4.661908      0.005572     -3.035010
  B      -3.759509      0.006911     -3.094177
  B       0.791854      3.724770     -2.183494
  B       0.789541     -3.718287     -2.164035
12
Coordinates from ORCA-job input E -295.262453439886
  B       0.784589     -0.001034      5.248234
  B       3.625390      0.001162      2.313666
  B      -2.511725      3.463006      2.038328
  B      -2.516403     -3.476136      2.033191
  B       1.909024      4.125452     -1.062632
  B      -2.811735      3.827627      0.455398
  B       1.909320     -4.119890     -1.040861
  B      -2.816953     -3.840378      0.449534
  B       4.649372      0.004962     -2.994865
  B      -3.768577      0.008295     -3.100753
  B       0.776530      3.718835     -2.177963
  B       0.771167     -3.711901     -2.161275
12
Coordinates from ORCA-job input E -295.267035169128
  B       0.861651     -0.002384      5.181466
  B       3.588573      0.000274      2.339266
  B      -2.504275      3.443019      2.026221
  B      -2.510437     -3.457292      2.021635
  B       1.909083      4.128891     -1.041112
  B      -2.812927      3.806649      0.443701
  B       1.902818     -4.119298     -1.025184
  B      -2.818674     -3.819245      0.440609
  B       4.636705      0.006028     -2.954299
  B      -3.774783      0.006431     -3.109747
  B       0.761632      3.714566     -2.173044
  B       0.760633     -3.707639     -2.149511
12
Coordinates from ORCA-job input E -295.272727054383
  B       0.949116     -0.000772      5.106938
  B       3.545201      0.001784      2.366137
  B      -2.495326      3.416462      2.012567
  B      -2.498664     -3.429077      2.004288
  B       1.895933      4.124108     -1.027216
  B      -2.813186      3.779324      0.431149
  B       1.902368     -4.122848     -0.999580
  B      -2.816891     -3.790979      0.424507
  B       4.619480      0.004106     -2.905434
  B      -3.780614      0.010439     -3.117393
  B       0.750933      3.708740     -2.154739
  B       0.741650     -3.701288     -2.141224
12
Coordinates from ORCA-job input E -295.279349542972
  B       1.041869     -0.003131      5.029029
  B       3.498611     -0.000354      2.394087
  B      -2.476932      3.377893      1.987321
  B      -2.482889     -3.392446      1.982387
  B       1.897913      4.128340     -0.993782
  B      -2.806624      3.743593      0.409117
  B       1.888839     -4.118069     -0.980702
  B      -2.811300     -3.755226      0.406907
  B       4.592546      0.006185     -2.847684
  B      -3.789911      0.006219     -3.119991
  B       0.723343      3.700369     -2.147557
  B       0.724535     -3.693372     -2.119131
12
Coordinates from ORCA-job input E -295.285493569633
  B       1.127187     -0.007011      4.952823
  B       3.455535     -0.003038      2.421728
  B      -2.461725      3.345997      1.966064
  B      -2.473204     -3.364242      1.966867
  B       1.904446      4.136866     -0.961350
  B      -2.802336      3.713473      0.391243
  B       1.872871     -4.111956     -0.969067
  B      -2.810421     -3.726561      0.396043
  B       4.571025      0.009927     -2.798100
  B      -3.797717     -0.000459     -3.126370
  B       0.699309      3.695295     -2.144909
  B       0.715030     -3.688291     -2.094970
12
Coordinates from ORCA-job input E -295.291322869743
  B       1.200774     -0.009289      4.882712
  B       3.419401     -0.004448      2.447692
  B      -2.452594      3.324143      1.952825
  B      -2.467611     -3.344676      1.958174
  B       1.907057      4.141625     -0.937298
  B      -2.801935      3.691835      0.379230
  B       1.862186     -4.108048     -0.957476
  B      -2.812712     -3.706281      0.387831
  B       4.557727      0.012567     -2.758901
  B      -3.803679     -0.004328     -3.135535
  B       0.683614      3.691162     -2.140893
  B       0.707773     -3.684262     -2.078360
12
Coordinates from ORCA-job input E -295.295553082343
  B       1.249778     -0.010762      4.834389
  B       3.395798     -0.005271      2.465766
  B      -2.447081      3.310167      1.944330
  B      -2.464309     -3.332057      1.952424
  B       1.908323      4.144074     -0.921637
  B      -2.802000      3.677745      0.371806
  B       1.855733     -4.105502     -0.949245
  B      -2.814493     -3.692905      0.383000
  B       4.549555      0.014369     -2.733291
  B      -3.807904     -0.006588     -3.142184
  B       0.673738      3.688107     -2.137651
  B       0.702862     -3.681375     -2.067706
12
Coordinates from ORCA-job input E -295.302327596943
  B       1.322302     -0.012940      4.761544
  B       3.360773     -0.006495      2.493456
  B      -2.438432      3.289164      1.931473
  B      -2.458783     -3.312842      1.943670
  B       1.910798      4.147574     -0.897416
  B      -2.801898      3.656992      0.360485
  B       1.847166     -4.102109     -0.936031
  B      -2.816837     -3.672970      0.375654
  B       4.537101      0.017198     -2.695037
  B      -3.815111     -0.009782     -3.151860
  B       0.658251      3.683092     -2.133261
  B       0.694670     -3.676882     -2.052678
12
Coordinates from ORCA-job input E -295.310886479254
  B       1.402988     -0.016558      4.681164
  B       3.321375     -0.008319      2.525743
  B      -2.423791      3.260871      1.911176
  B      -2.449172     -3.287395      1.931156
  B       1.917440      4.152083     -0.865077
  B      -2.797440      3.630411      0.343557
  B       1.836800     -4.097010     -0.920744
  B      -2.817026     -3.647863      0.365673
  B       4.516978      0.023276     -2.649128
  B      -3.825844     -0.013975     -3.159465
  B       0.634892      3.675082     -2.130136
  B       0.682801     -3.670601     -2.033920
12
Coordinates from ORCA-job input E -295.320286729928
  B       1.488506     -0.022077      4.598142
  B       3.279604     -0.011331      2.560999
  B      -2.399372      3.221665      1.879461
  B      -2.432264     -3.252273      1.912419
  B       1.930117      4.158639     -0.821344
  B      -2.785355      3.595807      0.317260
  B       1.823979     -4.089923     -0.903531
  B      -2.812383     -3.615165      0.351127
  B       4.484186      0.033602     -2.593868
  B      -3.841502     -0.019739     -3.161743
  B       0.599288      3.662879     -2.128792
  B       0.665197     -3.662084     -2.010130
12
Coordinates from ORCA-job input E -295.329385760120
  B       1.566902     -0.025691      4.515530
  B       3.242024     -0.013291      2.594935
  B      -2.384104      3.194068      1.859905
  B      -2.421945     -3.227098      1.902451
  B       1.936611      4.161477     -0.788048
  B      -2.780249      3.570475      0.298698
  B       1.813949     -4.083759     -0.887921
  B      -2.812962     -3.591199      0.340283
  B       4.464509      0.040754     -2.549051
  B      -3.853331     -0.023554     -3.169920
  B       0.575351      3.652711     -2.124833
  B       0.653245     -3.654894     -1.992030
12
Coordinates from ORCA-job input E -295.337879526507
  B       1.633917     -0.025888      4.441544
  B       3.204658     -0.014028      2.621892
  B      -2.374937      3.172492      1.847342
  B      -2.412724     -3.204574      1.889894
  B       1.932543      4.158496     -0.770351
  B      -2.778727      3.549631      0.289213
  B       1.807546     -4.081155     -0.873545
  B      -2.811094     -3.568911      0.333178
  B       4.451846      0.041784     -2.511481
  B      -3.860294     -0.023962     -3.176777
  B       0.563053      3.646007     -2.112667
  B       0.644213     -3.649895     -1.978243
12
Coordinates from ORCA-job input E -295.344275590761
  B       1.677762     -0.022225      4.393766
  B       3.180013     -0.012315      2.636933
  B      -2.375055      3.160620      1.846078
  B      -2.408016     -3.189710      1.888271
  B       1.914540      4.146235     -0.775326
  B      -2.781590      3.536367      0.288123
  B       1.802506     -4.079599     -0.865274
  B      -2.812110     -3.555233      0.325781
  B       4.449429      0.039927     -2.490931
  B      -3.857862     -0.018523     -3.185297
  B       0.568530      3.641724     -2.090645
  B       0.641854     -3.647267     -1.971478
12
Coordinates from ORCA-job input E -295.353089830368
  B       1.740695     -0.018186      4.324329
  B       3.146972     -0.010267      2.658415
  B      -2.374049      3.139533      1.842453
  B      -2.401151     -3.165191      1.880477
  B       1.884731      4.124295     -0.784628
  B      -2.784796      3.514172      0.283053
  B       1.794631     -4.075304     -0.853195
  B      -2.811412     -3.530215      0.317891
  B       4.444067      0.038922     -2.460780
  B      -3.854643     -0.009523     -3.196486
  B       0.577192      3.632736     -2.053336
  B       0.637763     -3.640972     -1.958193
12
Coordinates from ORCA-job input E -295.363516527423
  B       1.820519     -0.011909      4.240869
  B       3.107370     -0.005963      2.683125
  B      -2.368656      3.101799      1.831710
  B      -2.387547     -3.124562      1.867268
  B       1.831341      4.083224     -0.808041
  B      -2.783530      3.475702      0.270801
  B       1.782807     -4.067501     -0.836356
  B      -2.806393     -3.489329      0.304008
  B       4.429168      0.040707     -2.418551
  B      -3.847455      0.009510     -3.207076
  B       0.593510      3.617483     -1.988821
  B       0.628866     -3.629162     -1.938935
12
Coordinates from ORCA-job input E -295.372031517392
  B       1.905261     -0.008666      4.176467
  B       3.071900     -0.000862      2.700230
  B      -2.335153      3.015128      1.787038
  B      -2.356238     -3.051040      1.840484
  B       1.751127      4.017599     -0.838286
  B      -2.756269      3.394897      0.223462
  B       1.760535     -4.048619     -0.814121
  B      -2.786415     -3.415210      0.280873
  B       4.377342      0.060294     -2.353183
  B      -3.838638      0.046170     -3.196423
  B       0.604683      3.591925     -1.896994
  B       0.601865     -3.601615     -1.909546
12
Coordinates from ORCA-job input E -295.382079738976
  B       1.967739     -0.021496      4.124921
  B       3.057249     -0.005861      2.733906
  B      -2.290981      2.949846      1.733874
  B      -2.334320     -3.007035      1.823557
  B       1.753665      4.008665     -0.797638
  B      -2.725512      3.341662      0.164535
  B       1.741162     -4.027281     -0.800171
  B      -2.777305     -3.370998      0.267230
  B       4.328671      0.089852     -2.302298
  B      -3.859920      0.051126     -3.185689
  B       0.563027      3.570255     -1.881593
  B       0.576525     -3.578733     -1.880634
12
Coordinates from ORCA-job input E -295.388759594649
  B       2.019789     -0.027843      4.073335
  B       3.039724     -0.008328      2.762833
  B      -2.267066      2.908019      1.703351
  B      -2.322219     -2.978422      1.815272
  B       1.745995      3.995784     -0.778944
  B      -2.710283      3.307014      0.128937
  B       1.731020     -4.014018     -0.788389
  B      -2.774482     -3.341450      0.260589
  B       4.303438      0.107602     -2.268980
  B      -3.872409      0.058640     -3.184784
  B       0.544944      3.556061     -1.860494
  B       0.561548     -3.563059     -1.862726
12
Coordinates from ORCA-job input E -295.395372677544
  B       2.056234     -0.034797      4.061548
  B       3.033945     -0.009395      2.781831
  B      -2.220783      2.838400      1.640642
  B      -2.294345     -2.930081      1.791635
  B       1.728080      3.973550     -0.759852
  B      -2.669514      3.244887      0.073902
  B       1.714602     -3.994527     -0.777516
  B      -2.756990     -3.292799      0.245138
  B       4.249739      0.133278     -2.229169
  B      -3.886531      0.075305     -3.159536
  B       0.513048      3.534603     -1.828819
  B       0.532516     -3.538424     -1.839806
12
Coordinates from ORCA-job input E -295.406819252485
  B       2.086308     -0.046458      4.080803
  B       3.039368     -0.010863      2.801123
  B      -2.147225      2.733798      1.542617
  B      -2.250874     -2.860424      1.760286
  B       1.705560      3.940804     -0.734464
  B      -2.605356      3.152790     -0.010245
  B       1.690385     -3.963844     -0.766502
  B      -2.729323     -3.223975      0.220371
  B       4.168456      0.175089     -2.182472
  B      -3.909015      0.101945     -3.115285
  B       0.463481      3.501870     -1.787195
  B       0.488235     -3.500731     -1.809038
12
Coordinates from ORCA-job input E -295.420146484127
  B       2.113129     -0.057271      4.104944
  B       3.046128     -0.011968      2.817779
  B      -2.072881      2.629152      1.448643
  B      -2.206110     -2.789284      1.729208
  B       1.676855      3.905351     -0.713549
  B      -2.542146      3.061351     -0.094680
  B       1.664523     -3.932833     -0.756466
  B      -2.700449     -3.154389      0.193749
  B       4.090590      0.214729     -2.137744
  B      -3.929556      0.130744     -3.071089
  B       0.414773      3.467309     -1.742782
  B       0.445145     -3.462891     -1.778013
12
Coordinates from ORCA-job input E -295.431001921399
  B       2.125689     -0.066315      4.128786
  B       3.053934     -0.013098      2.829039
  B      -2.019300      2.559783      1.385063
  B      -2.176169     -2.743715      1.709473
  B       1.658977      3.883500     -0.698654
  B      -2.496082      3.002406     -0.156464
  B       1.647471     -3.911465     -0.751108
  B      -2.681334     -3.109944      0.177201
  B       4.040266      0.243052     -2.112019
  B      -3.946231      0.150246     -3.041126
  B       0.376669      3.442379     -1.712835
  B       0.416111     -3.436829     -1.757356
12
Coordinates from ORCA-job input E -295.438933744552
  B       2.131866     -0.072817      4.147302
  B       3.060323     -0.013706      2.836487
  B      -1.982987      2.514448      1.343187
  B      -2.156179     -2.714488      1.697107
  B       1.646350      3.868870     -0.689825
  B      -2.464792      2.964430     -0.198800
  B       1.636371     -3.897178     -0.748053
  B      -2.668818     -3.081600      0.166262
  B       4.008539      0.262265     -2.096888
  B      -3.958259      0.164064     -3.021208
  B       0.350702      3.424857     -1.692041
  B       0.396885     -3.419145     -1.743531
12
Coordinates from ORCA-job input E -295.451160357294
  B       2.147033     -0.081785      4.164963
  B       3.065887     -0.014513      2.850671
  B      -1.929373      2.447492      1.279566
  B      -2.125483     -2.669679      1.677098
  B       1.624595      3.845645     -0.675969
  B      -2.417740      2.906921     -0.260665
  B       1.619395     -3.876322     -0.741722
  B      -2.649602     -3.037899      0.149379
  B       3.961652      0.290144     -2.070805
  B      -3.975743      0.185728     -2.992475
  B       0.311497      3.397051     -1.658316
  B       0.367883     -3.392784     -1.721726
12
Coordinates from ORCA-job input E -295.470361873133
  B       2.171756     -0.092844      4.185744
  B       3.070423     -0.015067      2.871483
  B      -1.854023      2.351623      1.189093
  B      -2.077040     -2.601721      1.643454
  B       1.587806      3.807714     -0.658485
  B      -2.354378      2.822787     -0.343586
  B       1.593896     -3.847509     -0.730506
  B      -2.617643     -2.971702      0.121500
  B       3.894271      0.326998     -2.030157
  B      -3.997930      0.220099     -2.949883
  B       0.258023      3.354411     -1.609936
  B       0.324838     -3.354790     -1.688721
12
Coordinates from ORCA-job input E -295.492628112603
  B       2.192255     -0.103768      4.209981
  B       3.075313     -0.015268      2.891078
  B      -1.778848      2.262839      1.102432
  B      -2.025163     -2.536085      1.606510
  B       1.550551      3.770944     -0.641613
  B      -2.290779      2.744857     -0.422957
  B       1.568319     -3.821198     -0.718176
  B      -2.581721     -2.908360      0.090703
  B       3.829053      0.360787     -1.992041
  B      -4.019819      0.254424     -2.907233
  B       0.200551      3.308931     -1.563842
  B       0.280287     -3.318104     -1.654842
12
Coordinates from ORCA-job input E -295.511016542307
  B       2.200072     -0.112159      4.232280
  B       3.080699     -0.015107      2.903083
  B      -1.725565      2.210105      1.045773
  B      -1.988168     -2.496206      1.580289
  B       1.526034      3.749855     -0.629725
  B      -2.240873      2.699352     -0.477953
  B       1.551598     -3.805638     -0.709357
  B      -2.555265     -2.870559      0.068127
  B       3.786228      0.382863     -1.970168
  B      -4.036883      0.276319     -2.878325
  B       0.153960      3.275570     -1.532771
  B       0.248163     -3.294394     -1.631253
12
Coordinates from ORCA-job input E -295.524494768891
  B       2.202907     -0.117423      4.248634
  B       3.084975     -0.014585      2.910348
  B      -1.690809      2.178684      1.010178
  B      -1.962685     -2.471792      1.562046
  B       1.508858      3.736472     -0.623147
  B      -2.206567      2.672351     -0.513054
  B       1.541026     -3.796784     -0.702912
  B      -2.536530     -2.847813      0.051580
  B       3.759156      0.396338     -1.957336
  B      -4.048605      0.290983     -2.859302
  B       0.122336      3.252705     -1.511944
  B       0.225939     -3.279136     -1.615092
12
Coordinates from ORCA-job input E -295.545901205483
  B       2.212066     -0.124640      4.264498
  B       3.087801     -0.014167      2.923977
  B      -1.639877      2.134291      0.957681
  B      -1.924038     -2.435605      1.533119
  B       1.480495      3.715653     -0.612743
  B      -2.154930      2.633803     -0.563766
  B       1.524078     -3.784221     -0.692046
  B      -2.507478     -2.813765      0.026181
  B       3.718765      0.415399     -1.935068
  B      -4.064746      0.312676     -2.831910
  B       0.074823      3.217770     -1.480260
  B       0.193040     -3.257195     -1.589662
12
Coordinates from ORCA-job input E -295.578745328026
  B       2.227519     -0.132854      4.282450
  B       3.088167     -0.013358      2.943961
  B      -1.571433      2.074665      0.886269
  B      -1.865213     -2.382592      1.486805
  B       1.434579      3.681350     -0.601413
  B      -2.087084      2.581106     -0.627121
  B       1.498088     -3.768244     -0.674926
  B      -2.460803     -2.764042     -0.013927
  B       3.661256      0.438427     -1.901167
  B      -4.083305      0.345091     -2.792259
  B       0.012290      3.167530     -1.437076
  B       0.145938     -3.227078     -1.551594
12
Coordinates from ORCA-job input E -295.615334913122
  B       2.237995     -0.141003      4.302386
  B       3.088077     -0.012546      2.961912
  B      -1.505744      2.025563      0.819324
  B      -1.805555     -2.333405      1.437596
  B       1.388981      3.648730     -0.590962
  B      -2.017150      2.537692     -0.683619
  B       1.472429     -3.755615     -0.658012
  B      -2.410473     -2.718583     -0.055088
  B       3.605340      0.457857     -1.870313
  B      -4.100608      0.374679     -2.752209
  B      -0.053082      3.116181     -1.397758
  B       0.099791     -3.199550     -1.513256
12
Coordinates from ORCA-job input E -295.644069483242
  B       2.238877     -0.147790      4.320108
  B       3.089305     -0.011973      2.972186
  B      -1.459920      2.000099      0.774022
  B      -1.765167     -2.303845      1.403574
  B       1.359329      3.630316     -0.582580
  B      -1.960437      2.515398     -0.721603
  B       1.455702     -3.748990     -0.647617
  B      -2.374800     -2.691916     -0.082807
  B       3.567824      0.470385     -1.852690
  B      -4.114415      0.391712     -2.723529
  B      -0.104983      3.078857     -1.372107
  B       0.068685     -3.182253     -1.486958
12
Coordinates from ORCA-job input E -295.663966592919
  B       2.237214     -0.151792      4.332961
  B       3.090565     -0.011245      2.978039
  B      -1.431172      1.985869      0.744059
  B      -1.737604     -2.284953      1.380285
  B       1.339034      3.617769     -0.577983
  B      -1.922404      2.502296     -0.744107
  B       1.444631     -3.745500     -0.640884
  B      -2.349693     -2.675326     -0.102550
  B       3.544026      0.477309     -1.842216
  B      -4.123834      0.402782     -2.703665
  B      -0.138680      3.053783     -1.354935
  B       0.047917     -3.170992     -1.469005
12
Coordinates from ORCA-job input E -295.693769537654
  B       2.239109     -0.157208      4.345978
  B       3.089636     -0.010656      2.989265
  B      -1.389250      1.965562      0.700131
  B      -1.695126     -2.255956      1.344459
  B       1.305872      3.596831     -0.571028
  B      -1.867140      2.483676     -0.776566
  B       1.426607     -3.740315     -0.629791
  B      -2.310656     -2.649667     -0.133351
  B       3.508392      0.486433     -1.823462
  B      -4.136501      0.419277     -2.674471
  B      -0.187802      3.016199     -1.329659
  B       0.016859     -3.154176     -1.441505
12
Coordinates from ORCA-job input E -295.737517265097
  B       2.225371     -0.163068      4.378940
  B       3.088736     -0.006729      3.000557
  B      -1.331324      1.934833      0.629548
  B      -1.628762     -2.213353      1.286953
  B       1.260887      3.566341     -0.566224
  B      -1.784751      2.451514     -0.820609
  B       1.403918     -3.733511     -0.617227
  B      -2.246386     -2.612034     -0.183709
  B       3.465070      0.496225     -1.804526
  B      -4.166790      0.446371     -2.618111
  B      -0.253728      2.959064     -1.288057
  B      -0.032242     -3.125652     -1.397535
12
Coordinates from ORCA-job input E -295.775072263185
  B       2.206467     -0.162552      4.420762
  B       3.092183     -0.000819      3.011442
  B      -1.274978      1.881656      0.557597
  B      -1.551436     -2.148758      1.227424
  B       1.210966      3.520663     -0.568014
  B      -1.720499      2.394381     -0.862836
  B       1.376609     -3.716765     -0.609646
  B      -2.176599     -2.555135     -0.250588
  B       3.428066      0.498970     -1.783256
  B      -4.201443      0.476604     -2.552175
  B      -0.303937      2.893447     -1.239570
  B      -0.085399     -3.081693     -1.351139
12
Coordinates from ORCA-job input E -295.800305571324
  B       2.198286     -0.158884      4.444210
  B       3.093049      0.002459      3.020495
  B      -1.240428      1.835355      0.517211
  B      -1.496670     -2.104918      1.177028
  B       1.181698      3.482971     -0.575304
  B      -1.706125      2.346701     -0.887857
  B       1.350503     -3.703333     -0.599216
  B      -2.118933     -2.512513     -0.297536
  B       3.405117      0.503471     -1.765306
  B      -4.220445      0.502355     -2.507659
  B      -0.320023      2.853049     -1.210822
  B      -0.126029     -3.046712     -1.315244
12
Coordinates from ORCA-job input E -295.836523328829
  B       2.188901     -0.155305      4.475608
  B       3.093365      0.006510      3.033969
  B      -1.188038      1.762027      0.464378
  B      -1.420347     -2.044825      1.105921
  B       1.149841      3.428707     -0.584874
  B      -1.695528      2.273517     -0.930554
  B       1.307058     -3.678560     -0.584538
  B      -2.039206     -2.451449     -0.357287
  B       3.370566      0.519196     -1.737156
  B      -4.241691      0.541344     -2.444643
  B      -0.343038      2.792412     -1.175903
  B      -0.181885     -2.993573     -1.264922
12
Coordinates from ORCA-job input E -295.875633519107
  B       2.177057     -0.152183      4.506099
  B       3.094300      0.009707      3.044588
  B      -1.145648      1.688990      0.417958
  B      -1.345985     -1.992307      1.035342
  B       1.129557      3.375248     -0.595764
  B      -1.701965      2.200407     -0.973788
  B       1.262962     -3.653432     -0.568557
  B      -1.957803     -2.395725     -0.409991
  B       3.339186      0.538153     -1.711474
  B      -4.256663      0.583448     -2.381679
  B      -0.357403      2.735901     -1.147075
  B      -0.237596     -2.938206     -1.215659
12
Coordinates from ORCA-job input E -295.905591620678
  B       2.170517     -0.149972      4.521441
  B       3.095297      0.010282      3.053242
  B      -1.125639      1.643386      0.390345
  B      -1.293493     -1.959839      0.981931
  B       1.119666      3.338230     -0.602584
  B      -1.716246      2.154380     -1.001837
  B       1.232795     -3.638406     -0.553319
  B      -1.895233     -2.360175     -0.445437
  B       3.321278      0.547345     -1.693863
  B      -4.265645      0.612261     -2.339659
  B      -0.364552      2.700397     -1.130237
  B      -0.278746     -2.897890     -1.180022
12
Coordinates from ORCA-job input E -295.929858313896
  B       2.177161     -0.145334      4.516345
  B       3.092403      0.008569      3.066437
  B      -1.122407      1.611771      0.375486
  B      -1.257764     -1.930378      0.934178
  B       1.111243      3.307115     -0.605672
  B      -1.741942      2.120711     -1.014593
  B       1.212717     -3.628372     -0.539122
  B      -1.852738     -2.328571     -0.469909
  B       3.319163      0.544817     -1.677295
  B      -4.273809      0.630516     -2.314857
  B      -0.362063      2.678847     -1.117918
  B      -0.301965     -2.869690     -1.153081
12
Coordinates from ORCA-job input E -295.960776185684
  B       2.187994     -0.136193      4.497303
  B       3.085722      0.005897      3.089387
  B      -1.124847      1.579061      0.329009
  B      -1.203509     -1.886257      0.862258
  B       1.100448      3.254356     -0.605072
  B      -1.786615      2.070792     -1.018653
  B       1.186514     -3.615031     -0.518935
  B      -1.791993     -2.281550     -0.508152
  B       3.322942      0.536598     -1.647797
  B      -4.294654      0.652750     -2.274392
  B      -0.348861      2.648175     -1.093329
  B      -0.333141     -2.828598     -1.111628
12
Coordinates from ORCA-job input E -295.993374143632
  B       2.200918     -0.135113      4.493036
  B       3.086501      0.002441      3.122847
  B      -1.081624      1.521821      0.261023
  B      -1.112929     -1.816035      0.771978
  B       1.085078      3.172758     -0.597596
  B      -1.818963      1.999788     -1.057321
  B       1.130269     -3.577960     -0.495026
  B      -1.712341     -2.208755     -0.564671
  B       3.306183      0.544075     -1.599462
  B      -4.319758      0.683873     -2.213876
  B      -0.383223      2.571900     -1.066707
  B      -0.380111     -2.758793     -1.054224
12
Coordinates from ORCA-job input E -296.070020158287
  B       2.206348     -0.133808      4.476937
  B       3.100398     -0.019860      3.186534
  B      -1.103826      1.351241     -0.007401
  B      -0.885178     -1.512746      0.495446
  B       1.031803      2.826292     -0.590265
  B      -2.044049      1.732271     -1.114807
  B       1.022892     -3.436287     -0.461622
  B      -1.621676     -1.878529     -0.697657
  B       3.362721      0.543222     -1.464256
  B      -4.386599      0.773824     -1.984386
  B      -0.340011      2.339810     -0.954885
  B      -0.342823     -2.585430     -0.883638
12
Coordinates from ORCA-job input E -296.101522569859
  B       2.187346     -0.163486      4.537982
  B       3.141370     -0.033113      3.174419
  B      -1.076018      1.290014     -0.026801
  B      -0.819720     -1.443707      0.487018
  B       1.043870      2.747591     -0.604105
  B      -2.106833      1.677905     -1.173789
  B       1.012618     -3.400082     -0.450586
  B      -1.616404     -1.801816     -0.720271
  B       3.336188      0.578347     -1.444618
  B      -4.368338      0.821345     -1.950275
  B      -0.393199      2.261394     -0.969871
  B      -0.340881     -2.534392     -0.859103
12
Coordinates from ORCA-job input E -296.160176981178
  B       2.288577     -0.261476      4.500151
  B       3.152749     -0.096811      3.216622
  B      -1.123410      1.166102     -0.016751
  B      -0.744901     -1.301390      0.417027
  B       1.034588      2.528591     -0.698302
  B      -2.303348      1.584809     -1.220756
  B       1.045753     -3.363214     -0.343474
  B      -1.656118     -1.567201     -0.751585
  B       3.219711      0.708125     -1.326954
  B      -4.179829      0.973136     -1.935817
  B      -0.490554      2.099169     -1.070163
  B      -0.243218     -2.469841     -0.769998
12
Coordinates from ORCA-job input E -296.198781820152
  B       2.263393     -0.312347      4.541900
  B       3.171510     -0.119938      3.186643
  B      -1.176135      1.137489     -0.053984
  B      -0.710222     -1.275451      0.416380
  B       1.020249      2.455177     -0.749808
  B      -2.338097      1.555847     -1.243336
  B       1.060971     -3.354040     -0.310527
  B      -1.616720     -1.501715     -0.751460
  B       3.158396      0.762779     -1.317832
  B      -4.093841      1.023340     -1.886247
  B      -0.502411      2.048587     -1.096031
  B      -0.237092     -2.419730     -0.735697
12
Coordinates from ORCA-job input E -296.225003652555
  B       2.263198     -0.353812      4.551820
  B       3.179802     -0.141010      3.183051
  B      -1.222242      1.117372     -0.082656
  B      -0.664892     -1.254997      0.431877
  B       1.009297      2.396763     -0.784383
  B      -2.350422      1.534683     -1.255188
  B       1.064286     -3.336592     -0.282951
  B      -1.590243     -1.454970     -0.754381
  B       3.114717      0.806152     -1.306266
  B      -4.045181      1.046850     -1.868847
  B      -0.507734      2.008618     -1.116680
  B      -0.250587     -2.369058     -0.715395
12
Coordinates from ORCA-job input E -296.274569603796
  B       2.287443     -0.468006      4.550279
  B       3.213902     -0.162906      3.154845
  B      -1.256582      1.041116     -0.103379
  B      -0.670718     -1.239310      0.499397
  B       0.929029      2.337859     -0.846967
  B      -2.297677      1.528977     -1.290220
  B       1.065245     -3.271229     -0.243946
  B      -1.594854     -1.444437     -0.733454
  B       2.987533      0.930011     -1.279275
  B      -3.840483      1.092067     -1.880092
  B      -0.540310      1.972225     -1.190583
  B      -0.282528     -2.316367     -0.636605
12
Coordinates from ORCA-job input E -296.320883143200
  B       2.325451     -0.598211      4.520833
  B       3.245040     -0.183644      3.129943
  B      -1.278793      0.963995     -0.127684
  B      -0.714651     -1.168045      0.547259
  B       0.860615      2.273262     -0.902436
  B      -2.212622      1.516848     -1.323356
  B       1.068144     -3.207043     -0.198452
  B      -1.603030     -1.422691     -0.706665
  B       2.874157      1.066124     -1.243608
  B      -3.656118      1.101301     -1.904171
  B      -0.587960      1.920099     -1.244113
  B      -0.320233     -2.261995     -0.547550
12
Coordinates from ORCA-job input E -296.409063973814
  B       2.407062     -1.012042      4.387829
  B       3.284730     -0.203662      3.086406
  B      -1.272295      0.706231     -0.184751
  B      -0.777078     -0.911545      0.623458
  B       0.793195      2.041765     -1.060749
  B      -1.989564      1.472319     -1.376929
  B       1.071556     -2.949186     -0.020606
  B      -1.682788     -1.339713     -0.630448
  B       2.608275      1.444213     -1.111082
  B      -3.378423      1.088501     -1.950049
  B      -0.664203      1.755111     -1.432676
  B      -0.400466     -2.091991     -0.330403
12
Coordinates from ORCA-job input E -296.457751924348
  B       2.298231     -1.021413      4.397285
  B       3.203485     -0.221191      3.088743
  B      -1.237647      0.666119     -0.185737
  B      -0.696680     -0.794509      0.568449
  B       0.889251      1.937209     -1.101202
  B      -2.069169      1.429255     -1.336164
  B       1.141787     -2.860591     -0.084838
  B      -1.684138     -1.287227     -0.596885
  B       2.559161      1.404804     -1.119378
  B      -3.453696      1.071446     -1.819629
  B      -0.587988      1.701229     -1.468594
  B      -0.362596     -2.025131     -0.342051
12
Coordinates from ORCA-job input E -296.473933421956
  B       2.189533     -1.034028      4.366936
  B       3.115859     -0.250211      3.082085
  B      -1.166931      0.669046     -0.183333
  B      -0.614188     -0.700341      0.551358
  B       0.907329      1.904280     -1.129465
  B      -2.044791      1.410883     -1.295025
  B       1.164795     -2.820442     -0.136002
  B      -1.649795     -1.248859     -0.546640
  B       2.564247      1.373160     -1.128210
  B      -3.597247      0.983875     -1.731733
  B      -0.520901      1.689915     -1.510833
  B      -0.347910     -1.977277     -0.339139
12
Coordinates from ORCA-job input E -296.489370301770
  B       2.014875     -1.080253      4.309806
  B       2.909150     -0.323582      3.048311
  B      -1.079780      0.652992     -0.192498
  B      -0.453525     -0.539646      0.506118
  B       0.929805      1.831014     -1.185008
  B      -2.079933      1.405984     -1.278588
  B       1.244886     -2.807321     -0.150158
  B      -1.569997     -1.120807     -0.462984
  B       2.494117      1.316036     -1.145082
  B      -3.643235      0.937626     -1.518541
  B      -0.560493      1.665970     -1.632244
  B      -0.205871     -1.938013     -0.299131
12
Coordinates from ORCA-job input E -296.502136150506
  B       2.089956     -1.075556      4.288453
  B       2.923044     -0.369255      3.059973
  B      -1.070938      0.709332     -0.263683
  B      -0.374668     -0.567557      0.528546
  B       0.849219      1.829917     -1.130778
  B      -2.092404      1.391827     -1.345357
  B       1.197852     -2.810755     -0.144751
  B      -1.533334     -1.060110     -0.469181
  B       2.502649      1.271268     -1.073084
  B      -3.655844      0.875344     -1.554800
  B      -0.584449      1.682768     -1.632439
  B      -0.251083     -1.877224     -0.262898
12
Coordinates from ORCA-job input E -296.519207295761
  B       2.110848     -1.099401      4.284509
  B       2.941238     -0.412526      3.051913
  B      -1.015086      0.713658     -0.309067
  B      -0.297180     -0.481588      0.533971
  B       0.781504      1.796862     -1.091845
  B      -2.074829      1.344536     -1.403460
  B       1.124382     -2.810510     -0.128946
  B      -1.478264     -0.907752     -0.479412
  B       2.399102      1.244391     -0.987676
  B      -3.620672      0.774295     -1.513763
  B      -0.603293      1.696401     -1.685722
  B      -0.267750     -1.858368     -0.270502
12
Coordinates from ORCA-job input E -296.530300976497
  B       2.101155     -1.123141      4.288557
  B       2.959799     -0.433725      3.044919
  B      -0.967225      0.742658     -0.330153
  B      -0.264413     -0.445976      0.525170
  B       0.778536      1.793967     -1.070394
  B      -2.068470      1.324275     -1.431518
  B       1.075255     -2.817145     -0.120291
  B      -1.468688     -0.836855     -0.495767
  B       2.346004      1.220798     -0.932471
  B      -3.596797      0.661608     -1.447625
  B      -0.621276      1.752844     -1.770420
  B      -0.273881     -1.839309     -0.260007
12
Coordinates from ORCA-job input E -296.571005333806
  B       2.102376     -1.142054      4.268504
  B       3.036585     -0.522992      2.979432
  B      -0.675568      0.881766     -0.453614
  B      -0.106515     -0.264141      0.434066
  B       0.541630      1.715241     -0.934747
  B      -1.987201      1.171962     -1.514715
  B       0.791752     -2.812551     -0.086485
  B      -1.417989     -0.581060     -0.640010
  B       2.050733      1.068968     -0.668332
  B      -3.275790      0.232873     -1.224624
  B      -0.696287      1.950176     -1.942913
  B      -0.363725     -1.698188     -0.216562
12
Coordinates from ORCA-job input E -296.611260918871
  B       2.071367     -1.127371      4.245729
  B       3.002213     -0.516358      2.955778
  B      -0.674951      0.892806     -0.458123
  B      -0.148565     -0.281834      0.409405
  B       0.620136      1.814207     -0.976389
  B      -1.933388      1.133307     -1.448193
  B       0.719063     -2.836861     -0.084675
  B      -1.508703     -0.591903     -0.692252
  B       2.081087      1.139426     -0.685472
  B      -3.114756      0.105307     -1.124593
  B      -0.687557      1.996841     -1.936614
  B      -0.425946     -1.727565     -0.204601
12
Coordinates from ORCA-job input E -296.620276894669
  B       2.070231     -1.114300      4.226228
  B       2.982521     -0.520249      2.935007
  B      -0.659171      0.921859     -0.464375
  B      -0.162874     -0.304304      0.409692
  B       0.620154      1.875031     -0.997639
  B      -1.889988      1.128008     -1.408666
  B       0.674591     -2.885620     -0.063149
  B      -1.576767     -0.582468     -0.719589
  B       2.040159      1.173203     -0.698044
  B      -2.942196      0.016197     -1.094002
  B      -0.679658      2.053925     -1.939115
  B      -0.477002     -1.761282     -0.186348
12
Coordinates from ORCA-job input E -296.629981437675
  B       2.111103     -1.082958      4.212700
  B       2.981553     -0.507938      2.913582
  B      -0.656910      0.959140     -0.474821
  B      -0.163005     -0.402435      0.423084
  B       0.635831      1.947353     -1.025009
  B      -1.912352      1.197178     -1.453089
  B       0.738385     -3.001170      0.000235
  B      -1.590218     -0.675926     -0.703039
  B       1.991490      1.213908     -0.683688
  B      -3.042065      0.152813     -1.187783
  B      -0.633105      2.096427     -1.879097
  B      -0.460707     -1.896391     -0.143076
12
Coordinates from ORCA-job input E -296.644787383495
  B       2.129038     -1.080246      4.206269
  B       3.004611     -0.524378      2.891346
  B      -0.633347      0.935343     -0.450960
  B      -0.161833     -0.383507      0.402961
  B       0.626782      1.956747     -1.026182
  B      -1.931603      1.186753     -1.457477
  B       0.695113     -2.963356      0.007238
  B      -1.578620     -0.638521     -0.701500
  B       1.980962      1.162839     -0.634881
  B      -2.995797      0.084036     -1.241603
  B      -0.659119      2.096766     -1.866738
  B      -0.476187     -1.832475     -0.128473
12
Coordinates from ORCA-job input E -296.651068697257
  B       2.127926     -1.073621      4.189633
  B       2.998514     -0.536395      2.877295
  B      -0.614227      0.948679     -0.453892
  B      -0.159893     -0.370283      0.392909
  B       0.626009      1.966403     -1.026644
  B      -1.914039      1.184959     -1.446647
  B       0.649820     -2.944687      0.005050
  B      -1.572159     -0.624625     -0.704584
  B       1.926809      1.150305     -0.615035
  B      -2.904449      0.007715     -1.213932
  B      -0.661952      2.102839     -1.872962
  B      -0.502359     -1.811288     -0.131191
12
Coordinates from ORCA-job input E -296.662918715254
  B       2.148588     -1.060149      4.181825
  B       3.016735     -0.544236      2.848025
  B      -0.594513      0.954817     -0.457415
  B      -0.147880     -0.367667      0.376572
  B       0.625156      1.987808     -1.023900
  B      -1.936378      1.213252     -1.476386
  B       0.631396     -2.951892      0.029013
  B      -1.550048     -0.643267     -0.700327
  B       1.872047      1.115154     -0.546397
  B      -2.889748      0.006293     -1.246267
  B      -0.670092      2.116791     -1.869306
  B      -0.505262     -1.826905     -0.115436
12
Coordinates from ORCA-job input E -296.675432480972
  B       2.171655     -1.056602      4.172894
  B       3.025576     -0.559726      2.825310
  B      -0.583652      0.966867     -0.470101
  B      -0.134219     -0.381528      0.367118
  B       0.617472      2.009549     -1.037331
  B      -1.955008      1.246914     -1.510178
  B       0.639063     -2.985403      0.056098
  B      -1.521419     -0.657348     -0.691555
  B       1.787158      1.101191     -0.481412
  B      -2.871396      0.031943     -1.269140
  B      -0.668564      2.111234     -1.871118
  B      -0.506668     -1.827092     -0.090585
12
Coordinates from ORCA-job input E -296.696324555973
  B       2.183832     -1.052197      4.158685
  B       3.026498     -0.584363      2.790587
  B      -0.569657      0.999666     -0.491719
  B      -0.115429     -0.385922      0.349535
  B       0.602178      2.047921     -1.070726
  B      -1.990563      1.303088     -1.557822
  B       0.632042     -3.024305      0.085735
  B      -1.483944     -0.682709     -0.685708
  B       1.680888      1.077489     -0.378850
  B      -2.783573      0.037872     -1.231987
  B      -0.673148      2.113314     -1.897027
  B      -0.509124     -1.849856     -0.070703
12
Coordinates from ORCA-job input E -296.711778195944
  B       2.186654     -1.051827      4.142104
  B       3.015626     -0.613993      2.756055
  B      -0.554151      1.034962     -0.526220
  B      -0.091848     -0.381529      0.327485
  B       0.574124      2.062582     -1.106424
  B      -2.022538      1.350634     -1.613272
  B       0.607563     -3.047162      0.105322
  B      -1.445014     -0.705979     -0.689682
  B       1.558298      1.072368     -0.270817
  B      -2.640640      0.044115     -1.134954
  B      -0.680283      2.107049     -1.931186
  B      -0.507792     -1.871220     -0.058411
12
Coordinates from ORCA-job input E -296.727680594329
  B       2.199379     -1.043425      4.132909
  B       3.009493     -0.646798      2.723002
  B      -0.541451      1.042484     -0.549149
  B      -0.062819     -0.384506      0.307718
  B       0.577157      2.089494     -1.136358
  B      -2.038139      1.378287     -1.649080
  B       0.615522     -3.091490      0.139977
  B      -1.404394     -0.761148     -0.690054
  B       1.483887      1.091487     -0.172605
  B      -2.642744      0.110690     -1.120424
  B      -0.697100      2.106614     -1.950717
  B      -0.498792     -1.891691     -0.035218
12
Coordinates from ORCA-job input E -296.743831823566
  B       2.208634     -1.042655      4.133116
  B       2.985293     -0.690750      2.687425
  B      -0.527795      1.039943     -0.567639
  B      -0.009649     -0.357736      0.305131
  B       0.565465      2.044917     -1.123887
  B      -2.024593      1.411076     -1.678993
  B       0.587408     -3.059499      0.149948
  B      -1.376824     -0.806702     -0.683206
  B       1.369781      1.121225     -0.148484
  B      -2.604825      0.121512     -1.095087
  B      -0.702633      2.106083     -1.965419
  B      -0.470263     -1.887414     -0.012905
12
Coordinates from ORCA-job input E -296.760169932615
  B       2.204307     -1.052472      4.129914
  B       2.938012     -0.753998      2.652223
  B      -0.549012      1.039608     -0.589781
  B       0.020928     -0.344297      0.305200
  B       0.571729      2.101170     -1.157400
  B      -2.047450      1.441268     -1.717934
  B       0.597209     -3.094029      0.185711
  B      -1.376324     -0.856183     -0.655853
  B       1.331720      1.155918     -0.135458
  B      -2.511423      0.119010     -1.056998
  B      -0.726033      2.139712     -1.988837
  B      -0.453663     -1.895708      0.029213
12
Coordinates from ORCA-job input E -296.776793943745
  B       2.210809     -1.074317      4.126493
  B       2.891718     -0.813066      2.626292
  B      -0.581187      1.051138     -0.621540
  B       0.049559     -0.320252      0.295192
  B       0.540895      2.107996     -1.173844
  B      -2.083264      1.485041     -1.764729
  B       0.621053     -3.104770      0.234057
  B      -1.373145     -0.929644     -0.623074
  B       1.285121      1.149511     -0.126448
  B      -2.389992      0.169690     -1.040953
  B      -0.755367      2.181021     -2.011425
  B      -0.416200     -1.902348      0.079979
12
Coordinates from ORCA-job input E -296.792988646796
  B       2.221472     -1.101394      4.135472
  B       2.847748     -0.868315      2.601322
  B      -0.622158      1.055101     -0.648538
  B       0.068039     -0.298321      0.289244
  B       0.504494      2.107459     -1.175703
  B      -2.117552      1.527534     -1.803682
  B       0.658776     -3.105460      0.283591
  B      -1.378301     -0.981349     -0.574952
  B       1.244705      1.114602     -0.158077
  B      -2.276577      0.201670     -1.062561
  B      -0.774332      2.239059     -2.020592
  B      -0.376314     -1.890585      0.134477
12
Coordinates from ORCA-job input E -296.806654575011
  B       2.236772     -1.130990      4.134171
  B       2.797234     -0.925486      2.581314
  B      -0.652929      1.059816     -0.679586
  B       0.097808     -0.269909      0.276568
  B       0.476066      2.104602     -1.174760
  B      -2.128009      1.538164     -1.824901
  B       0.680615     -3.074069      0.328295
  B      -1.376058     -0.979355     -0.541927
  B       1.207787      1.072387     -0.179545
  B      -2.220789      0.174727     -1.078891
  B      -0.780256      2.283969     -2.020513
  B      -0.338242     -1.853855      0.179776
12
Coordinates from ORCA-job input E -296.819571696346
  B       2.244008     -1.149093      4.135641
  B       2.754141     -0.972484      2.553808
  B      -0.689487      1.047367     -0.690436
  B       0.119096     -0.261740      0.277768
  B       0.485202      2.134214     -1.168932
  B      -2.133321      1.562762     -1.830511
  B       0.712771     -3.044275      0.378943
  B      -1.381755     -1.019577     -0.489261
  B       1.178997      1.055381     -0.248436
  B      -2.193094      0.160017     -1.142509
  B      -0.777157      2.320129     -1.993285
  B      -0.319401     -1.832700      0.217210
12
Coordinates from ORCA-job input E -296.833752687919
  B       2.262209     -1.173488      4.135611
  B       2.714422     -1.013215      2.525739
  B      -0.706233      1.043324     -0.721081
  B       0.145706     -0.255195      0.258924
  B       0.500572      2.159702     -1.145547
  B      -2.119346      1.554732     -1.834969
  B       0.751832     -2.993257      0.446430
  B      -1.396365     -1.007806     -0.476771
  B       1.160330      1.015590     -0.287333
  B      -2.241002      0.124206     -1.197843
  B      -0.774152      2.353293     -1.957916
  B      -0.297974     -1.807887      0.254757
12
Coordinates from ORCA-job input E -296.848575476278
  B       2.270587     -1.203782      4.136969
  B       2.668836     -1.060962      2.500023
  B      -0.712801      1.047944     -0.761001
  B       0.184388     -0.246096      0.244290
  B       0.503525      2.184630     -1.137740
  B      -2.097799      1.533580     -1.835895
  B       0.789718     -2.928098      0.512139
  B      -1.381915     -0.984528     -0.464011
  B       1.124477      0.973726     -0.311164
  B      -2.264271      0.100958     -1.203150
  B      -0.788641      2.377189     -1.945577
  B      -0.296105     -1.794561      0.265116
12
Coordinates from ORCA-job input E -296.864455851039
  B       2.273202     -1.226176      4.131353
  B       2.630133     -1.108700      2.470385
  B      -0.711451      1.041970     -0.791931
  B       0.214285     -0.268929      0.226604
  B       0.505623      2.216460     -1.135795
  B      -2.067959      1.511171     -1.829256
  B       0.825854     -2.851077      0.590320
  B      -1.378382     -0.958977     -0.465183
  B       1.088898      0.965147     -0.330598
  B      -2.284069      0.095300     -1.200061
  B      -0.800542      2.389356     -1.933488
  B      -0.295590     -1.805546      0.267651
12
Coordinates from ORCA-job input E -296.876619143382
  B       2.274098     -1.235546      4.127196
  B       2.605590     -1.138755      2.444772
  B      -0.712122      1.032048     -0.810995
  B       0.224690     -0.296158      0.211317
  B       0.499577      2.232707     -1.135060
  B      -2.041874      1.494937     -1.819418
  B       0.849056     -2.794044      0.648158
  B      -1.381240     -0.943754     -0.473554
  B       1.059652      0.970625     -0.343002
  B      -2.257170      0.112004     -1.186717
  B      -0.815701      2.394013     -1.926650
  B      -0.304556     -1.828076      0.263955
12
Coordinates from ORCA-job input E -296.884966609275
  B       2.276996     -1.243547      4.125743
  B       2.588979     -1.157895      2.428446
  B      -0.712506      1.027552     -0.822760
  B       0.234057     -0.314107      0.203855
  B       0.501138      2.245290     -1.132990
  B      -2.026346      1.488189     -1.815261
  B       0.866311     -2.750306      0.686047
  B      -1.380509     -0.936340     -0.476149
  B       1.042240      0.965464     -0.353232
  B      -2.267461      0.113045     -1.188848
  B      -0.817688      2.399683     -1.917945
  B      -0.305209     -1.837029      0.263094
12
Coordinates from ORCA-job input E -296.897748708506
  B       2.282753     -1.256083      4.120519
  B       2.561639     -1.188063      2.405876
  B      -0.713151      1.022233     -0.842457
  B       0.248588     -0.336752      0.192499
  B       0.503055      2.260407     -1.128186
  B      -2.005440      1.476293     -1.811320
  B       0.890721     -2.683197      0.741009
  B      -1.377440     -0.922113     -0.481741
  B       1.015909      0.954592     -0.362170
  B      -2.278550      0.114817     -1.186349
  B      -0.823156      2.407026     -1.909022
  B      -0.304928     -1.849159      0.261342
12
Coordinates from ORCA-job input E -296.915254606839
  B       2.292874     -1.272681      4.109106
  B       2.519824     -1.230498      2.376114
  B      -0.713347      1.013350     -0.871069
  B       0.272075     -0.369912      0.179268
  B       0.506700      2.285248     -1.123857
  B      -1.974656      1.457271     -1.807433
  B       0.916371     -2.591942      0.813164
  B      -1.369276     -0.901017     -0.490142
  B       0.978827      0.947063     -0.369274
  B      -2.296911      0.117026     -1.179580
  B      -0.831467      2.414418     -1.897752
  B      -0.301015     -1.868325      0.261453
12
Coordinates from ORCA-job input E -296.933536046940
  B       2.303646     -1.291587      4.098554
  B       2.472550     -1.275737      2.345416
  B      -0.713627      1.004905     -0.898967
  B       0.297351     -0.402981      0.171542
  B       0.505764      2.308009     -1.126420
  B      -1.951332      1.442293     -1.809617
  B       0.941746     -2.508744      0.881553
  B      -1.356822     -0.879493     -0.498439
  B       0.941774      0.943737     -0.370427
  B      -2.310726      0.122182     -1.168362
  B      -0.840499      2.423486     -1.892527
  B      -0.289824     -1.886071      0.267694
12
Coordinates from ORCA-job input E -296.949564383740
  B       2.310335     -1.307686      4.091913
  B       2.434410     -1.311918      2.321076
  B      -0.714741      1.000760     -0.918145
  B       0.314653     -0.424510      0.170363
  B       0.502607      2.318833     -1.134615
  B      -1.945595      1.436127     -1.816537
  B       0.963440     -2.454885      0.929132
  B      -1.345838     -0.863853     -0.504003
  B       0.921579      0.945880     -0.363582
  B      -2.314284      0.125768     -1.157041
  B      -0.848679      2.431315     -1.894394
  B      -0.277887     -1.895830      0.275833
12
Coordinates from ORCA-job input E -296.961677715637
  B       2.314479     -1.317744      4.085919
  B       2.407357     -1.336405      2.304499
  B      -0.715065      0.998380     -0.929973
  B       0.326506     -0.436925      0.171801
  B       0.500467      2.322313     -1.140868
  B      -1.946420      1.433541     -1.822870
  B       0.976891     -2.421132      0.958481
  B      -1.335862     -0.852937     -0.506314
  B       0.910223      0.949211     -0.356764
  B      -2.316157      0.127356     -1.150697
  B      -0.853619      2.435794     -1.895550
  B      -0.268799     -1.901452      0.282337
12
Coordinates from ORCA-job input E -296.978457799682
  B       2.320271     -1.330845      4.073792
  B       2.364474     -1.371669      2.279297
  B      -0.715639      0.994267     -0.946765
  B       0.343362     -0.454245      0.175161
  B       0.498772      2.328987     -1.149256
  B      -1.942158      1.427596     -1.827494
  B       0.996164     -2.373362      1.001022
  B      -1.318554     -0.836112     -0.508469
  B       0.891581      0.954207     -0.350345
  B      -2.321432      0.130107     -1.145808
  B      -0.861775      2.439361     -1.894399
  B      -0.255066     -1.908291      0.293264
12
Coordinates from ORCA-job input E -297.007656807479
  B       2.357166     -1.366607      4.079456
  B       2.323850     -1.422055      2.262089
  B      -0.719667      0.980008     -0.971022
  B       0.367584     -0.490379      0.180566
  B       0.492732      2.314462     -1.154059
  B      -1.962023      1.440428     -1.865005
  B       1.035244     -2.283083      1.074900
  B      -1.291028     -0.809829     -0.521232
  B       0.890683      0.963248     -0.319116
  B      -2.401305      0.157496     -1.171441
  B      -0.863620      2.435954     -1.892016
  B      -0.229615     -1.919643      0.296880
12
Coordinates from ORCA-job input E -297.033370483907
  B       2.394744     -1.410509      4.067793
  B       2.279969     -1.452613      2.248972
  B      -0.726929      0.976428     -0.991253
  B       0.372499     -0.513111      0.177563
  B       0.478641      2.302281     -1.146679
  B      -1.962099      1.432921     -1.875949
  B       1.053248     -2.177599      1.142682
  B      -1.293845     -0.794798     -0.524381
  B       0.846007      0.955568     -0.326843
  B      -2.354573      0.155601     -1.171198
  B      -0.857613      2.442274     -1.889771
  B      -0.230049     -1.916443      0.289064
12
Coordinates from ORCA-job input E -297.055736590626
  B       2.426910     -1.435193      4.015890
  B       2.260073     -1.452208      2.249553
  B      -0.744914      0.967113     -1.005246
  B       0.368508     -0.541921      0.172760
  B       0.507223      2.279916     -1.113306
  B      -1.968334      1.433946     -1.897502
  B       1.036779     -2.067262      1.187881
  B      -1.303872     -0.820862     -0.511148
  B       0.862505      0.988628     -0.301834
  B      -2.336634      0.135554     -1.183663
  B      -0.850719      2.436837     -1.879615
  B      -0.257525     -1.924547      0.266229
12
Coordinates from ORCA-job input E -297.068637458397
  B       2.439025     -1.450597      3.991415
  B       2.247650     -1.435924      2.244470
  B      -0.737213      0.961732     -0.993552
  B       0.379361     -0.544908      0.181450
  B       0.506862      2.258547     -1.087794
  B      -1.979104      1.450498     -1.913750
  B       1.033925     -2.006997      1.207509
  B      -1.290016     -0.843436     -0.481631
  B       0.808609      0.941651     -0.331460
  B      -2.316730      0.137184     -1.210456
  B      -0.830071      2.457003     -1.866535
  B      -0.262297     -1.924754      0.260335
12
Coordinates from ORCA-job input E -297.085069750232
  B       2.450240     -1.463605      3.926529
  B       2.219159     -1.423894      2.219455
  B      -0.739475      0.948508     -0.999843
  B       0.392982     -0.548016      0.184693
  B       0.501228      2.265788     -1.079841
  B      -1.986360      1.436090     -1.939336
  B       0.990122     -1.942401      1.215850
  B      -1.278619     -0.875325     -0.447445
  B       0.856495      0.942208     -0.258828
  B      -2.271775      0.118810     -1.211883
  B      -0.835280      2.467281     -1.873008
  B      -0.298718     -1.925444      0.263657
12
Coordinates from ORCA-job input E -297.095905164124
  B       2.428807     -1.479590      3.855695
  B       2.176975     -1.409388      2.169003
  B      -0.699637      0.936696     -0.973779
  B       0.424548     -0.541681      0.206748
  B       0.503908      2.268205     -1.075554
  B      -1.976217      1.391497     -1.928941
  B       0.928083     -1.889862      1.194650
  B      -1.256411     -0.869769     -0.402725
  B       0.875130      1.011377     -0.242296
  B      -2.247135      0.046953     -1.207737
  B      -0.818655      2.448384     -1.865679
  B      -0.339397     -1.912821      0.270616
12
Coordinates from ORCA-job input E -297.106603455820
  B       2.430634     -1.485597      3.799915
  B       2.149715     -1.388815      2.119101
  B      -0.707416      0.907415     -0.981329
  B       0.418108     -0.496853      0.196804
  B       0.502979      2.233227     -1.024438
  B      -1.981292      1.392999     -1.961380
  B       0.927150     -1.856141      1.206637
  B      -1.282060     -0.888594     -0.394666
  B       0.881696      1.003784     -0.196655
  B      -2.210264      0.056475     -1.218316
  B      -0.798707      2.434818     -1.862468
  B      -0.330543     -1.912715      0.316794
12
Coordinates from ORCA-job input E -297.111833225068
  B       2.461475     -1.464610      3.774465
  B       2.146502     -1.360894      2.081611
  B      -0.677669      0.870226     -0.950760
  B       0.429685     -0.474425      0.202873
  B       0.491856      2.197748     -0.996061
  B      -1.979815      1.388046     -1.970569
  B       0.895126     -1.824678      1.189853
  B      -1.312542     -0.882738     -0.404138
  B       0.920879      1.010181     -0.135075
  B      -2.214707      0.050318     -1.273288
  B      -0.785484      2.412200     -1.840638
  B      -0.375305     -1.921375      0.321727
12
Coordinates from ORCA-job input E -297.112004084713
  B       2.444514     -1.450133      3.726203
  B       2.081746     -1.369022      2.018431
  B      -0.650498      0.824725     -0.924598
  B       0.445902     -0.471895      0.225058
  B       0.501307      2.248360     -1.013595
  B      -1.955109      1.378720     -1.958950
  B       0.880030     -1.814162      1.193491
  B      -1.310367     -0.909263     -0.403313
  B       0.945848      1.069521     -0.117346
  B      -2.217360      0.027703     -1.268119
  B      -0.783125      2.404883     -1.835134
  B      -0.382887     -1.939436      0.357872
12
Coordinates from ORCA-job input E -297.111358821938
  B       2.478362     -1.406164      3.693191
  B       2.096570     -1.327227      2.018709
  B      -0.663435      0.773940     -0.879127
  B       0.400259     -0.434844      0.215125
  B       0.541288      2.237716     -0.966914
  B      -1.953098      1.397957     -1.961513
  B       0.827716     -1.783436      1.161161
  B      -1.380274     -0.992875     -0.425271
  B       0.948333      1.077632     -0.126947
  B      -2.146209      0.013832     -1.266057
  B      -0.730635      2.383045     -1.795300
  B      -0.418878     -1.939576      0.332942
12
Coordinates from ORCA-job input E -297.114514347102
  B       2.477145     -1.395858      3.684741
  B       2.096576     -1.318052      2.016854
  B      -0.644043      0.808086     -0.892445
  B       0.412158     -0.420378      0.216202
  B       0.562157      2.203480     -0.932562
  B      -1.956146      1.359160     -1.945522
  B       0.840380     -1.767090      1.162903
  B      -1.347193     -0.925783     -0.443981
  B       0.952175      1.006181     -0.105883
  B      -2.219367     -0.005408     -1.299537
  B      -0.746514      2.364717     -1.779474
  B      -0.427327     -1.909055      0.318706
12
Coordinates from ORCA-job input E -297.116607780984
  B       2.488315     -1.395203      3.699290
  B       2.092911     -1.328150      2.009987
  B      -0.645242      0.795001     -0.886279
  B       0.412933     -0.440111      0.216731
  B       0.537037      2.222596     -0.962970
  B      -1.951865      1.386483     -1.947905
  B       0.854939     -1.784509      1.180478
  B      -1.363154     -0.951919     -0.447564
  B       0.959635      1.032479     -0.099847
  B      -2.219654      0.020003     -1.321284
  B      -0.744307      2.375297     -1.783078
  B      -0.421547     -1.931967      0.342440
12
Coordinates from ORCA-job input E -297.117375132165
  B       2.486793     -1.376035      3.691670
  B       2.080434     -1.319160      1.999678
  B      -0.640959      0.794581     -0.880783
  B       0.409919     -0.447872      0.218488
  B       0.548977      2.222774     -0.956157
  B      -1.947959      1.379553     -1.944201
  B       0.838571     -1.784124      1.168075
  B      -1.367653     -0.959081     -0.458624
  B       0.960423      1.036156     -0.101857
  B      -2.196239      0.015676     -1.294750
  B      -0.744230      2.375049     -1.776695
  B      -0.428075     -1.937518      0.335156
12
Coordinates from ORCA-job input E -297.117855707037
  B       2.492293     -1.359940      3.679357
  B       2.077429     -1.310048      1.993416
  B      -0.642034      0.792573     -0.876696
  B       0.403518     -0.445185      0.216889
  B       0.559151      2.217845     -0.945639
  B      -1.943276      1.383793     -1.938975
  B       0.831997     -1.781464      1.167186
  B      -1.371827     -0.973165     -0.460929
  B       0.961590      1.026178     -0.099674
  B      -2.195960      0.012308     -1.310821
  B      -0.738514      2.374091     -1.762438
  B      -0.434368     -1.936986      0.338323
12
Coordinates from ORCA-job input E -297.118352215697
  B       2.497572     -1.338645      3.668229
  B       2.073471     -1.301534      1.987947
  B      -0.637315      0.795708     -0.873098
  B       0.399188     -0.447614      0.215203
  B       0.564472      2.216641     -0.935808
  B      -1.938595      1.387882     -1.934346
  B       0.829602     -1.784405      1.168884
  B      -1.378516     -0.984262     -0.469637
  B       0.961795      1.013936     -0.094196
  B      -2.199289      0.011343     -1.317339
  B      -0.731027      2.376479     -1.754724
  B      -0.441359     -1.945529      0.338884
12
Coordinates from ORCA-job input E -297.119082203843
  B       2.508237     -1.305265      3.651220
  B       2.064260     -1.288767      1.975873
  B      -0.632789      0.798678     -0.867749
  B       0.392100     -0.458316      0.214254
  B       0.571813      2.211023     -0.922357
  B      -1.931476      1.392969     -1.927243
  B       0.820937     -1.788502      1.169228
  B      -1.386945     -0.998298     -0.481371
  B       0.963830      1.003012     -0.084767
  B      -2.195241      0.010811     -1.330081
  B      -0.721950      2.378649     -1.738997
  B      -0.452776     -1.955994      0.341990
12
Coordinates from ORCA-job input E -297.120257191024
  B       2.523788     -1.259218      3.623942
  B       2.048938     -1.271969      1.958719
  B      -0.622444      0.804329     -0.860898
  B       0.379133     -0.474093      0.214150
  B       0.579863      2.208175     -0.902419
  B      -1.920812      1.399608     -1.918557
  B       0.806356     -1.797857      1.170047
  B      -1.398433     -1.020733     -0.497036
  B       0.966719      0.994250     -0.069386
  B      -2.184931      0.008331     -1.339438
  B      -0.708644      2.383129     -1.725408
  B      -0.469534     -1.973953      0.346285
12
Coordinates from ORCA-job input E -297.122007616800
  B       2.549237     -1.191919      3.585441
  B       2.023317     -1.242447      1.928827
  B      -0.610276      0.808379     -0.849872
  B       0.361089     -0.499213      0.215799
  B       0.588583      2.195403     -0.872376
  B      -1.903205      1.409139     -1.906821
  B       0.782757     -1.808546      1.168826
  B      -1.411180     -1.046514     -0.517170
  B       0.967779      0.973972     -0.046376
  B      -2.163740      0.007204     -1.356783
  B      -0.691063      2.389342     -1.700845
  B      -0.493298     -1.994799      0.351349
12
Coordinates from ORCA-job input E -297.124866959987
  B       2.576117     -1.092590      3.512192
  B       1.985191     -1.199084      1.881833
  B      -0.589861      0.811586     -0.834207
  B       0.332673     -0.531859      0.221523
  B       0.599351      2.180143     -0.822917
  B      -1.875218      1.419818     -1.890635
  B       0.745232     -1.827007      1.167479
  B      -1.426050     -1.080982     -0.538750
  B       0.968852      0.949690     -0.009832
  B      -2.125837      0.004231     -1.375689
  B      -0.663293      2.396128     -1.671225
  B      -0.527155     -2.030074      0.360228
12
Coordinates from ORCA-job input E -297.127997234039
  B       2.599264     -1.004866      3.434252
  B       1.947590     -1.154010      1.828476
  B      -0.569563      0.808923     -0.821796
  B       0.306612     -0.558480      0.224440
  B       0.600694      2.163102     -0.767549
  B      -1.846142      1.424711     -1.882738
  B       0.701302     -1.848994      1.164321
  B      -1.428772     -1.101954     -0.547424
  B       0.965437      0.929342      0.028577
  B      -2.069469     -0.002582     -1.386473
  B      -0.640928      2.405290     -1.649370
  B      -0.566024     -2.060482      0.375283
12
Coordinates from ORCA-job input E -297.131296846235
  B       2.621570     -0.904307      3.344847
  B       1.908418     -1.108508      1.777306
  B      -0.547984      0.805760     -0.803816
  B       0.272996     -0.594408      0.233015
  B       0.609061      2.148728     -0.713742
  B      -1.813443      1.436157     -1.870409
  B       0.662560     -1.863604      1.166649
  B      -1.440151     -1.136800     -0.563119
  B       0.965335      0.907473      0.066613
  B      -2.024778     -0.003549     -1.410044
  B      -0.612381      2.413367     -1.617466
  B      -0.601203     -2.100309      0.390167
12
Coordinates from ORCA-job input E -297.135028067448
  B       2.634550     -0.820793      3.251723
  B       1.867833     -1.061340      1.723001
  B      -0.523180      0.806192     -0.786928
  B       0.242611     -0.621414      0.238160
  B       0.610192      2.131612     -0.660917
  B      -1.782375      1.439669     -1.858063
  B       0.626758     -1.870432      1.170476
  B      -1.449617     -1.165566     -0.580159
  B       0.967990      0.888348      0.108778
  B      -1.979454     -0.011442     -1.425539
  B      -0.582683      2.412866     -1.588252
  B      -0.632625     -2.127700      0.407719
12
Coordinates from ORCA-job input E -297.139683165960
  B       2.648364     -0.736177      3.159346
  B       1.828978     -1.010053      1.666648
  B      -0.498326      0.806600     -0.769906
  B       0.214629     -0.650150      0.241191
  B       0.614687      2.119364     -0.606297
  B      -1.749979      1.447270     -1.848918
  B       0.590263     -1.881281      1.173243
  B      -1.465431     -1.204400     -0.588340
  B       0.969483      0.868222      0.148926
  B      -1.927917     -0.015182     -1.449234
  B      -0.557196      2.418372     -1.557949
  B      -0.667555     -2.162586      0.431290
12
Coordinates from ORCA-job input E -297.146121243001
  B       2.644210     -0.670574      3.068206
  B       1.784524     -0.957756      1.610374
  B      -0.469331      0.807804     -0.752920
  B       0.194024     -0.661832      0.236398
  B       0.616479      2.102712     -0.554679
  B      -1.719164      1.437485     -1.832478
  B       0.559584     -1.875822      1.168966
  B      -1.477810     -1.231106     -0.605030
  B       0.979045      0.851289      0.195373
  B      -1.887266     -0.032676     -1.442440
  B      -0.527528      2.405962     -1.533780
  B      -0.696766     -2.175488      0.442009
12
Coordinates from ORCA-job input E -297.153146180533
  B       2.655278     -0.590252      2.981990
  B       1.748126     -0.904168      1.553973
  B      -0.453484      0.798906     -0.733137
  B       0.163152     -0.689095      0.231007
  B       0.626210      2.101524     -0.502979
  B      -1.686048      1.459088     -1.832949
  B       0.532124     -1.892044      1.171193
  B      -1.508384     -1.293503     -0.593749
  B       0.982855      0.835759      0.230939
  B      -1.832334     -0.021860     -1.481993
  B      -0.502245      2.413762     -1.499448
  B      -0.725251     -2.218118      0.475152
12
Coordinates from ORCA-job input E -297.167870190997
  B       2.635908     -0.528931      2.908702
  B       1.706686     -0.841546      1.498907
  B      -0.429131      0.799082     -0.716219
  B       0.139759     -0.681457      0.205336
  B       0.653606      2.118844     -0.457718
  B      -1.653624      1.447084     -1.819310
  B       0.515345     -1.902322      1.153330
  B      -1.555425     -1.359137     -0.593263
  B       1.013203      0.827695      0.280362
  B      -1.803763     -0.037201     -1.465348
  B      -0.470683      2.397152     -1.475731
  B      -0.751881     -2.239264      0.480954
12
Coordinates from ORCA-job input E -297.184617076754
  B       2.614264     -0.443653      2.822491
  B       1.647965     -0.776808      1.434602
  B      -0.397053      0.803393     -0.695299
  B       0.119477     -0.691320      0.195151
  B       0.672454      2.099891     -0.412746
  B      -1.614416      1.438000     -1.794830
  B       0.496818     -1.898745      1.135519
  B      -1.579890     -1.402249     -0.602227
  B       1.021172      0.790973      0.318026
  B      -1.761566     -0.047000     -1.436108
  B      -0.440050      2.390707     -1.446759
  B      -0.779175     -2.263188      0.482180
12
Coordinates from ORCA-job input E -297.201112671797
  B       2.590205     -0.365573      2.733203
  B       1.590732     -0.713577      1.371346
  B      -0.368393      0.808411     -0.677125
  B       0.093665     -0.693341      0.178397
  B       0.694439      2.088920     -0.364961
  B      -1.578217      1.426594     -1.775550
  B       0.480165     -1.901552      1.118426
  B      -1.605361     -1.445001     -0.606013
  B       1.039018      0.763898      0.364908
  B      -1.728817     -0.064144     -1.416390
  B      -0.405733      2.379741     -1.415329
  B      -0.801704     -2.284377      0.489088
12
Coordinates from ORCA-job input E -297.099243594606
  B       2.450057     -0.213443      2.607791
  B       1.418298     -0.535675      1.220817
  B      -0.339178      0.871171     -0.684797
  B      -0.020169     -0.600141      0.049474
  B       0.899990      2.134152     -0.289480
  B      -1.488377      1.230357     -1.645851
  B       0.534482     -1.858165      1.028970
  B      -1.690776     -1.491369     -0.690736
  B       1.186799      0.708401      0.527534
  B      -1.792566     -0.293168     -1.150776
  B      -0.282588      2.291750     -1.329270
  B      -0.875972     -2.243870      0.356322
12
Coordinates from ORCA-job input E -297.192562145995
  B       2.459457     -0.284194      2.649503
  B       1.439491     -0.586229      1.261330
  B      -0.339755      0.895529     -0.708911
  B      -0.009593     -0.625218      0.063147
  B       0.865453      2.164889     -0.318977
  B      -1.518670      1.299324     -1.703699
  B       0.548049     -1.914798      1.067659
  B      -1.680545     -1.560862     -0.646659
  B       1.181223      0.753020      0.497011
  B      -1.792108     -0.196495     -1.186206
  B      -0.316676      2.332778     -1.375822
  B      -0.836325     -2.277744      0.401625
12
Coordinates from ORCA-job input E -297.217018122604
  B       2.365329     -0.312951      2.563520
  B       1.382963     -0.615808      1.232704
  B      -0.314743      0.854843     -0.684456
  B       0.008238     -0.659825      0.088220
  B       0.801349      2.073937     -0.315084
  B      -1.511452      1.354113     -1.722585
  B       0.576776     -1.876304      1.094091
  B      -1.601212     -1.517358     -0.602833
  B       1.119730      0.731132      0.457892
  B      -1.762536     -0.115208     -1.188694
  B      -0.317783      2.356506     -1.385040
  B      -0.746660     -2.273077      0.462263
12
Coordinates from ORCA-job input E -297.225108617322
  B       2.442475     -0.229636      2.622755
  B       1.405034     -0.609764      1.233604
  B      -0.309605      0.842197     -0.683174
  B       0.000229     -0.706418      0.096971
  B       0.798232      2.081040     -0.311853
  B      -1.521060      1.401440     -1.742000
  B       0.544952     -1.976135      1.099685
  B      -1.606625     -1.535497     -0.595376
  B       1.099436      0.743705      0.429494
  B      -1.747431     -0.054096     -1.206552
  B      -0.326356      2.372101     -1.392413
  B      -0.779283     -2.328938      0.448859
12
Coordinates from ORCA-job input E -297.226750099903
  B       2.361201     -0.229224      2.585126
  B       1.428146     -0.638940      1.248146
  B      -0.300432      0.842288     -0.673641
  B       0.024722     -0.722828      0.130606
  B       0.806570      2.115352     -0.343253
  B      -1.503998      1.401788     -1.721701
  B       0.561707     -1.973437      1.107406
  B      -1.583443     -1.502162     -0.571280
  B       1.085151      0.755086      0.397757
  B      -1.750452     -0.052282     -1.185839
  B      -0.336595      2.348765     -1.387310
  B      -0.792577     -2.344406      0.413983
12
Coordinates from ORCA-job input E -297.229759215339
  B       2.390041     -0.237672      2.604142
  B       1.416313     -0.653354      1.245762
  B      -0.299908      0.821527     -0.662906
  B       0.028651     -0.726036      0.142126
  B       0.810418      2.116075     -0.336722
  B      -1.530058      1.368408     -1.735596
  B       0.556569     -1.959263      1.104386
  B      -1.579227     -1.466200     -0.584100
  B       1.086075      0.742248      0.411066
  B      -1.787967     -0.060677     -1.205969
  B      -0.325995      2.367552     -1.393970
  B      -0.764912     -2.312608      0.411779
12
Coordinates from ORCA-job input E -297.231753020843
  B       2.378771     -0.169855      2.582698
  B       1.402590     -0.634150      1.218221
  B      -0.304658      0.817159     -0.658508
  B       0.026833     -0.737052      0.143703
  B       0.821058      2.077447     -0.320447
  B      -1.515066      1.405204     -1.728168
  B       0.563927     -1.972238      1.107668
  B      -1.589919     -1.481369     -0.588918
  B       1.079158      0.712108      0.416658
  B      -1.800982     -0.047376     -1.211576
  B      -0.305402      2.358412     -1.373385
  B      -0.756310     -2.328291      0.412054
12
Coordinates from ORCA-job input E -297.233106914235
  B       2.380363     -0.172290      2.587057
  B       1.416991     -0.641166      1.233395
  B      -0.310412      0.813193     -0.660018
  B       0.031710     -0.736282      0.151283
  B       0.814502      2.072127     -0.326291
  B      -1.516519      1.407770     -1.731117
  B       0.569366     -1.989571      1.117736
  B      -1.586978     -1.468158     -0.589835
  B       1.082730      0.720688      0.416270
  B      -1.818786     -0.036789     -1.222095
  B      -0.310841      2.349298     -1.377218
  B      -0.752127     -2.318821      0.400833
12
Coordinates from ORCA-job input E -297.234117742639
  B       2.375011     -0.161638      2.585877
  B       1.420690     -0.647459      1.235812
  B      -0.315098      0.800465     -0.656349
  B       0.037462     -0.737490      0.159584
  B       0.816337      2.067816     -0.327356
  B      -1.516488      1.403717     -1.727636
  B       0.576434     -1.992157      1.122621
  B      -1.582694     -1.454599     -0.587313
  B       1.083773      0.714364      0.417634
  B      -1.831817     -0.030555     -1.226523
  B      -0.311321      2.344722     -1.378498
  B      -0.752290     -2.307186      0.382147
12
Coordinates from ORCA-job input E -297.235328766860
  B       2.366107     -0.143722      2.573950
  B       1.426719     -0.656657      1.242001
  B      -0.326108      0.789974     -0.655163
  B       0.048967     -0.743898      0.177885
  B       0.818748      2.058239     -0.327057
  B      -1.523431      1.407484     -1.731006
  B       0.583172     -2.010087      1.131786
  B      -1.576336     -1.428392     -0.592066
  B       1.081723      0.700939      0.423793
  B      -1.859710     -0.021484     -1.242616
  B      -0.305601      2.334551     -1.374145
  B      -0.734249     -2.286947      0.372638
12
Coordinates from ORCA-job input E -297.236508884607
  B       2.387524     -0.100430      2.592083
  B       1.436200     -0.676487      1.248200
  B      -0.345529      0.772476     -0.657615
  B       0.060360     -0.748954      0.194551
  B       0.816793      2.028662     -0.323041
  B      -1.521938      1.424727     -1.734606
  B       0.592827     -2.026722      1.139139
  B      -1.570782     -1.395765     -0.595892
  B       1.061690      0.679068      0.415363
  B      -1.896625     -0.012088     -1.265332
  B      -0.296902      2.332960     -1.367559
  B      -0.723618     -2.277447      0.354709
12
Coordinates from ORCA-job input E -297.237886485037
  B       2.361923      0.000182      2.521605
  B       1.442696     -0.694313      1.242866
  B      -0.351062      0.729778     -0.644565
  B       0.068281     -0.763019      0.213728
  B       0.830671      2.024163     -0.297180
  B      -1.497231      1.434144     -1.723505
  B       0.583766     -2.051196      1.141245
  B      -1.590860     -1.392849     -0.600467
  B       1.068916      0.659546      0.423885
  B      -1.903388     -0.000329     -1.293746
  B      -0.283039      2.336576     -1.330105
  B      -0.730673     -2.282684      0.346240
12
Coordinates from ORCA-job input E -297.238667603190
  B       2.321428      0.094966      2.445469
  B       1.439811     -0.730042      1.249338
  B      -0.345522      0.747662     -0.642733
  B       0.080448     -0.790271      0.242320
  B       0.843288      2.002108     -0.285871
  B      -1.510051      1.435282     -1.725328
  B       0.572184     -2.093127      1.149826
  B      -1.548930     -1.351280     -0.585038
  B       1.072665      0.617634      0.442988
  B      -1.900752      0.021759     -1.305798
  B      -0.288208      2.335823     -1.310797
  B      -0.736361     -2.290512      0.325623
12
Coordinates from ORCA-job input E -297.241725413199
  B       2.327878      0.199097      2.363132
  B       1.430337     -0.765374      1.256093
  B      -0.343659      0.733717     -0.638149
  B       0.066760     -0.795321      0.237116
  B       0.846143      1.987546     -0.247704
  B      -1.486235      1.449119     -1.718194
  B       0.554258     -2.105195      1.153887
  B      -1.555944     -1.353384     -0.593914
  B       1.070022      0.602160      0.459426
  B      -1.887269      0.010919     -1.325716
  B      -0.273330      2.336090     -1.270791
  B      -0.748960     -2.299375      0.324814
12
Coordinates from ORCA-job input E -297.243920789053
  B       2.314908      0.307139      2.281587
  B       1.429419     -0.781507      1.259491
  B      -0.338230      0.721242     -0.627045
  B       0.045160     -0.805762      0.220648
  B       0.855731      1.960988     -0.208595
  B      -1.460751      1.459741     -1.706118
  B       0.544509     -2.111826      1.159305
  B      -1.567005     -1.361181     -0.604704
  B       1.058965      0.573354      0.464680
  B      -1.871885      0.010614     -1.331013
  B      -0.250568      2.345163     -1.232331
  B      -0.760254     -2.317964      0.324094
12
Coordinates from ORCA-job input E -297.247634521016
  B       2.270050      0.456717      2.111669
  B       1.402375     -0.810722      1.270437
  B      -0.320776      0.712076     -0.605012
  B       0.025037     -0.818263      0.211459
  B       0.873465      1.941779     -0.152018
  B      -1.418375      1.473514     -1.682333
  B       0.519166     -2.129894      1.165033
  B      -1.571364     -1.379913     -0.614459
  B       1.050440      0.542703      0.485175
  B      -1.836130      0.004618     -1.327507
  B      -0.220902      2.351041     -1.180544
  B      -0.772985     -2.343655      0.318101
12
Coordinates from ORCA-job input E -297.250750006978
  B       2.177531      0.630587      1.815319
  B       1.340377     -0.834196      1.285602
  B      -0.284945      0.710902     -0.567924
  B      -0.005948     -0.834929      0.198942
  B       0.904319      1.931767     -0.065177
  B      -1.349246      1.490016     -1.641607
  B       0.477214     -2.147350      1.183699
  B      -1.562558     -1.419540     -0.624140
  B       1.029899      0.505836      0.515878
  B      -1.761078     -0.012220     -1.308777
  B      -0.182089      2.362041     -1.106244
  B      -0.783476     -2.382915      0.314431
12
Coordinates from ORCA-job input E -297.254862035405
  B       2.221764      0.655382      1.779234
  B       1.348849     -0.831883      1.320923
  B      -0.290120      0.712897     -0.573538
  B      -0.020728     -0.846702      0.203815
  B       0.906328      1.931475     -0.040426
  B      -1.337054      1.492898     -1.630572
  B       0.459153     -2.136363      1.201010
  B      -1.570774     -1.434176     -0.643371
  B       0.988329      0.479044      0.489961
  B      -1.746467     -0.020043     -1.322181
  B      -0.183415      2.373908     -1.088817
  B      -0.775864     -2.376437      0.303963
12
Coordinates from ORCA-job input E -297.233203531037
  B       2.357083      0.933391      1.360068
  B       1.344548     -0.679474      1.417288
  B      -0.344607      0.668690     -0.577746
  B      -0.194844     -0.945717      0.146320
  B       1.017951      1.792431      0.290848
  B      -1.272501      1.534385     -1.658010
  B       0.478820     -2.048873      1.321551
  B      -1.506761     -1.426497     -0.716824
  B       0.737024      0.295825      0.415699
  B      -1.754013      0.006101     -1.501013
  B      -0.089474      2.240323     -0.808482
  B      -0.773225     -2.370587      0.310299
12
Coordinates from ORCA-job input E -297.280455134819
  B       2.220068      0.875993      1.303166
  B       1.319784     -0.702600      1.427979
  B      -0.325190      0.692272     -0.573273
  B      -0.169581     -0.934190      0.159650
  B       1.050868      1.880659      0.263016
  B      -1.240720      1.519104     -1.619540
  B       0.474047     -2.091804      1.299612
  B      -1.536687     -1.469858     -0.717958
  B       0.797499      0.329463      0.439698
  B      -1.719946     -0.022085     -1.450141
  B      -0.090943      2.323605     -0.850029
  B      -0.779199     -2.400559      0.317819
12
Coordinates from ORCA-job input E -297.289797829154
  B       2.010802      0.837119      1.159920
  B       1.290480     -0.708491      1.436768
  B      -0.309349      0.697449     -0.560765
  B      -0.153644     -0.919543      0.170617
  B       1.096444      1.905244      0.273373
  B      -1.207867      1.517912     -1.589932
  B       0.489900     -2.114085      1.297007
  B      -1.525976     -1.472392     -0.710852
  B       0.818305      0.356391      0.452661
  B      -1.684638     -0.022109     -1.414459
  B      -0.062401      2.333729     -0.842696
  B      -0.762055     -2.411225      0.328357
12
Coordinates from ORCA-job input E -297.300522268545
  B       2.101447      0.780115      1.299098
  B       1.351153     -0.718160      1.489333
  B      -0.348112      0.676086     -0.590207
  B      -0.131433     -0.897286      0.177547
  B       1.097565      1.927368      0.247028
  B      -1.261281      1.512941     -1.627720
  B       0.501122     -2.106753      1.273337
  B      -1.545195     -1.452846     -0.720193
  B       0.822231      0.359220      0.447148
  B      -1.727639     -0.007230     -1.439543
  B      -0.096407      2.309623     -0.874754
  B      -0.763451     -2.383078      0.318924
12
Coordinates from ORCA-job input E -297.308300528804
  B       2.057881      0.891703      1.264525
  B       1.355908     -0.683070      1.487973
  B      -0.362897      0.633977     -0.587408
  B      -0.152470     -0.908044      0.168413
  B       1.151618      1.884989      0.275469
  B      -1.226005      1.525229     -1.596620
  B       0.506346     -2.087063      1.245789
  B      -1.570344     -1.479277     -0.726856
  B       0.779867      0.331145      0.426339
  B      -1.727947      0.002217     -1.424907
  B      -0.045710      2.289469     -0.847381
  B      -0.766248     -2.401275      0.314662
12
Coordinates from ORCA-job input E -297.315629840154
  B       1.962837      0.890038      1.248250
  B       1.393699     -0.681048      1.506045
  B      -0.390555      0.598884     -0.602022
  B      -0.158725     -0.911365      0.161422
  B       1.193685      1.891592      0.281787
  B      -1.231302      1.532531     -1.595471
  B       0.516776     -2.066667      1.227522
  B      -1.560698     -1.461519     -0.719890
  B       0.806491      0.335731      0.433667
  B      -1.748223      0.013753     -1.432474
  B      -0.020053      2.253846     -0.829412
  B      -0.763931     -2.395775      0.320577
12
Coordinates from ORCA-job input E -297.317705021898
  B       2.007476      0.819383      1.334710
  B       1.419354     -0.681987      1.530021
  B      -0.411461      0.582661     -0.617848
  B      -0.165507     -0.913902      0.154898
  B       1.194714      1.942815      0.255972
  B      -1.260078      1.509005     -1.605770
  B       0.512843     -2.037065      1.204604
  B      -1.550037     -1.440085     -0.716077
  B       0.820736      0.359979      0.420913
  B      -1.774573      0.010684     -1.445837
  B      -0.030856      2.216605     -0.829126
  B      -0.762611     -2.368092      0.313542
12
Coordinates from ORCA-job input E -297.327321628822
  B       1.980793      0.886839      1.325556
  B       1.455658     -0.668564      1.533948
  B      -0.442702      0.528967     -0.629381
  B      -0.168632     -0.912194      0.146813
  B       1.236416      1.923911      0.294862
  B      -1.246197      1.511450     -1.592361
  B       0.526042     -2.010716      1.197062
  B      -1.556749     -1.424125     -0.725301
  B       0.797412      0.346229      0.396253
  B      -1.809998      0.022118     -1.475001
  B       0.002207      2.171585     -0.793214
  B      -0.774251     -2.375500      0.320763
12
Coordinates from ORCA-job input E -297.329465529689
  B       1.930744      0.889875      1.282863
  B       1.464798     -0.658664      1.533883
  B      -0.461624      0.500860     -0.634312
  B      -0.167318     -0.913508      0.149170
  B       1.272458      1.937064      0.322488
  B      -1.233776      1.512431     -1.582125
  B       0.527331     -1.998783      1.197330
  B      -1.546875     -1.412148     -0.723491
  B       0.780352      0.355057      0.381016
  B      -1.821351      0.028847     -1.486514
  B       0.022369      2.134312     -0.765335
  B      -0.767110     -2.375343      0.325027
12
Coordinates from ORCA-job input E -297.335318294179
  B       1.942531      0.898328      1.311932
  B       1.489806     -0.663172      1.539124
  B      -0.500304      0.454923     -0.648780
  B      -0.157708     -0.915944      0.158403
  B       1.286486      1.956926      0.332300
  B      -1.242069      1.514632     -1.595781
  B       0.533693     -1.993572      1.194414
  B      -1.533714     -1.375313     -0.719813
  B       0.785595      0.369160      0.373531
  B      -1.865770      0.047912     -1.526334
  B       0.029875      2.074059     -0.745494
  B      -0.768421     -2.367939      0.326498
12
Coordinates from ORCA-job input E -297.341838751448
  B       1.955189      0.886534      1.327486
  B       1.496935     -0.671542      1.530643
  B      -0.536928      0.418629     -0.661903
  B      -0.137863     -0.920688      0.179351
  B       1.294479      1.992196      0.334683
  B      -1.242393      1.499971     -1.599005
  B       0.532788     -2.002966      1.200360
  B      -1.511145     -1.333396     -0.716172
  B       0.773698      0.408707      0.352984
  B      -1.893951      0.063490     -1.560426
  B       0.039370      2.023777     -0.717815
  B      -0.770176     -2.364711      0.329812
12
Coordinates from ORCA-job input E -297.350997004870
  B       1.969408      0.895863      1.319930
  B       1.485850     -0.681490      1.516302
  B      -0.594063      0.357462     -0.667848
  B      -0.109427     -0.922825      0.218463
  B       1.316269      2.032543      0.341926
  B      -1.242708      1.493186     -1.605657
  B       0.531215     -2.033552      1.212065
  B      -1.478088     -1.275353     -0.714766
  B       0.750184      0.470449      0.338032
  B      -1.924463      0.091880     -1.600900
  B       0.058625      1.934378     -0.680708
  B      -0.762802     -2.362540      0.323162
12
Coordinates from ORCA-job input E -294.929862876534
  B       1.246441      1.035583      0.541501
  B       0.871718     -0.875685      1.051445
  B      -0.657033      0.450361     -0.633323
  B       0.033794     -1.125163      0.549498
  B       1.713326      2.198972      0.418102
  B      -1.157523      1.636287     -1.510646
  B       0.578745     -2.382332      1.472641
  B      -1.262629     -1.174107     -0.681945
  B       0.531414      0.986509      0.357881
  B      -1.715839      0.092990     -1.506969
  B       0.398778      1.827684     -0.461536
  B      -0.581192     -2.671100      0.403351
12
Coordinates from ORCA-job input E -296.646764135564
  B       1.582565      1.136959      0.739012
  B       1.018867     -0.821672      1.124192
  B      -0.732091      0.404149     -0.669778
  B      -0.123917     -1.182319      0.436154
  B       1.885046      2.299697      0.490040
  B      -1.226979      1.581878     -1.549087
  B       0.588179     -2.331379      1.474821
  B      -1.365788     -1.256086     -0.733246
  B       0.459568      1.001360      0.384360
  B      -1.817097      0.040416     -1.567234
  B       0.358438      1.840480     -0.503834
  B      -0.626793     -2.713483      0.374600
12
Coordinates from ORCA-job input E -296.854054256665
  B       1.606015      1.067215      0.777963
  B       1.054697     -0.832186      1.135595
  B      -0.729099      0.396662     -0.671717
  B      -0.136697     -1.196267      0.423387
  B       1.938259      2.388388      0.497920
  B      -1.252345      1.594403     -1.578039
  B       0.586030     -2.324775      1.481643
  B      -1.367417     -1.264998     -0.725736
  B       0.448180      0.955966      0.415357
  B      -1.846978      0.033357     -1.593489
  B       0.333329      1.893426     -0.541998
  B      -0.633974     -2.711191      0.379113
12
Coordinates from ORCA-job input E -296.992033465188
  B       1.680456      1.028915      0.830858
  B       1.117215     -0.793551      1.112030
  B      -0.729386      0.366329     -0.668480
  B      -0.141965     -1.187147      0.399022
  B       1.959466      2.411563      0.535307
  B      -1.270097      1.573665     -1.595575
  B       0.569676     -2.274250      1.479389
  B      -1.379462     -1.273878     -0.723547
  B       0.428013      0.904175      0.430391
  B      -1.881829      0.028063     -1.622225
  B       0.302462      1.901980     -0.556477
  B      -0.654550     -2.685864      0.379307
12
Coordinates from ORCA-job input E -297.097431824271
  B       1.751011      0.965523      0.888059
  B       1.187399     -0.750245      1.104970
  B      -0.722953      0.334752     -0.664731
  B      -0.139117     -1.155896      0.368614
  B       1.950440      2.419470      0.555180
  B      -1.288256      1.544974     -1.606893
  B       0.538681     -2.203109      1.456380
  B      -1.387832     -1.277671     -0.718865
  B       0.424121      0.844674      0.455463
  B      -1.899412      0.016382     -1.634216
  B       0.262039      1.900456     -0.572558
  B      -0.676122     -2.639311      0.368598
12
Coordinates from ORCA-job input E -297.176932389280
  B       1.821065      0.892332      0.948135
  B       1.249345     -0.706791      1.117132
  B      -0.712938      0.309439     -0.661117
  B      -0.122233     -1.107431      0.344847
  B       1.918033      2.404522      0.557389
  B      -1.300596      1.514656     -1.613323
  B       0.510109     -2.139489      1.423166
  B      -1.392164     -1.273061     -0.708679
  B       0.421566      0.785326      0.480905
  B      -1.918033      0.006705     -1.647782
  B       0.215928      1.892335     -0.591941
  B      -0.690082     -2.578541      0.351269
12
Coordinates from ORCA-job input E -297.091849518903
  B       2.092734      0.555463      1.221859
  B       1.525632     -0.510480      1.263394
  B      -0.645119      0.230167     -0.662918
  B      -0.024004     -0.869053      0.201021
  B       1.585927      2.172379      0.463022
  B      -1.282519      1.450121     -1.633772
  B       0.436514     -1.865427      1.257300
  B      -1.434338     -1.234776     -0.620771
  B       0.452061      0.516073      0.580073
  B      -1.932174      0.020504     -1.663098
  B      -0.051059      1.782776     -0.676510
  B      -0.723657     -2.247747      0.270398
12
Coordinates from ORCA-job input E -297.230272984941
  B       2.126901      0.656255      1.202446
  B       1.510566     -0.596987      1.279411
  B      -0.640772      0.244027     -0.670530
  B      -0.033584     -0.918001      0.207813
  B       1.588711      2.235365      0.440461
  B      -1.269250      1.475846     -1.630778
  B       0.424919     -1.943868      1.287051
  B      -1.453346     -1.250894     -0.633016
  B       0.454740      0.553625      0.574684
  B      -1.930240      0.027394     -1.669712
  B      -0.036622      1.829355     -0.673922
  B      -0.742024     -2.312115      0.286092
12
Coordinates from ORCA-job input E -297.278812934508
  B       2.098099      0.704619      1.162560
  B       1.505251     -0.637468      1.281891
  B      -0.631560      0.267119     -0.671438
  B      -0.036485     -0.944922      0.216097
  B       1.565676      2.229655      0.426421
  B      -1.258481      1.514059     -1.639527
  B       0.447158     -1.990326      1.331728
  B      -1.473779     -1.263292     -0.655053
  B       0.459742      0.585875      0.560440
  B      -1.923116      0.040519     -1.672047
  B      -0.008137      1.859730     -0.653523
  B      -0.744368     -2.365568      0.312451
12
Coordinates from ORCA-job input E -297.302383120700
  B       2.075759      0.740502      1.134117
  B       1.495747     -0.670428      1.283438
  B      -0.624506      0.275895     -0.668436
  B      -0.034501     -0.958393      0.222800
  B       1.540442      2.215925      0.410589
  B      -1.246914      1.526897     -1.634911
  B       0.450649     -2.010751      1.346425
  B      -1.474215     -1.259049     -0.664648
  B       0.464700      0.601417      0.551887
  B      -1.910442      0.046405     -1.665318
  B       0.006017      1.867514     -0.639203
  B      -0.742736     -2.375934      0.323260
12
Coordinates from ORCA-job input E -297.326278833079
  B       2.041485      0.785637      1.095328
  B       1.482021     -0.699211      1.281598
  B      -0.612662      0.290367     -0.661771
  B      -0.027803     -0.971018      0.234334
  B       1.494282      2.179265      0.385632
  B      -1.230492      1.544469     -1.628599
  B       0.457280     -2.032323      1.364184
  B      -1.474748     -1.256649     -0.680457
  B       0.481592      0.621765      0.541446
  B      -1.893553      0.056790     -1.657114
  B       0.028708      1.873110     -0.612154
  B      -0.746109     -2.392204      0.337571
12
Coordinates from ORCA-job input E -297.342180564640
  B       2.021163      0.826131      1.073146
  B       1.467955     -0.724472      1.283398
  B      -0.607582      0.307444     -0.653524
  B      -0.011886     -0.976428      0.250239
  B       1.422303      2.120388      0.345565
  B      -1.216773      1.557276     -1.623793
  B       0.461749     -2.057469      1.377143
  B      -1.461139     -1.243633     -0.698711
  B       0.512971      0.631038      0.527412
  B      -1.876917      0.072245     -1.649784
  B       0.039363      1.872930     -0.583583
  B      -0.751207     -2.385449      0.352492
12
Coordinates from ORCA-job input E -297.350523257220
  B       2.040772      0.847495      1.095196
  B       1.443123     -0.715144      1.296405
  B      -0.614587      0.319497     -0.647767
  B      -0.009315     -0.965425      0.248119
  B       1.409126      2.099421      0.330439
  B      -1.216491      1.529843     -1.621292
  B       0.461344     -2.068123      1.352300
  B      -1.461385     -1.251482     -0.705743
  B       0.559252      0.635141      0.509703
  B      -1.878956      0.069117     -1.643329
  B       0.034653      1.877990     -0.566708
  B      -0.767536     -2.378329      0.352676
12
Coordinates from ORCA-job input E -297.356942436533
  B       2.059361      0.853097      1.106735
  B       1.407100     -0.708320      1.306523
  B      -0.626017      0.313720     -0.640806
  B       0.008785     -0.940501      0.260873
  B       1.390546      2.061099      0.312553
  B      -1.210075      1.502966     -1.609372
  B       0.461385     -2.074703      1.326055
  B      -1.439668     -1.234231     -0.704700
  B       0.587511      0.622753      0.490581
  B      -1.879648      0.064500     -1.648137
  B       0.014406      1.893332     -0.553781
  B      -0.773684     -2.353712      0.353477
12
Coordinates from ORCA-job input E -297.359924296210
  B       2.074985      0.851553      1.136577
  B       1.384763     -0.680805      1.310997
  B      -0.629448      0.327248     -0.636263
  B      -0.009703     -0.933730      0.256606
  B       1.404498      2.049021      0.316216
  B      -1.204032      1.479225     -1.604538
  B       0.465349     -2.077629      1.301921
  B      -1.454123     -1.261799     -0.697658
  B       0.627072      0.624417      0.461858
  B      -1.873263      0.051749     -1.637651
  B      -0.003591      1.926825     -0.555008
  B      -0.782507     -2.356077      0.346943
12
Coordinates from ORCA-job input E -297.360821395528
  B       2.066117      0.851204      1.172280
  B       1.378235     -0.697189      1.330640
  B      -0.636737      0.311209     -0.629300
  B      -0.005095     -0.920023      0.272235
  B       1.419542      2.058024      0.317640
  B      -1.215621      1.474002     -1.616514
  B       0.484878     -2.093884      1.284181
  B      -1.453802     -1.240320     -0.686642
  B       0.655363      0.621087      0.428841
  B      -1.909508      0.044105     -1.660207
  B      -0.003368      1.940660     -0.562095
  B      -0.780005     -2.348875      0.348942
12
Coordinates from ORCA-job input E -297.361302519805
  B       2.049114      0.855636      1.188642
  B       1.375346     -0.704521      1.318509
  B      -0.629044      0.316613     -0.623383
  B       0.009845     -0.909921      0.287011
  B       1.395495      2.051476      0.310133
  B      -1.198783      1.463379     -1.621992
  B       0.483291     -2.106038      1.265780
  B      -1.465371     -1.226589     -0.681530
  B       0.650482      0.619285      0.404386
  B      -1.875567      0.049654     -1.614500
  B      -0.011789      1.935850     -0.579323
  B      -0.783021     -2.344823      0.346266
12
Coordinates from ORCA-job input E -297.362150658582
  B       2.053275      0.854932      1.178768
  B       1.376397     -0.685134      1.317958
  B      -0.640118      0.313509     -0.628481
  B      -0.008634     -0.924264      0.276443
  B       1.402443      2.040854      0.319466
  B      -1.198743      1.484166     -1.594549
  B       0.487235     -2.074640      1.264187
  B      -1.462724     -1.255542     -0.699756
  B       0.665208      0.616884      0.405681
  B      -1.876480      0.041440     -1.636198
  B      -0.006859      1.929296     -0.568384
  B      -0.791000     -2.341503      0.364865
12
Coordinates from ORCA-job input E -297.362887412933
  B       2.049838      0.857511      1.191105
  B       1.375471     -0.690983      1.329977
  B      -0.648048      0.321362     -0.629453
  B      -0.013587     -0.914030      0.273014
  B       1.423093      2.048041      0.329081
  B      -1.214531      1.479136     -1.616886
  B       0.498380     -2.097330      1.272360
  B      -1.473820     -1.262298     -0.686882
  B       0.664767      0.622192      0.406094
  B      -1.896579      0.047714     -1.636914
  B       0.009055      1.930673     -0.580971
  B      -0.774039     -2.341986      0.349473
12
Coordinates from ORCA-job input E -297.363503844734
  B       2.043272      0.861978      1.197603
  B       1.379996     -0.695204      1.330301
  B      -0.636732      0.321843     -0.626765
  B      -0.009783     -0.916074      0.284938
  B       1.414916      2.045554      0.324020
  B      -1.214868      1.478297     -1.612027
  B       0.501146     -2.105467      1.265817
  B      -1.470689     -1.245567     -0.688987
  B       0.661351      0.623117      0.401412
  B      -1.898216      0.047610     -1.635348
  B       0.009170      1.929421     -0.592735
  B      -0.779563     -2.345508      0.351772
12
Coordinates from ORCA-job input E -297.363741921665
  B       2.026709      0.864647      1.198591
  B       1.365260     -0.695718      1.321518
  B      -0.637488      0.315853     -0.623604
  B      -0.010310     -0.907630      0.283296
  B       1.414849      2.051418      0.326180
  B      -1.206379      1.475946     -1.607302
  B       0.500272     -2.093391      1.245258
  B      -1.465712     -1.244390     -0.683770
  B       0.656290      0.620547      0.392318
  B      -1.887384      0.042853     -1.611327
  B       0.024535      1.918729     -0.595743
  B      -0.780642     -2.348863      0.354586
12
Coordinates from ORCA-job input E -297.364599254281
  B       2.023265      0.863726      1.219857
  B       1.378165     -0.694729      1.332538
  B      -0.641052      0.319609     -0.625491
  B      -0.011726     -0.905421      0.293377
  B       1.408204      2.034728      0.323848
  B      -1.210194      1.481798     -1.615455
  B       0.510781     -2.094642      1.243302
  B      -1.476660     -1.245070     -0.678815
  B       0.659747      0.614273      0.394130
  B      -1.898413      0.051350     -1.606653
  B       0.027167      1.915658     -0.620402
  B      -0.769285     -2.341279      0.339765
12
Coordinates from ORCA-job input E -297.364823429704
  B       2.017616      0.871346      1.221879
  B       1.374588     -0.687189      1.329564
  B      -0.651098      0.327285     -0.631246
  B      -0.023888     -0.920946      0.300714
  B       1.416953      2.044681      0.326341
  B      -1.207549      1.485241     -1.615192
  B       0.520888     -2.119281      1.250851
  B      -1.474959     -1.250049     -0.674898
  B       0.658646      0.624345      0.391234
  B      -1.912910      0.057869     -1.612056
  B       0.047240      1.923449     -0.627353
  B      -0.765527     -2.356751      0.340162
12
Coordinates from ORCA-job input E -297.365576830296
  B       2.012063      0.869252      1.223413
  B       1.378980     -0.691829      1.340907
  B      -0.636317      0.325227     -0.623717
  B      -0.032738     -0.905516      0.286921
  B       1.417159      2.040604      0.326587
  B      -1.208831      1.474757     -1.610447
  B       0.525448     -2.106214      1.237178
  B      -1.482670     -1.254561     -0.676045
  B       0.653082      0.618557      0.401678
  B      -1.917564      0.052884     -1.606662
  B       0.055381      1.927455     -0.638030
  B      -0.763994     -2.350615      0.338217
12
Coordinates from ORCA-job input E -297.366088375822
  B       2.002252      0.866336      1.231217
  B       1.375156     -0.691042      1.340141
  B      -0.638539      0.320382     -0.625009
  B      -0.021967     -0.900229      0.301203
  B       1.412029      2.034334      0.323378
  B      -1.209164      1.478266     -1.612234
  B       0.527965     -2.103188      1.225470
  B      -1.482345     -1.244668     -0.670822
  B       0.643043      0.612868      0.397913
  B      -1.910883      0.054781     -1.591705
  B       0.061836      1.920836     -0.651312
  B      -0.759383     -2.348675      0.331758
12
Coordinates from ORCA-job input E -297.366559714747
  B       1.997634      0.866955      1.233743
  B       1.376950     -0.686109      1.341846
  B      -0.643895      0.322747     -0.628513
  B      -0.029510     -0.905658      0.304527
  B       1.412278      2.032778      0.323521
  B      -1.207481      1.482377     -1.610534
  B       0.534465     -2.109643      1.226624
  B      -1.480851     -1.248416     -0.669165
  B       0.640134      0.613397      0.398392
  B      -1.917055      0.058939     -1.590873
  B       0.073400      1.928089     -0.660850
  B      -0.756069     -2.355455      0.331281
12
Coordinates from ORCA-job input E -297.366874526055
  B       1.991390      0.867038      1.239675
  B       1.378246     -0.684935      1.347478
  B      -0.640088      0.324111     -0.625409
  B      -0.036437     -0.903657      0.306394
  B       1.413047      2.034191      0.320306
  B      -1.208716      1.481771     -1.603002
  B       0.539341     -2.113630      1.221877
  B      -1.485350     -1.248324     -0.666111
  B       0.637541      0.611479      0.393885
  B      -1.918601      0.057399     -1.591607
  B       0.082362      1.931023     -0.671137
  B      -0.752736     -2.356466      0.327650
12
Coordinates from ORCA-job input E -297.367083559997
  B       1.979705      0.864827      1.250495
  B       1.379355     -0.683284      1.354257
  B      -0.645958      0.321755     -0.631042
  B      -0.038453     -0.898878      0.310347
  B       1.415193      2.027385      0.327034
  B      -1.212856      1.476263     -1.601461
  B       0.544716     -2.107632      1.214727
  B      -1.484748     -1.248769     -0.664707
  B       0.641235      0.607424      0.386535
  B      -1.932642      0.058335     -1.582881
  B       0.100463      1.938184     -0.685667
  B      -0.746010     -2.355609      0.322362
12
Coordinates from ORCA-job input E -297.366975543870
  B       1.968322      0.863320      1.252849
  B       1.378271     -0.680476      1.360961
  B      -0.638398      0.320102     -0.633279
  B      -0.045376     -0.911534      0.315114
  B       1.414658      2.039048      0.316602
  B      -1.224875      1.501828     -1.587103
  B       0.540625     -2.105010      1.229992
  B      -1.476211     -1.250016     -0.678323
  B       0.648748      0.603115      0.371329
  B      -1.925393      0.062410     -1.567030
  B       0.104780      1.926974     -0.697320
  B      -0.745152     -2.369763      0.316208
12
Coordinates from ORCA-job input E -297.367017484909
  B       1.980491      0.869687      1.251545
  B       1.358733     -0.676479      1.372117
  B      -0.628738      0.322178     -0.622991
  B      -0.050168     -0.896505      0.320878
  B       1.419485      2.022383      0.311177
  B      -1.233242      1.490093     -1.570748
  B       0.540755     -2.115579      1.215563
  B      -1.478952     -1.252587     -0.676585
  B       0.655463      0.606719      0.369900
  B      -1.915592      0.054414     -1.578130
  B       0.097166      1.942716     -0.705303
  B      -0.745400     -2.367039      0.312579
12
Coordinates from ORCA-job input E -297.366608500325
  B       1.985244      0.862489      1.252941
  B       1.370866     -0.683867      1.367297
  B      -0.650739      0.321194     -0.639204
  B      -0.044445     -0.878519      0.311806
  B       1.424043      2.027753      0.325002
  B      -1.230486      1.493268     -1.582977
  B       0.538417     -2.102548      1.215724
  B      -1.480256     -1.269290     -0.663563
  B       0.641059      0.603500      0.373196
  B      -1.931282      0.058425     -1.591502
  B       0.109931      1.919954     -0.686911
  B      -0.732351     -2.352358      0.318192
12
Coordinates from ORCA-job input E -297.367159267512
  B       1.979841      0.867389      1.251028
  B       1.380338     -0.676646      1.358682
  B      -0.646053      0.324715     -0.636998
  B      -0.041525     -0.909050      0.321814
  B       1.417743      2.031867      0.327215
  B      -1.223360      1.485506     -1.582463
  B       0.538525     -2.109613      1.226956
  B      -1.480263     -1.251844     -0.677222
  B       0.645627      0.607790      0.369183
  B      -1.935578      0.062812     -1.586590
  B       0.107471      1.930166     -0.691101
  B      -0.742767     -2.363092      0.319496
12
Coordinates from ORCA-job input E -297.367401589361
  B       1.974628      0.864048      1.248843
  B       1.375038     -0.682658      1.363186
  B      -0.635304      0.320693     -0.626368
  B      -0.046329     -0.898549      0.314347
  B       1.411842      2.030298      0.322101
  B      -1.227789      1.491963     -1.586006
  B       0.537117     -2.106527      1.225985
  B      -1.475362     -1.249629     -0.677131
  B       0.651689      0.602886      0.367829
  B      -1.924180      0.059026     -1.572767
  B       0.101924      1.931850     -0.696558
  B      -0.743274     -2.363401      0.316537
12
Coordinates from ORCA-job input E -297.367530167126
  B       1.980022      0.865705      1.251792
  B       1.370017     -0.679646      1.363996
  B      -0.642171      0.322592     -0.631487
  B      -0.048886     -0.896806      0.317659
  B       1.417923      2.031087      0.323920
  B      -1.226701      1.490021     -1.585910
  B       0.538029     -2.107666      1.222964
  B      -1.476716     -1.256894     -0.673663
  B       0.654165      0.604808      0.366709
  B      -1.929289      0.060916     -1.577042
  B       0.103537      1.930744     -0.694072
  B      -0.739928     -2.364861      0.315134
12
Coordinates from ORCA-job input E -297.367553187209
  B       1.981803      0.864790      1.248899
  B       1.374827     -0.680460      1.363630
  B      -0.640983      0.322218     -0.630729
  B      -0.044047     -0.896506      0.319676
  B       1.414183      2.030890      0.325977
  B      -1.224770      1.487236     -1.583457
  B       0.536667     -2.106586      1.224902
  B      -1.478705     -1.254989     -0.678120
  B       0.648633      0.603666      0.366143
  B      -1.930972      0.060839     -1.579777
  B       0.103867      1.928538     -0.693009
  B      -0.740501     -2.359636      0.315864
12
Coordinates from ORCA-job input E -297.367606005087
  B       1.980082      0.864651      1.248847
  B       1.374777     -0.679959      1.361894
  B      -0.642129      0.322235     -0.628793
  B      -0.046846     -0.897658      0.320083
  B       1.413146      2.030957      0.326918
  B      -1.224736      1.488310     -1.585832
  B       0.536727     -2.107064      1.225266
  B      -1.477561     -1.253702     -0.675946
  B       0.652006      0.603167      0.364047
  B      -1.929018      0.060804     -1.579032
  B       0.103880      1.930372     -0.693235
  B      -0.740328     -2.362113      0.315783
12
Coordinates from ORCA-job input E -297.367646116448
  B       1.982563      0.864205      1.246776
  B       1.371682     -0.679223      1.364991
  B      -0.642583      0.321485     -0.628586
  B      -0.049403     -0.897202      0.321107
  B       1.414527      2.031903      0.326498
  B      -1.226460      1.489379     -1.585920
  B       0.537245     -2.106595      1.226219
  B      -1.476102     -1.254806     -0.678691
  B       0.654763      0.602500      0.363413
  B      -1.928746      0.061090     -1.578055
  B       0.102599      1.930495     -0.692354
  B      -0.740086     -2.363228      0.314603
12
Coordinates from ORCA-job input E -297.367698666754
  B       1.983653      0.863490      1.245406
  B       1.374041     -0.679529      1.362114
  B      -0.645235      0.321612     -0.625738
  B      -0.051041     -0.896537      0.321923
  B       1.411978      2.032929      0.329558
  B      -1.224710      1.488113     -1.587661
  B       0.535978     -2.105792      1.227219
  B      -1.476200     -1.254256     -0.676916
  B       0.657350      0.601391      0.359771
  B      -1.926699      0.061038     -1.581109
  B       0.101263      1.930647     -0.689780
  B      -0.740378     -2.363108      0.315214
12
Coordinates from ORCA-job input E -297.367749794738
  B       1.986814      0.860900      1.240742
  B       1.372671     -0.676602      1.364462
  B      -0.647410      0.321159     -0.624727
  B      -0.052734     -0.895199      0.326110
  B       1.409626      2.030478      0.330988
  B      -1.223067      1.489089     -1.589821
  B       0.538139     -2.105812      1.227513
  B      -1.474691     -1.255749     -0.678234
  B       0.653977      0.598898      0.357840
  B      -1.927111      0.063773     -1.582148
  B       0.102032      1.932420     -0.688037
  B      -0.738248     -2.363354      0.315311
12
Coordinates from ORCA-job input E -297.367807231470
  B       1.988041      0.860856      1.240450
  B       1.378208     -0.680308      1.361637
  B      -0.649210      0.320535     -0.620097
  B      -0.051302     -0.895199      0.327670
  B       1.407307      2.036192      0.333651
  B      -1.221639      1.485676     -1.587130
  B       0.532410     -2.103571      1.232405
  B      -1.473627     -1.254820     -0.684651
  B       0.661885      0.597426      0.349324
  B      -1.927363      0.061168     -1.585064
  B       0.097222      1.930718     -0.683840
  B      -0.741932     -2.358675      0.315645
12
Coordinates from ORCA-job input E -297.367800330580
  B       1.992992      0.863321      1.237245
  B       1.374751     -0.679321      1.362536
  B      -0.653215      0.320664     -0.620720
  B      -0.055233     -0.895839      0.330892
  B       1.407013      2.033300      0.332417
  B      -1.224610      1.489754     -1.580959
  B       0.531497     -2.106263      1.233797
  B      -1.468743     -1.257752     -0.686273
  B       0.666914      0.598756      0.346972
  B      -1.923029      0.061391     -1.591934
  B       0.095486      1.934859     -0.682956
  B      -0.743825     -2.362869      0.318982
12
Coordinates from ORCA-job input E -297.367658113892
  B       1.985633      0.859144      1.242463
  B       1.372908     -0.681351      1.366968
  B      -0.655290      0.320031     -0.615515
  B      -0.063458     -0.878273      0.334963
  B       1.410524      2.031570      0.335366
  B      -1.218744      1.482459     -1.589280
  B       0.538858     -2.100145      1.220686
  B      -1.476335     -1.263361     -0.679281
  B       0.667958      0.594894      0.343734
  B      -1.927801      0.060570     -1.585014
  B       0.101410      1.935509     -0.686670
  B      -0.735662     -2.361049      0.311579
12
Coordinates from ORCA-job input E -297.367769457137
  B       1.980923      0.858324      1.241358
  B       1.376865     -0.673005      1.365568
  B      -0.653745      0.321439     -0.613283
  B      -0.060816     -0.895000      0.335935
  B       1.410477      2.034114      0.333783
  B      -1.217075      1.487264     -1.593131
  B       0.542164     -2.104983      1.225939
  B      -1.478016     -1.255924     -0.681322
  B       0.657564      0.594189      0.342646
  B      -1.926543      0.063624     -1.580897
  B       0.104846      1.936446     -0.688272
  B      -0.736643     -2.366488      0.311675
12
Coordinates from ORCA-job input E -297.367860128462
  B       1.987559      0.862062      1.241348
  B       1.374490     -0.679032      1.365131
  B      -0.654710      0.321540     -0.618230
  B      -0.058136     -0.894118      0.335304
  B       1.409328      2.034126      0.331941
  B      -1.221923      1.488146     -1.587770
  B       0.535526     -2.106056      1.229823
  B      -1.471652     -1.256761     -0.684813
  B       0.666787      0.597329      0.343205
  B      -1.927243      0.062213     -1.585738
  B       0.098689      1.932291     -0.684191
  B      -0.738715     -2.361740      0.313990
12
Coordinates from ORCA-job input E -297.367880000886
  B       1.988279      0.861022      1.238875
  B       1.375028     -0.677901      1.365752
  B      -0.654307      0.320432     -0.615468
  B      -0.059013     -0.891290      0.334971
  B       1.410403      2.032646      0.330492
  B      -1.222953      1.488953     -1.584206
  B       0.534777     -2.104252      1.230370
  B      -1.471120     -1.258356     -0.686793
  B       0.664314      0.596037      0.343704
  B      -1.923660      0.061476     -1.588032
  B       0.097726      1.933565     -0.683755
  B      -0.739475     -2.362333      0.314089
12
Coordinates from ORCA-job input E -297.367885707500
  B       1.985540      0.860547      1.240909
  B       1.375378     -0.676966      1.365182
  B      -0.656065      0.321159     -0.615953
  B      -0.060447     -0.890974      0.335952
  B       1.412138      2.031766      0.331275
  B      -1.220751      1.487033     -1.587707
  B       0.537191     -2.104031      1.228697
  B      -1.472036     -1.258281     -0.684899
  B       0.663761      0.595940      0.342930
  B      -1.926762      0.062292     -1.586476
  B       0.099791      1.935057     -0.683346
  B      -0.737739     -2.363542      0.313436
12
Coordinates from ORCA-job input E -297.367895797364
  B       1.986073      0.861005      1.240635
  B       1.374760     -0.677315      1.365871
  B      -0.655926      0.321259     -0.615068
  B      -0.060740     -0.891853      0.336728
  B       1.412864      2.032179      0.328982
  B      -1.221786      1.488468     -1.586708
  B       0.536123     -2.104095      1.229693
  B      -1.471130     -1.258621     -0.686637
  B       0.664270      0.596171      0.342678
  B      -1.925658      0.062183     -1.586514
  B       0.098697      1.934215     -0.682534
  B      -0.737549     -2.363597      0.312874
12
Coordinates from ORCA-job input E -297.367903651471
  B       1.986705      0.861437      1.240493
  B       1.373998     -0.677183      1.366744
  B      -0.656786      0.321219     -0.613838
  B      -0.061574     -0.891572      0.338133
  B       1.414454      2.030776      0.326175
  B      -1.222786      1.489039     -1.584626
  B       0.535539     -2.104234      1.230350
  B      -1.469739     -1.258742     -0.688287
  B       0.664080      0.596255      0.342514
  B      -1.924405      0.061863     -1.587795
  B       0.097504      1.934608     -0.681867
  B      -0.736991     -2.363464      0.312003
12
Coordinates from ORCA-job input E -297.367909563419
  B       1.986396      0.861595      1.240492
  B       1.373212     -0.676520      1.368047
  B      -0.657912      0.321484     -0.612365
  B      -0.063365     -0.890890      0.340029
  B       1.417214      2.029408      0.322554
  B      -1.223168      1.489875     -1.583882
  B       0.535382     -2.103717      1.230868
  B      -1.468618     -1.259450     -0.690085
  B       0.663677      0.596335      0.342726
  B      -1.924163      0.062196     -1.588082
  B       0.096692      1.934510     -0.680542
  B      -0.735347     -2.364826      0.310240
12
Coordinates from ORCA-job input E -297.367909820465
  B       1.986469      0.862070      1.240584
  B       1.373189     -0.676186      1.368099
  B      -0.659572      0.321536     -0.611653
  B      -0.064318     -0.890450      0.341336
  B       1.419791      2.026974      0.320539
  B      -1.224000      1.489143     -1.582326
  B       0.535054     -2.103174      1.231209
  B      -1.467588     -1.259684     -0.690851
  B       0.662365      0.596585      0.343317
  B      -1.923597      0.062041     -1.589912
  B       0.096489      1.936086     -0.679689
  B      -0.734282     -2.364940      0.309345
12
Coordinates from ORCA-job input E -297.367913251911
  B       1.985957      0.861962      1.241681
  B       1.372631     -0.675917      1.369365
  B      -0.660585      0.321737     -0.609096
  B      -0.066778     -0.888757      0.343528
  B       1.420293      2.027261      0.319294
  B      -1.222419      1.489010     -1.584250
  B       0.536609     -2.103686      1.228880
  B      -1.468115     -1.259550     -0.690747
  B       0.662690      0.596290      0.342854
  B      -1.924299      0.061932     -1.588600
  B       0.096879      1.934928     -0.680424
  B      -0.732863     -2.365209      0.307516
12
Coordinates from ORCA-job input E -297.367915183711
  B       1.985875      0.862217      1.241524
  B       1.372557     -0.675498      1.368919
  B      -0.660549      0.322061     -0.610378
  B      -0.066428     -0.890149      0.343080
  B       1.419268      2.028329      0.320522
  B      -1.221361      1.489241     -1.585682
  B       0.537103     -2.104282      1.228968
  B      -1.468941     -1.259175     -0.689594
  B       0.663178      0.596785      0.343399
  B      -1.925179      0.062767     -1.587653
  B       0.097446      1.934008     -0.680747
  B      -0.732968     -2.366305      0.307643
12
Coordinates from ORCA-job input E -297.367915216016
  B       1.986697      0.861162      1.238891
  B       1.373343     -0.676323      1.369585
  B      -0.659197      0.321514     -0.612255
  B      -0.065030     -0.888963      0.342135
  B       1.417896      2.027691      0.319999
  B      -1.223678      1.490389     -1.582469
  B       0.534497     -2.102904      1.232468
  B      -1.466855     -1.260602     -0.692749
  B       0.662560      0.596274      0.344893
  B      -1.925123      0.063655     -1.587968
  B       0.097551      1.933844     -0.680679
  B      -0.732661     -2.365738      0.308149
12
Coordinates from ORCA-job input E -297.367926275961
  B       1.986508      0.862256      1.240219
  B       1.372950     -0.675907      1.369407
  B      -0.660955      0.321979     -0.609003
  B      -0.066848     -0.888730      0.344236
  B       1.419672      2.026932      0.319078
  B      -1.222212      1.488804     -1.584193
  B       0.536318     -2.103725      1.229310
  B      -1.468157     -1.259638     -0.691270
  B       0.661327      0.596912      0.345822
  B      -1.924690      0.062986     -1.588525
  B       0.098062      1.934190     -0.681629
  B      -0.731975     -2.366058      0.306547
12
Coordinates from ORCA-job input E -297.367940311165
  B       1.986295      0.863227      1.241518
  B       1.372954     -0.675526      1.369019
  B      -0.663661      0.322593     -0.605784
  B      -0.069186     -0.888376      0.346810
  B       1.421211      2.026549      0.317829
  B      -1.219982      1.487554     -1.586846
  B       0.538899     -2.105017      1.225674
  B      -1.469468     -1.258462     -0.689345
  B       0.658828      0.597745      0.348599
  B      -1.924616      0.062873     -1.588858
  B       0.099340      1.933154     -0.683221
  B      -0.730613     -2.366313      0.304605
12
Coordinates from ORCA-job input E -297.367963065558
  B       1.986423      0.864645      1.242110
  B       1.372792     -0.675429      1.368304
  B      -0.667121      0.323786     -0.600929
  B      -0.072466     -0.887579      0.350568
  B       1.422415      2.026545      0.316260
  B      -1.216453      1.485447     -1.590083
  B       0.542050     -2.106654      1.220909
  B      -1.471267     -1.257685     -0.687363
  B       0.655656      0.599294      0.353728
  B      -1.924441      0.063133     -1.589002
  B       0.101415      1.931686     -0.686159
  B      -0.729005     -2.367189      0.301658
12
Coordinates from ORCA-job input E -297.367989815986
  B       1.986866      0.865454      1.241539
  B       1.373178     -0.675947      1.367100
  B      -0.670457      0.325078     -0.596733
  B      -0.075142     -0.886636      0.353974
  B       1.422685      2.027048      0.314993
  B      -1.213235      1.483800     -1.593045
  B       0.544743     -2.108098      1.217189
  B      -1.472479     -1.257387     -0.686122
  B       0.652272      0.600815      0.359734
  B      -1.923955      0.063558     -1.589470
  B       0.103366      1.929743     -0.688666
  B      -0.727843     -2.367428      0.299507
12
Coordinates from ORCA-job input E -297.368034238848
  B       1.988093      0.865572      1.238428
  B       1.374237     -0.677503      1.364796
  B      -0.675341      0.327717     -0.589945
  B      -0.079059     -0.884510      0.359459
  B       1.421946      2.028305      0.312940
  B      -1.208517      1.481634     -1.596577
  B       0.547999     -2.109794      1.213057
  B      -1.473161     -1.258152     -0.686282
  B       0.647128      0.603116      0.369634
  B      -1.922151      0.064146     -1.590594
  B       0.105680      1.926914     -0.691896
  B      -0.726854     -2.367443      0.296981
12
Coordinates from ORCA-job input E -297.368088261060
  B       1.990467      0.866968      1.235629
  B       1.374256     -0.678566      1.361667
  B      -0.685574      0.333074     -0.580664
  B      -0.086975     -0.883497      0.369635
  B       1.424538      2.028835      0.308548
  B      -1.203280      1.479104     -1.602572
  B       0.553107     -2.113212      1.206312
  B      -1.472674     -1.258213     -0.685492
  B       0.640992      0.608023      0.383800
  B      -1.920138      0.064281     -1.593767
  B       0.109160      1.922457     -0.695426
  B      -0.723878     -2.369253      0.292331
12
Coordinates from ORCA-job input E -297.367876602406
  B       1.994648      0.846230      1.207672
  B       1.382607     -0.680209      1.355548
  B      -0.690973      0.348684     -0.576964
  B      -0.088358     -0.883777      0.383725
  B       1.414917      2.028943      0.303324
  B      -1.205665      1.488800     -1.602672
  B       0.555688     -2.114009      1.218800
  B      -1.462581     -1.261801     -0.698873
  B       0.620627      0.609746      0.403372
  B      -1.903963      0.058845     -1.605496
  B       0.108868      1.924943     -0.687835
  B      -0.725813     -2.366395      0.299398
12
Coordinates from ORCA-job input E -297.368358642939
  B       1.998583      0.857171      1.216590
  B       1.379716     -0.684193      1.353938
  B      -0.699084      0.345670     -0.563907
  B      -0.100692     -0.873389      0.390580
  B       1.424502      2.026490      0.301944
  B      -1.201201      1.479536     -1.606524
  B       0.556157     -2.113851      1.204793
  B      -1.462167     -1.262825     -0.695932
  B       0.625408      0.613438      0.407087
  B      -1.906132      0.058204     -1.605549
  B       0.107529      1.921160     -0.694338
  B      -0.722619     -2.367412      0.291320
12
Coordinates from ORCA-job input E -297.368681317503
  B       2.002487      0.859729      1.216345
  B       1.375920     -0.679220      1.357676
  B      -0.715061      0.348899     -0.547927
  B      -0.116860     -0.870712      0.406201
  B       1.433700      2.018586      0.294683
  B      -1.193730      1.475043     -1.612894
  B       0.563741     -2.114372      1.194435
  B      -1.465052     -1.261581     -0.692232
  B       0.619560      0.615989      0.408353
  B      -1.902390      0.058103     -1.610935
  B       0.109561      1.921920     -0.693481
  B      -0.711874     -2.372383      0.279776
12
Coordinates from ORCA-job input E -297.369185883824
  B       2.010776      0.849224      1.206141
  B       1.374297     -0.679187      1.362436
  B      -0.735524      0.367457     -0.510551
  B      -0.148165     -0.847423      0.436827
  B       1.453333      1.993060      0.274724
  B      -1.186635      1.464948     -1.623709
  B       0.573771     -2.109519      1.170814
  B      -1.467607     -1.257817     -0.689975
  B       0.591804      0.626724      0.432760
  B      -1.879512      0.034849     -1.621307
  B       0.104777      1.929154     -0.693965
  B      -0.691315     -2.371471      0.255805
12
Coordinates from ORCA-job input E -297.370025256092
  B       2.021348      0.844278      1.196328
  B       1.371788     -0.676139      1.358693
  B      -0.769690      0.390982     -0.486568
  B      -0.178178     -0.850774      0.472198
  B       1.466117      1.987398      0.260612
  B      -1.179651      1.463301     -1.637479
  B       0.584156     -2.115346      1.155988
  B      -1.458909     -1.255555     -0.690129
  B       0.577956      0.643866      0.461134
  B      -1.867889      0.026821     -1.632060
  B       0.110160      1.921538     -0.698962
  B      -0.677208     -2.380370      0.240244
12
Coordinates from ORCA-job input E -297.368718146850
  B       2.031598      0.835225      1.174959
  B       1.387243     -0.670815      1.368575
  B      -0.794523      0.390699     -0.467742
  B      -0.188501     -0.862005      0.498445
  B       1.444242      2.017827      0.244431
  B      -1.161721      1.486207     -1.643251
  B       0.592661     -2.122617      1.167535
  B      -1.454303     -1.266504     -0.709197
  B       0.567345      0.637045      0.476974
  B      -1.867484      0.061167     -1.644487
  B       0.117422      1.884923     -0.704165
  B      -0.673981     -2.391153      0.237922
12
Coordinates from ORCA-job input E -297.370983586589
  B       2.033408      0.835254      1.164912
  B       1.374515     -0.673552      1.358039
  B      -0.807425      0.402745     -0.452221
  B      -0.205455     -0.850726      0.512214
  B       1.458826      1.985860      0.247879
  B      -1.156739      1.456061     -1.648347
  B       0.595301     -2.117456      1.149834
  B      -1.449766     -1.258318     -0.702304
  B       0.560104      0.650874      0.493549
  B      -1.854944      0.038722     -1.643660
  B       0.115483      1.913387     -0.704327
  B      -0.663307     -2.382852      0.224432
12
Coordinates from ORCA-job input E -297.371615148650
  B       2.030801      0.823254      1.159589
  B       1.372396     -0.677665      1.352541
  B      -0.811590      0.410841     -0.431361
  B      -0.220514     -0.828830      0.527958
  B       1.470506      1.978226      0.238889
  B      -1.148709      1.446810     -1.653247
  B       0.600548     -2.110482      1.127479
  B      -1.455551     -1.253477     -0.693125
  B       0.541253      0.658505      0.508195
  B      -1.835073      0.013005     -1.646838
  B       0.110731      1.912282     -0.700516
  B      -0.654798     -2.372469      0.210438
12
Coordinates from ORCA-job input E -297.372694479686
  B       2.040304      0.813731      1.134886
  B       1.367876     -0.678149      1.346093
  B      -0.852007      0.426309     -0.393665
  B      -0.255725     -0.823221      0.570640
  B       1.477581      1.961382      0.215507
  B      -1.127528      1.431035     -1.660432
  B       0.611587     -2.109235      1.108720
  B      -1.443097     -1.254935     -0.698381
  B       0.518546      0.681174      0.549316
  B      -1.813344      0.012437     -1.659444
  B       0.112577      1.911406     -0.703618
  B      -0.636771     -2.371934      0.190379
12
Coordinates from ORCA-job input E -297.372564343706
  B       2.041684      0.790340      1.096358
  B       1.379844     -0.668727      1.342664
  B      -0.881454      0.422206     -0.366365
  B      -0.272916     -0.817703      0.600594
  B       1.471156      1.937619      0.197471
  B      -1.108021      1.421536     -1.654881
  B       0.619183     -2.103272      1.114206
  B      -1.418436     -1.260836     -0.722054
  B       0.479770      0.686098      0.572086
  B      -1.798755      0.028837     -1.674501
  B       0.116857      1.930066     -0.696630
  B      -0.628911     -2.366164      0.191050
12
Coordinates from ORCA-job input E -297.373282254228
  B       2.044247      0.794439      1.098011
  B       1.373307     -0.674989      1.331186
  B      -0.896038      0.434764     -0.357978
  B      -0.286029     -0.816676      0.611374
  B       1.491990      1.948308      0.191712
  B      -1.109429      1.418844     -1.664307
  B       0.618411     -2.105809      1.094549
  B      -1.416398     -1.256439     -0.715964
  B       0.481284      0.712388      0.607215
  B      -1.791949      0.011650     -1.677140
  B       0.115944      1.899884     -0.699031
  B      -0.625340     -2.366365      0.180372
12
Coordinates from ORCA-job input E -297.373108720013
  B       2.047657      0.801378      1.104255
  B       1.374463     -0.685839      1.334753
  B      -0.867965      0.428734     -0.368775
  B      -0.266992     -0.802548      0.594796
  B       1.471030      1.952211      0.196522
  B      -1.105121      1.416501     -1.662637
  B       0.612634     -2.103930      1.094228
  B      -1.432337     -1.258916     -0.711754
  B       0.490852      0.699874      0.604531
  B      -1.794376      0.006710     -1.669595
  B       0.107202      1.906721     -0.699461
  B      -0.637047     -2.360895      0.183136
12
Coordinates from ORCA-job input E -297.372697362901
  B       2.046454      0.785883      1.104439
  B       1.375733     -0.674559      1.326097
  B      -0.878878      0.438952     -0.371114
  B      -0.277300     -0.812719      0.619478
  B       1.471909      1.944540      0.195867
  B      -1.106634      1.432526     -1.670318
  B       0.623491     -2.103405      1.094356
  B      -1.426342     -1.248238     -0.703687
  B       0.472131      0.696783      0.581270
  B      -1.784166     -0.002447     -1.674581
  B       0.113095      1.907703     -0.687083
  B      -0.629492     -2.365020      0.185274
12
Coordinates from ORCA-job input E -297.373302982530
  B       2.041417      0.797362      1.101103
  B       1.380746     -0.673242      1.327464
  B      -0.885846      0.425864     -0.371154
  B      -0.275586     -0.817307      0.605298
  B       1.488543      1.950120      0.202269
  B      -1.114465      1.426803     -1.665637
  B       0.620579     -2.106582      1.103410
  B      -1.422409     -1.255976     -0.714591
  B       0.476459      0.703957      0.595679
  B      -1.798059      0.020569     -1.680618
  B       0.118297      1.895560     -0.694676
  B      -0.629675     -2.367129      0.191452
12
Coordinates from ORCA-job input E -297.373484697221
  B       2.043761      0.795190      1.099431
  B       1.378305     -0.681902      1.324004
  B      -0.882554      0.433910     -0.365364
  B      -0.276202     -0.807316      0.608193
  B       1.478387      1.947949      0.197106
  B      -1.104332      1.415854     -1.665877
  B       0.617869     -2.105850      1.093646
  B      -1.424028     -1.256603     -0.711936
  B       0.478511      0.708496      0.609854
  B      -1.790391      0.008125     -1.674483
  B       0.113227      1.904472     -0.698974
  B      -0.632551     -2.362325      0.184399
12
Coordinates from ORCA-job input E -297.373532788319
  B       2.044405      0.793448      1.100585
  B       1.378071     -0.679159      1.323670
  B      -0.881907      0.431696     -0.367550
  B      -0.273519     -0.809426      0.604359
  B       1.479613      1.946643      0.197914
  B      -1.106559      1.421294     -1.666676
  B       0.619623     -2.104714      1.096858
  B      -1.423790     -1.256379     -0.713487
  B       0.472358      0.708873      0.607496
  B      -1.793701      0.010214     -1.674198
  B       0.116322      1.900583     -0.697029
  B      -0.630916     -2.363074      0.188057
12
Coordinates from ORCA-job input E -297.373511516134
  B       2.040945      0.794082      1.096190
  B       1.382655     -0.680263      1.319510
  B      -0.880619      0.433662     -0.369170
  B      -0.272401     -0.813356      0.609065
  B       1.479236      1.951295      0.201498
  B      -1.104523      1.420493     -1.669148
  B       0.618841     -2.109096      1.099029
  B      -1.423557     -1.253830     -0.712711
  B       0.471352      0.707770      0.609745
  B      -1.792560      0.009983     -1.675353
  B       0.114977      1.904361     -0.698227
  B      -0.634345     -2.365101      0.189572
12
Coordinates from ORCA-job input E -297.373531175812
  B       2.045234      0.795704      1.096715
  B       1.380088     -0.679307      1.321706
  B      -0.884870      0.432569     -0.364033
  B      -0.276510     -0.810285      0.611855
  B       1.478957      1.946996      0.195451
  B      -1.103787      1.419679     -1.668800
  B       0.619784     -2.106895      1.094905
  B      -1.424205     -1.254515     -0.711989
  B       0.470700      0.710708      0.615012
  B      -1.789828      0.011937     -1.677782
  B       0.115357      1.897598     -0.697599
  B      -0.630919     -2.364190      0.184559
12
Coordinates from ORCA-job input E -297.373532052744
  B       2.043378      0.794229      1.102643
  B       1.379310     -0.680398      1.321281
  B      -0.884116      0.434082     -0.367942
  B      -0.274535     -0.807893      0.606244
  B       1.479774      1.945533      0.200768
  B      -1.107329      1.419256     -1.668984
  B       0.620805     -2.104846      1.093148
  B      -1.424132     -1.255740     -0.710101
  B       0.471600      0.710360      0.610964
  B      -1.794400      0.008768     -1.673844
  B       0.119769      1.898822     -0.700681
  B      -0.630123     -2.362174      0.186504
12
Coordinates from ORCA-job input E -297.373540382199
  B       2.042403      0.794352      1.100299
  B       1.380483     -0.680559      1.319703
  B      -0.880918      0.432724     -0.366993
  B      -0.273026     -0.809856      0.605729
  B       1.479189      1.948694      0.200123
  B      -1.103070      1.418504     -1.669556
  B       0.620408     -2.106517      1.095329
  B      -1.426485     -1.254770     -0.711147
  B       0.470550      0.709760      0.610512
  B      -1.792797      0.009447     -1.673465
  B       0.115692      1.901351     -0.698479
  B      -0.632429     -2.363130      0.187946
12
Coordinates from ORCA-job input E -297.373540499118
  B       2.043749      0.796995      1.100649
  B       1.380877     -0.679811      1.321140
  B      -0.881237      0.432306     -0.368146
  B      -0.272498     -0.811490      0.607643
  B       1.477591      1.948690      0.198661
  B      -1.105875      1.420755     -1.668231
  B       0.619118     -2.108129      1.096523
  B      -1.424485     -1.254544     -0.711574
  B       0.472346      0.709205      0.611338
  B      -1.793568      0.011906     -1.675393
  B       0.117240      1.898898     -0.699759
  B      -0.633259     -2.364782      0.187149
12
Coordinates from ORCA-job input E -297.373545340354
  B       2.042458      0.794632      1.099810
  B       1.380212     -0.680056      1.320877
  B      -0.884462      0.433660     -0.365381
  B      -0.275184     -0.809349      0.609353
  B       1.479756      1.946468      0.198614
  B      -1.103680      1.418212     -1.669882
  B       0.621555     -2.106300      1.092924
  B      -1.425575     -1.254991     -0.710074
  B       0.469395      0.711203      0.613787
  B      -1.792578      0.010374     -1.674820
  B       0.118436      1.899286     -0.700378
  B      -0.630334     -2.363138      0.185172
12
Coordinates from ORCA-job input E -297.373545438282
  B       2.043651      0.795769      1.102171
  B       1.380070     -0.680073      1.319881
  B      -0.881365      0.432909     -0.367892
  B      -0.273454     -0.810155      0.605997
  B       1.478733      1.947773      0.200352
  B      -1.104583      1.418844     -1.669491
  B       0.620506     -2.106269      1.094247
  B      -1.425966     -1.254535     -0.710754
  B       0.471491      0.709440      0.611176
  B      -1.793902      0.009685     -1.673527
  B       0.117172      1.899763     -0.699786
  B      -0.632353     -2.363150      0.187627
12
Coordinates from ORCA-job input E -297.373546631548
  B       2.042112      0.795584      1.101698
  B       1.380876     -0.680263      1.321298
  B      -0.881573      0.432799     -0.367236
  B      -0.272239     -0.809914      0.606377
  B       1.478490      1.948108      0.199344
  B      -1.104754      1.419385     -1.669355
  B       0.620345     -2.107292      1.094514
  B      -1.425817     -1.254589     -0.710292
  B       0.471232      0.709754      0.610896
  B      -1.793768      0.010524     -1.674051
  B       0.117591      1.899386     -0.700059
  B      -0.632495     -2.363483      0.186866
12
Coordinates from ORCA-job input E -297.373547067961
  B       2.043026      0.795679      1.100590
  B       1.380226     -0.679888      1.320261
  B      -0.883036      0.433162     -0.366361
  B      -0.274613     -0.810364      0.608883
  B       1.479096      1.947172      0.198917
  B      -1.103987      1.418590     -1.669472
  B       0.621129     -2.106768      1.093590
  B      -1.425566     -1.254715     -0.710553
  B       0.470157      0.710693      0.613262
  B      -1.793055      0.010753     -1.674605
  B       0.118113      1.899308     -0.700534
  B      -0.631491     -2.363623      0.186021
12
Coordinates from ORCA-job input E -297.373547653338
  B       2.042969      0.795278      1.101343
  B       1.380200     -0.679724      1.321007
  B      -0.882642      0.433091     -0.366812
  B      -0.274198     -0.810119      0.607662
  B       1.479135      1.947090      0.199089
  B      -1.104343      1.418952     -1.669623
  B       0.621176     -2.106464      1.093383
  B      -1.425656     -1.254464     -0.710379
  B       0.470629      0.709977      0.611896
  B      -1.793330      0.010186     -1.674255
  B       0.117681      1.899491     -0.699946
  B      -0.631621     -2.363295      0.186633
12
Coordinates from ORCA-job input E -297.373547749209
  B       2.042571      0.796120      1.102138
  B       1.380452     -0.680256      1.320495
  B      -0.881538      0.432736     -0.367366
  B      -0.273015     -0.809996      0.606750
  B       1.478729      1.947903      0.199781
  B      -1.104484      1.418773     -1.669422
  B       0.620739     -2.106858      1.093854
  B      -1.426277     -1.254709     -0.710226
  B       0.471152      0.709927      0.611670
  B      -1.794000      0.010458     -1.673778
  B       0.117964      1.899217     -0.700606
  B      -0.632295     -2.363315      0.186712
12
Coordinates from ORCA-job input E -297.373547988939
  B       2.042567      0.795714      1.101397
  B       1.380581     -0.679970      1.320548
  B      -0.882353      0.433028     -0.366803
  B      -0.273761     -0.810178      0.607878
  B       1.478893      1.947560      0.199265
  B      -1.104247      1.418756     -1.669581
  B       0.621001     -2.106930      1.093574
  B      -1.425841     -1.254564     -0.710299
  B       0.470617      0.710206      0.612302
  B      -1.793467      0.010512     -1.674250
  B       0.118015      1.899315     -0.700475
  B      -0.632003     -2.363449      0.186444
12
Coordinates from ORCA-job input E -297.373548043096
  B       2.042763      0.795706      1.101736
  B       1.380369     -0.679871      1.320667
  B      -0.882307      0.433086     -0.366927
  B      -0.273766     -0.810141      0.607491
  B       1.478914      1.947344      0.199327
  B      -1.104249      1.418732     -1.669660
  B       0.621111     -2.106709      1.093373
  B      -1.425909     -1.254453     -0.710271
  B       0.470667      0.710054      0.612189
  B      -1.793669      0.010330     -1.673992
  B       0.117971      1.899246     -0.700469
  B      -0.631895     -2.363323      0.186535
12
Coordinates from ORCA-job input E -297.373548041415
  B       2.042701      0.795839      1.101853
  B       1.380279     -0.679941      1.320719
  B      -0.882107      0.432821     -0.366941
  B      -0.273698     -0.810123      0.607429
  B       1.478918      1.947447      0.199329
  B      -1.104289      1.418762     -1.669522
  B       0.621122     -2.106713      1.093417
  B      -1.426137     -1.254616     -0.710196
  B       0.470785      0.710116      0.611930
  B      -1.793689      0.010515     -1.674037
  B       0.118026      1.899264     -0.700490
  B      -0.631911     -2.363370      0.186509
12
Coordinates from ORCA-job input E -297.373548070202
  B       2.042487      0.795915      1.101917
  B       1.380529     -0.679999      1.320617
  B      -0.882043      0.432972     -0.367051
  B      -0.273547     -0.810145      0.607492
  B       1.478887      1.947600      0.199465
  B      -1.104322      1.418732     -1.669672
  B       0.621081     -2.106878      1.093390
  B      -1.426079     -1.254508     -0.710130
  B       0.470776      0.710019      0.612068
  B      -1.793812      0.010448     -1.673958
  B       0.118116      1.899209     -0.700646
  B      -0.632073     -2.363366      0.186508
12
Coordinates from ORCA-job input E -297.373548094615
  B       2.042660      0.795783      1.101788
  B       1.380425     -0.679893      1.320609
  B      -0.882245      0.433020     -0.366888
  B      -0.273737     -0.810152      0.607573
  B       1.478890      1.947412      0.199329
  B      -1.104213      1.418675     -1.669633
  B       0.621135     -2.106781      1.093321
  B      -1.425989     -1.254485     -0.710231
  B       0.470671      0.710122      0.612214
  B      -1.793668      0.010408     -1.674009
  B       0.118040      1.899227     -0.700570
  B      -0.631970     -2.363336      0.186497
12
Coordinates from ORCA-job input E -297.373548097475
  B       2.042609      0.795824      1.101830
  B       1.380416     -0.679925      1.320637
  B      -0.882193      0.432953     -0.366893
  B      -0.273738     -0.810146      0.607631
  B       1.478899      1.947448      0.199331
  B      -1.104231      1.418703     -1.669632
  B       0.621169     -2.106786      1.093284
  B      -1.426066     -1.254514     -0.710167
  B       0.470680      0.710123      0.612124
  B      -1.793672      0.010452     -1.674034
  B       0.118090      1.899220     -0.700584
  B      -0.631963     -2.363351      0.186473
12
Coordinates from ORCA-job input E -297.373548096133
  B       2.042574      0.795884      1.101925
  B       1.380426     -0.679933      1.320654
  B      -0.882124      0.432942     -0.366978
  B      -0.273705     -0.810139      0.607585
  B       1.478909      1.947476      0.199385
  B      -1.104258      1.418707     -1.669646
  B       0.621181     -2.106783      1.093250
  B      -1.426108     -1.254495     -0.710130
  B       0.470724      0.710052      0.612082
  B      -1.793757      0.010439     -1.673980
  B       0.118118      1.899184     -0.700625
  B      -0.631982     -2.363333      0.186476
12
Coordinates from ORCA-job input E -297.373548098299
  B       2.042564      0.795890      1.101974
  B       1.380453     -0.679925      1.320635
  B      -0.882095      0.432946     -0.366990
  B      -0.273633     -0.810155      0.607497
  B       1.478886      1.947495      0.199412
  B      -1.104264      1.418684     -1.669649
  B       0.621157     -2.106815      1.093275
  B      -1.426103     -1.254486     -0.710145
  B       0.470745      0.710067      0.612082
  B      -1.793794      0.010446     -1.673945
  B       0.118115      1.899188     -0.700654
  B      -0.632030     -2.363335      0.186508
12
Coordinates from ORCA-job input E -297.373548101443
  B       2.042589      0.795853      1.101905
  B       1.380438     -0.679912      1.320634
  B      -0.882149      0.432955     -0.366936
  B      -0.273686     -0.810158      0.607558
  B       1.478890      1.947458      0.199362
  B      -1.104237      1.418679     -1.669641
  B       0.621168     -2.106800      1.093264
  B      -1.426074     -1.254492     -0.710170
  B       0.470699      0.710105      0.612143
  B      -1.793742      0.010447     -1.673978
  B       0.118106      1.899201     -0.700633
  B      -0.632003     -2.363336      0.186493
12
Coordinates from ORCA-job input E -297.373547913275
  B       2.042819      0.795485      1.101219
  B       1.380315     -0.679828      1.320618
  B      -0.882758      0.433125     -0.366367
  B      -0.274253     -0.810112      0.608227
  B       1.478994      1.947072      0.198857
  B      -1.103973      1.418587     -1.669629
  B       0.621291     -2.106647      1.093074
  B      -1.425790     -1.254532     -0.710376
  B       0.470207      0.710486      0.612891
  B      -1.793202      0.010373     -1.674293
  B       0.118032      1.899284     -0.700475
  B      -0.631681     -2.363293      0.186256
12
Coordinates from ORCA-job input E -297.373548100735
  B       2.042602      0.795827      1.101853
  B       1.380425     -0.679910      1.320638
  B      -0.882198      0.432967     -0.366892
  B      -0.273743     -0.810149      0.607628
  B       1.478907      1.947425      0.199322
  B      -1.104219      1.418677     -1.669645
  B       0.621187     -2.106783      1.093235
  B      -1.426061     -1.254494     -0.710171
  B       0.470657      0.710129      0.612196
  B      -1.793694      0.010436     -1.674008
  B       0.118105      1.899205     -0.700621
  B      -0.631968     -2.363330      0.186465
