12
Coordinates from ORCA-job input E -297.373548100735
  B           2.04260208112824      0.79582729364352      1.10185302763765
  B           1.38042470659837     -0.67990989608307      1.32063792994052
  B          -0.88219818510713      0.43296684949788     -0.36689200569633
  B          -0.27374264347634     -0.81014851309980      0.60762808088751
  B           1.47890694945790      1.94742517863560      0.19932185284770
  B          -1.10421922318993      1.41867707838966     -1.66964502088019
  B           0.62118742041242     -2.10678342638149      1.09323493390621
  B          -1.42606132042713     -1.25449375947336     -0.71017081889938
  B           0.47065728027818      0.71012893604199      0.61219636622819
  B          -1.79369379643336      0.01043591561491     -1.67400844146836
  B           0.11810463598406      1.89920466692518     -0.70062122544148
  B          -0.63196791522528     -2.36333032371102      0.18646533093797
