12
Optimized coordinates extracted from calculations\B12\compact_3d\d_3.0\mult_1\output.out
B        2.04260208       0.79582729       1.10185303
B        1.38042471      -0.67990990       1.32063793
B       -0.88219819       0.43296685      -0.36689201
B       -0.27374264      -0.81014851       0.60762808
B        1.47890695       1.94742518       0.19932185
B       -1.10421922       1.41867708      -1.66964502
B        0.62118742      -2.10678343       1.09323493
B       -1.42606132      -1.25449376      -0.71017082
B        0.47065728       0.71012894       0.61219637
B       -1.79369380       0.01043592      -1.67400844
B        0.11810464       1.89920467      -0.70062123
B       -0.63196792      -2.36333032       0.18646533
