12
B12 random_3d_02; neutral charge=0; multiplicity=1; 3D initial geometry; nominal d=3.5 A; Random 3D B12 cloud with controlled minimum distance 02.
B        3.47210368      -1.95859597       3.27371932
B        3.00713634       1.02039763       0.72352146
B       -3.69032677      -4.82521101       3.90271119
B       -0.15243288       2.14357422      -2.82380978
B        3.41063405       0.25436039      -5.64733607
B       -2.82074221       5.02312746      -6.42653601
B        2.18582329      -0.07649880       5.02125863
B        0.61627993      -1.16375126      -1.66042149
B        0.41550950       2.08683340       0.93346819
B       -1.09633192      -3.64567933      -1.15271949
B       -5.22736099      -0.85817783       0.27091985
B       -0.12029201       1.99962110       3.58522419
