12
Coordinates from ORCA-job input E -296.979056286288
  B           3.11358337983257      0.05445038016330     -0.01423342334591
  B           1.61224267912966      2.64884017665259      0.00470545473892
  B          -1.44832788375640      2.43066926316161      0.00778022047250
  B          -3.16405582207292     -0.05628189265294      0.00863991907295
  B          -1.59820039675409     -2.62511324477178      0.00192623154598
  B           1.46381221314424     -2.44950118973953     -0.00835942531653
  B           2.72767532721585      1.56831643680785     -0.01058126795894
  B           0.07796764671544      2.87633197847292     -0.00360186374196
  B          -2.62322057579503      1.40142338569089      0.01017402133964
  B          -2.73327213222732     -1.55135258667477      0.01242111995203
  B          -0.06855272505985     -2.87374706476811      0.00822984448227
  B           2.64034828962786     -1.42403564234205     -0.01710083124095
