12
Coordinates from ORCA-job input E -295.118624579670
  B       5.000000     -0.000000      1.550000
  B       2.500000      4.330127      1.550000
  B      -2.500000      4.330127      1.550000
  B      -5.000000      0.000000      1.550000
  B      -2.500000     -4.330127      1.550000
  B       2.500000     -4.330127      1.550000
  B       4.070319      2.350000     -1.550000
  B       0.000000      4.700000     -1.550000
  B      -4.070319      2.350000     -1.550000
  B      -4.070319     -2.350000     -1.550000
  B      -0.000000     -4.700000     -1.550000
  B       4.070319     -2.350000     -1.550000
12
Coordinates from ORCA-job input E -295.121616343925
  B       4.983659     -0.001400      1.523105
  B       2.491246      4.317204      1.524624
  B      -2.492941      4.317556      1.528137
  B      -4.985526      0.000194      1.526600
  B      -2.493250     -4.317286      1.527218
  B       2.492822     -4.317083      1.527684
  B       4.057311      2.343267     -1.528130
  B       0.001639      4.684194     -1.523101
  B      -4.056998      2.342641     -1.527405
  B      -4.056478     -2.342147     -1.528356
  B       0.000499     -4.685677     -1.525872
  B       4.058015     -2.341463     -1.524504
12
Coordinates from ORCA-job input E -295.124843571254
  B       4.967677     -0.002834      1.495754
  B       2.482599      4.304648      1.498939
  B      -2.486103      4.305415      1.506150
  B      -4.971542      0.000409      1.503033
  B      -2.486768     -4.304902      1.504353
  B       2.485941     -4.304441      1.505210
  B       4.044765      2.336842     -1.506076
  B       0.003397      4.668913     -1.495796
  B      -4.044093      2.335629     -1.504697
  B      -4.043076     -2.334569     -1.506681
  B       0.001011     -4.671996     -1.501490
  B       4.046193     -2.333113     -1.498698
12
Coordinates from ORCA-job input E -295.128329875921
  B       4.952000     -0.004295      1.467980
  B       2.474048      4.292420      1.472955
  B      -2.479443      4.293681      1.484059
  B      -4.958001      0.000650      1.479327
  B      -2.480533     -4.292950      1.481411
  B       2.479336     -4.292164      1.482591
  B       4.032642      2.330700     -1.483842
  B       0.005267      4.654113     -1.468125
  B      -4.031592      2.328953     -1.481888
  B      -4.030094     -2.327252     -1.484994
  B       0.001543     -4.658930     -1.476884
  B       4.034828     -2.324926     -1.472591
12
Coordinates from ORCA-job input E -295.132104219715
  B       4.936582     -0.005782      1.439808
  B       2.465571      4.280478      1.446689
  B      -2.472931      4.282324      1.461876
  B      -4.944866      0.000920      1.455511
  B      -2.474523     -4.281403      1.458411
  B       2.472987     -4.280221      1.459835
  B       4.020918      2.324828     -1.461433
  B       0.007255      4.639754     -1.440121
  B      -4.019472      2.322598     -1.458995
  B      -4.017515     -2.320186     -1.463311
  B       0.002098     -4.646443     -1.452073
  B       4.023897     -2.316866     -1.446199
12
Coordinates from ORCA-job input E -295.136200716899
  B       4.921379     -0.007296      1.411258
  B       2.457148      4.268777      1.420154
  B      -2.466538      4.271312      1.439623
  B      -4.932103      0.001224      1.431612
  B      -2.468720     -4.270232      1.435369
  B       2.466874     -4.268576      1.436955
  B       4.009571      2.319206     -1.438859
  B       0.009363      4.625793     -1.411809
  B      -4.007713      2.316551     -1.436037
  B      -4.005326     -2.313360     -1.441655
  B       0.002683     -4.634502     -1.427070
  B       4.013382     -2.308899     -1.419540
12
Coordinates from ORCA-job input E -295.143003819944
  B       4.896414     -0.009639      1.369062
  B       2.443293      4.249312      1.380818
  B      -2.455545      4.253004      1.406812
  B      -4.911035      0.001706      1.396530
  B      -2.458961     -4.251868      1.401490
  B       2.456793     -4.249107      1.403188
  B       3.990938      2.309800     -1.405348
  B       0.012770      4.603406     -1.370090
  B      -3.988746      2.306833     -1.402219
  B      -3.985991     -2.302499     -1.409854
  B       0.003651     -4.615038     -1.390281
  B       3.996420     -2.295911     -1.380108
12
Coordinates from ORCA-job input E -295.154940044197
  B       4.855197     -0.013235      1.306846
  B       2.420386      4.216754      1.322722
  B      -2.436567      4.222545      1.358656
  B      -4.876211      0.002530      1.345289
  B      -2.442531     -4.221665      1.351945
  B       2.440203     -4.216443      1.353495
  B       3.960256      2.294030     -1.355727
  B       0.018381      4.567273     -1.308828
  B      -3.958083      2.291262     -1.352673
  B      -3.955296     -2.285209     -1.363455
  B       0.005298     -4.583310     -1.336284
  B       3.968968     -2.274534     -1.321987
12
Coordinates from ORCA-job input E -295.169498821505
  B       4.815240     -0.016783      1.243014
  B       2.397946      4.185410      1.263707
  B      -2.418146      4.193922      1.310069
  B      -4.843422      0.003597      1.293464
  B      -2.427136     -4.193454      1.301996
  B       2.424871     -4.185268      1.302894
  B       3.931516      2.279391     -1.305291
  B       0.024448      4.532992     -1.246363
  B      -3.929343      2.277274     -1.302711
  B      -3.926699     -2.269150     -1.317012
  B       0.007127     -4.554311     -1.280977
  B       3.943600     -2.253620     -1.262789
12
Coordinates from ORCA-job input E -295.187258883929
  B       4.775807     -0.020192      1.178312
  B       2.375691      4.154695      1.204441
  B      -2.399860      4.166502      1.261347
  B      -4.811829      0.004899      1.241185
  B      -2.412355     -4.166657      1.251731
  B       2.410393     -4.154917      1.251518
  B       3.904070      2.265419     -1.254461
  B       0.030881      4.499892     -1.183506
  B      -3.901928      2.264520     -1.252437
  B      -3.899642     -2.253984     -1.270555
  B       0.009125     -4.527335     -1.224535
  B       3.919646     -2.232843     -1.203041
12
Coordinates from ORCA-job input E -295.208920884013
  B       4.736197     -0.023456      1.113663
  B       2.353264      4.124012      1.145639
  B      -2.381328      4.139602      1.212778
  B      -4.780519      0.006418      1.188530
  B      -2.397723     -4.140610      1.201167
  B       2.396269     -4.124717      1.199500
  B       3.877249      2.251648     -1.203794
  B       0.037602      4.467304     -1.121097
  B      -3.875182      2.252556     -1.201926
  B      -3.873484     -2.239354     -1.223987
  B       0.011251     -4.501547     -1.167098
  B       3.896405     -2.211856     -1.143375
12
Coordinates from ORCA-job input E -295.235256317096
  B       4.695946     -0.026498      1.050265
  B       2.330487      4.092812      1.088315
  B      -2.362206      4.112406      1.164483
  B      -4.748451      0.008096      1.135395
  B      -2.382709     -4.114460      1.150159
  B       2.381863     -4.093951      1.146874
  B       3.850405      2.237636     -1.153877
  B       0.044278      4.434652     -1.060146
  B      -3.848496      2.240778     -1.151166
  B      -3.847539     -2.224884     -1.176946
  B       0.013329     -4.476025     -1.108687
  B       3.873092     -2.190562     -1.084670
12
Coordinates from ORCA-job input E -295.266568745259
  B       4.654882     -0.028984      0.989630
  B       2.307481      4.060816      1.033897
  B      -2.342177      4.083938      1.116276
  B      -4.714352      0.009831      1.081455
  B      -2.366757     -4.087113      1.098406
  B       2.366401     -4.061949      1.093643
  B       3.822940      2.222962     -1.105185
  B       0.050163      4.401453     -1.001880
  B      -3.821281      2.228329     -1.099979
  B      -3.821045     -2.210157     -1.128701
  B       0.014945     -4.449849     -1.049379
  B       3.848800     -2.169278     -1.028183
12
Coordinates from ORCA-job input E -295.300297598440
  B       4.612271     -0.030570      0.932300
  B       2.283947      4.027482      0.983119
  B      -2.320602      4.053242      1.068160
  B      -4.677134      0.011674      1.027205
  B      -2.349424     -4.057629      1.046629
  B       2.349308     -4.027985      1.040445
  B       3.793963      2.206947     -1.057733
  B       0.054847      4.366865     -0.946761
  B      -3.792619      2.214466     -1.048841
  B      -3.793148     -2.194697     -1.079593
  B       0.015953     -4.421968     -0.990078
  B       3.822638     -2.147827     -0.974851
12
Coordinates from ORCA-job input E -295.336965790439
  B       4.564808     -0.032769      0.875671
  B       2.257440      3.990109      0.932648
  B      -2.296465      4.018740      1.020294
  B      -4.635032      0.013637      0.972325
  B      -2.329516     -4.024545      0.994251
  B       2.329588     -3.989736      0.986513
  B       3.761166      2.188461     -1.010541
  B       0.060080      4.328593     -0.892625
  B      -3.760476      2.198547     -0.997061
  B      -3.761879     -2.177435     -1.029890
  B       0.017143     -4.389865     -0.929880
  B       3.793144     -2.123737     -0.921705
12
Coordinates from ORCA-job input E -295.375406671897
  B       4.514028     -0.035817      0.822189
  B       2.228704      3.949793      0.884455
  B      -2.270749      3.981409      0.974815
  B      -4.589206      0.015576      0.919201
  B      -2.307456     -3.988729      0.943526
  B       2.307600     -3.948332      0.934255
  B       3.725397      2.167979     -0.965623
  B       0.065811      4.287924     -0.841850
  B      -3.725768      2.180873     -0.946793
  B      -3.727950     -2.158803     -0.981745
  B       0.018527     -4.354130     -0.871483
  B       3.761061     -2.097743     -0.870949
12
Coordinates from ORCA-job input E -295.415690768844
  B       4.459859     -0.039878      0.771998
  B       2.197678      3.906403      0.838631
  B      -2.243574      3.941025      0.931902
  B      -4.539424      0.017433      0.868250
  B      -2.283015     -3.949875      0.894880
  B       2.283088     -3.903657      0.884192
  B       3.686381      2.145307     -0.923054
  B       0.072060      4.244783     -0.794589
  B      -3.688295      2.161195     -0.898343
  B      -3.690986     -2.138620     -0.935518
  B       0.020133     -4.314304     -0.815509
  B       3.726095     -2.069811     -0.822840
12
Coordinates from ORCA-job input E -295.457910618805
  B       4.402241     -0.045071      0.725026
  B       2.164317      3.859873      0.795166
  B      -2.215054      3.897441      0.891645
  B      -4.485589      0.019172      0.819889
  B      -2.256058     -3.907769      0.848764
  B       2.255922     -3.855716      0.836869
  B       3.643889      2.120247     -0.882803
  B       0.078869      4.199114     -0.750805
  B      -3.647910      2.139355     -0.852031
  B      -3.650687     -2.116725     -0.891595
  B       0.022004     -4.270070     -0.762594
  B       3.688054     -2.039850     -0.777531
12
Coordinates from ORCA-job input E -295.502210748911
  B       4.341111     -0.051480      0.680985
  B       2.128577      3.810184      0.753952
  B      -2.185253      3.850640      0.854063
  B      -4.427801      0.020803      0.774490
  B      -2.226577     -3.862373      0.805603
  B       2.226164     -3.804620      0.792774
  B       3.597757      2.092602     -0.844764
  B       0.086338      4.150890     -0.710262
  B      -3.604535      2.115349     -0.808162
  B      -3.606913     -2.093014     -0.850363
  B       0.024229     -4.221324     -0.713280
  B       3.646903     -2.007658     -0.735037
12
Coordinates from ORCA-job input E -295.548827175522
  B       4.276410     -0.059125      0.639446
  B       2.090454      3.757393      0.714816
  B      -2.154148      3.800769      0.819113
  B      -4.366393      0.022392      0.732330
  B      -2.194709     -3.813875      0.765710
  B       2.194076     -3.750547      0.752265
  B       3.547886      2.062187     -0.808815
  B       0.094604      4.100099     -0.672562
  B      -3.558187      2.089360     -0.766980
  B      -3.559748     -2.067485     -0.812175
  B       0.026950     -4.168225     -0.667911
  B       3.602807     -1.972944     -0.695237
12
Coordinates from ORCA-job input E -295.598128616682
  B       4.208153     -0.067932      0.599984
  B       2.049977      3.701646      0.677556
  B      -2.121592      3.748127      0.786658
  B      -4.301910      0.024074      0.693534
  B      -2.160712     -3.762671      0.729241
  B       2.160125     -3.693685      0.715504
  B       3.494240      2.028866     -0.774840
  B       0.103794      4.046720     -0.637177
  B      -3.508970      2.061740     -0.728644
  B      -3.509520     -2.040257     -0.777267
  B       0.030310     -4.111187     -0.626590
  B       3.556105     -1.935442     -0.657958
12
Coordinates from ORCA-job input E -295.650739489470
  B       4.136443     -0.077833      0.562183
  B       2.007225      3.643218      0.641964
  B      -2.087332      3.693191      0.756547
  B      -4.235094      0.026021      0.658071
  B      -2.124961     -3.709352      0.696179
  B       2.124987     -3.634124      0.682431
  B       3.436827      1.992617     -0.742761
  B       0.114009      3.990661     -0.603490
  B      -3.457086      2.033004     -0.693259
  B      -3.456791     -2.011571     -0.745757
  B       0.034422     -4.050861     -0.589173
  B       3.507349     -1.894972     -0.622935
12
Coordinates from ORCA-job input E -295.707970746688
  B       4.061328     -0.089193      0.525505
  B       1.962403      3.582562      0.607693
  B      -2.051187      3.636943      0.728904
  B      -4.167085      0.028387      0.625877
  B      -2.087856     -3.654808      0.666369
  B       2.089699     -3.571582      0.652559
  B       3.375726      1.953542     -0.712524
  B       0.125499      3.931828     -0.570853
  B      -3.403125      2.003993     -0.661063
  B      -3.402427     -1.981917     -0.717758
  B       0.039562     -3.988117     -0.555211
  B       3.457462     -1.851638     -0.589500
12
Coordinates from ORCA-job input E -295.771081884169
  B       3.983151     -0.101982      0.490383
  B       1.915805      3.520175      0.573723
  B      -2.013634      3.581151      0.704077
  B      -4.099101      0.031162      0.596732
  B      -2.049211     -3.599687      0.639260
  B       2.055418     -3.505947      0.624553
  B       3.311228      1.912392     -0.683702
  B       0.138810      3.870177     -0.538755
  B      -3.348497      1.975685     -0.632253
  B      -3.347201     -1.951850     -0.692841
  B       0.046314     -3.923669     -0.523977
  B       3.406918     -1.807606     -0.557200
12
Coordinates from ORCA-job input E -295.840524242355
  B       3.903807     -0.112799      0.458405
  B       1.870289      3.456562      0.541178
  B      -1.975197      3.524510      0.679904
  B      -4.029953      0.033866      0.569268
  B      -2.008942     -3.542700      0.613562
  B       2.021052     -3.438488      0.597359
  B       3.244350      1.870389     -0.655066
  B       0.151715      3.806412     -0.508133
  B      -3.293891      1.946985     -0.605352
  B      -3.291167     -1.921222     -0.668640
  B       0.053365     -3.857626     -0.494884
  B       3.354571     -1.765891     -0.527598
12
Coordinates from ORCA-job input E -295.914363909113
  B       3.823264     -0.121015      0.429082
  B       1.827243      3.393069      0.511991
  B      -1.934740      3.464899      0.654419
  B      -3.958545      0.036216      0.542887
  B      -1.968087     -3.484064      0.588864
  B       1.986202     -3.370887      0.571589
  B       3.176017      1.827947     -0.627078
  B       0.161921      3.741810     -0.479625
  B      -3.238024      1.917647     -0.579225
  B      -3.234577     -1.890038     -0.644183
  B       0.059518     -3.790865     -0.468201
  B       3.299808     -1.724721     -0.500522
12
Coordinates from ORCA-job input E -295.990176149364
  B       3.740607     -0.126487      0.402794
  B       1.784333      3.327532      0.485157
  B      -1.891674      3.402364      0.629465
  B      -3.884595      0.038335      0.518689
  B      -1.926349     -3.423166      0.565844
  B       1.950754     -3.301475      0.547492
  B       3.105473      1.784694     -0.600242
  B       0.170742      3.674179     -0.453284
  B      -3.179329      1.887000     -0.554927
  B      -3.176256     -1.857691     -0.620829
  B       0.064983     -3.721967     -0.444397
  B       3.241310     -1.683319     -0.475763
12
Coordinates from ORCA-job input E -296.067020582240
  B       3.656875     -0.128056      0.379947
  B       1.742596      3.259484      0.460796
  B      -1.846784      3.337035      0.604709
  B      -3.808106      0.040183      0.496445
  B      -1.883558     -3.359656      0.544326
  B       1.914624     -3.230024      0.524167
  B       3.033446      1.741254     -0.573950
  B       0.177051      3.603564     -0.429278
  B      -3.118262      1.854899     -0.532414
  B      -3.116026     -1.824029     -0.598120
  B       0.069420     -3.650833     -0.422953
  B       3.178724     -1.643820     -0.453677
12
Coordinates from ORCA-job input E -296.144432006003
  B       3.573062     -0.124871      0.360646
  B       1.703689      3.189478      0.439480
  B      -1.800689      3.269084      0.579601
  B      -3.729178      0.041484      0.475786
  B      -1.839677     -3.293654      0.524069
  B       1.877207     -3.157070      0.500811
  B       2.961202      1.698435     -0.547833
  B       0.179244      3.530987     -0.407891
  B      -3.055340      1.821210     -0.511449
  B      -3.053962     -1.789289     -0.575553
  B       0.072592     -3.577718     -0.403186
  B       3.111851     -1.608076     -0.434482
12
Coordinates from ORCA-job input E -296.222370359492
  B       3.490114     -0.116645      0.344760
  B       1.669012      3.118077      0.421536
  B      -1.754347      3.198912      0.553966
  B      -3.648089      0.042265      0.456354
  B      -1.794852     -3.225415      0.504894
  B       1.838303     -3.083394      0.477114
  B       2.890077      1.656942     -0.521781
  B       0.176095      3.457507     -0.389344
  B      -2.991305      1.785751     -0.491736
  B      -2.990280     -1.753638     -0.552907
  B       0.074285     -3.503021     -0.384677
  B       3.040986     -1.577341     -0.418178
12
Coordinates from ORCA-job input E -296.300536213444
  B       3.408985     -0.104003      0.331797
  B       1.638855      3.045823      0.406836
  B      -1.708762      3.126691      0.527782
  B      -3.565125      0.042661      0.437800
  B      -1.749927     -3.154991      0.486475
  B       1.798692     -3.009978      0.453572
  B       2.821139      1.617303     -0.496014
  B       0.166944      3.383768     -0.373528
  B      -2.926630      1.748479     -0.472835
  B      -2.925394     -1.716922     -0.529994
  B       0.073735     -3.427327     -0.367498
  B       2.967489     -1.551503     -0.404394
12
Coordinates from ORCA-job input E -296.377786411955
  B       3.329977     -0.088411      0.320972
  B       1.612183      2.973096      0.394728
  B      -1.664292      3.052782      0.501184
  B      -3.480798      0.042411      0.419988
  B      -1.706025     -3.082524      0.468595
  B       1.759428     -2.937363      0.430719
  B       2.754671      1.579602     -0.470853
  B       0.152281      3.309951     -0.359819
  B      -2.861306      1.709947     -0.454601
  B      -2.859776     -1.679091     -0.506705
  B       0.070705     -3.351061     -0.351804
  B       2.892954     -1.529339     -0.392403
12
Coordinates from ORCA-job input E -296.462894106349
  B       3.261151     -0.070278      0.304022
  B       1.593398      2.906488      0.378714
  B      -1.622286      2.981889      0.464268
  B      -3.401444      0.040736      0.393369
  B      -1.668462     -3.014362      0.443172
  B       1.724966     -2.868729      0.399460
  B       2.695592      1.547999     -0.438143
  B       0.131090      3.244108     -0.339432
  B      -2.801713      1.674007     -0.428354
  B      -2.801307     -1.644466     -0.473977
  B       0.063791     -3.282369     -0.327610
  B       2.825225     -1.515024     -0.375489
12
Coordinates from ORCA-job input E -296.544169732053
  B       3.195759     -0.054496      0.285028
  B       1.575488      2.842836      0.360825
  B      -1.582156      2.915384      0.427995
  B      -3.326829      0.038128      0.365663
  B      -1.633812     -2.950382      0.416793
  B       1.691882     -2.803278      0.367502
  B       2.640312      1.520623     -0.406198
  B       0.111288      3.180868     -0.316980
  B      -2.744367      1.639996     -0.401624
  B      -2.746006     -1.612097     -0.441345
  B       0.057550     -3.216433     -0.301237
  B       2.760892     -1.501149     -0.356422
12
Coordinates from ORCA-job input E -296.650680919521
  B       3.132806     -0.039846      0.268669
  B       1.557065      2.779882      0.344624
  B      -1.545031      2.848728      0.392834
  B      -3.249556      0.034609      0.339307
  B      -1.600987     -2.882591      0.391149
  B       1.660007     -2.740795      0.336968
  B       2.587699      1.496353     -0.375979
  B       0.087496      3.116690     -0.296646
  B      -2.684591      1.602211     -0.376532
  B      -2.690009     -1.578118     -0.407904
  B       0.047663     -3.147190     -0.277763
  B       2.697438     -1.489933     -0.338729
12
Coordinates from ORCA-job input E -296.722162921653
  B       3.077805     -0.028081      0.250894
  B       1.539326      2.724899      0.329975
  B      -1.515061      2.777338      0.363640
  B      -3.168280      0.022738      0.308875
  B      -1.565794     -2.811174      0.363158
  B       1.615551     -2.685108      0.312941
  B       2.542549      1.475947     -0.351875
  B       0.066111      3.055848     -0.276908
  B      -2.626941      1.555091     -0.351388
  B      -2.629050     -1.536952     -0.374939
  B       0.023513     -3.077452     -0.250630
  B       2.640271     -1.473093     -0.323743
12
Coordinates from ORCA-job input E -296.781630751918
  B       3.026814     -0.017650      0.235288
  B       1.518798      2.671763      0.315563
  B      -1.491612      2.702879      0.333913
  B      -3.087730      0.009974      0.280642
  B      -1.542561     -2.734040      0.336380
  B       1.572567     -2.634098      0.288945
  B       2.500389      1.458542     -0.328387
  B       0.045686      2.994463     -0.259023
  B      -2.567194      1.509545     -0.326209
  B      -2.567952     -1.496963     -0.340069
  B       0.004168     -3.006267     -0.226900
  B       2.588628     -1.458147     -0.310144
12
Coordinates from ORCA-job input E -296.838052289413
  B       2.981959     -0.009122      0.218863
  B       1.499235      2.622105      0.301270
  B      -1.472952      2.630602      0.302732
  B      -3.014480      0.001240      0.254130
  B      -1.527864     -2.660114      0.310583
  B       1.532656     -2.588814      0.265071
  B       2.463447      1.443660     -0.303949
  B       0.025859      2.936070     -0.241423
  B      -2.510433      1.467856     -0.300429
  B      -2.511331     -1.462550     -0.305491
  B      -0.012770     -2.939398     -0.204192
  B       2.546674     -1.441535     -0.297165
12
Coordinates from ORCA-job input E -296.866037371661
  B       2.948875      0.014646      0.204992
  B       1.512883      2.582405      0.278862
  B      -1.473052      2.563457      0.275661
  B      -2.968517     -0.009585      0.233302
  B      -1.518566     -2.612343      0.283749
  B       1.490881     -2.552534      0.241449
  B       2.437407      1.451992     -0.274808
  B       0.049028      2.889872     -0.229395
  B      -2.480608      1.429366     -0.272675
  B      -2.478235     -1.446674     -0.275786
  B      -0.034696     -2.890593     -0.182928
  B       2.514601     -1.420009     -0.282423
12
Coordinates from ORCA-job input E -296.882936128022
  B       2.938995      0.010675      0.180449
  B       1.486757      2.597237      0.273763
  B      -1.449251      2.546391      0.245874
  B      -2.940632     -0.016667      0.207226
  B      -1.514860     -2.587384      0.265394
  B       1.473511     -2.535742      0.217888
  B       2.441569      1.421013     -0.257221
  B       0.024731      2.884522     -0.202737
  B      -2.463792      1.403097     -0.254486
  B      -2.462783     -1.434055     -0.248918
  B      -0.040077     -2.865904     -0.158368
  B       2.505832     -1.423184     -0.268863
12
Coordinates from ORCA-job input E -296.896673802809
  B       2.943740     -0.014756      0.167337
  B       1.510738      2.599917      0.255507
  B      -1.451646      2.533281      0.219568
  B      -2.948302     -0.020844      0.192128
  B      -1.523059     -2.595358      0.247784
  B       1.470500     -2.530906      0.195543
  B       2.429506      1.459689     -0.236382
  B       0.027216      2.884583     -0.187677
  B      -2.462771      1.410791     -0.234923
  B      -2.472930     -1.441363     -0.227579
  B      -0.042785     -2.864235     -0.139843
  B       2.519792     -1.420797     -0.251463
12
Coordinates from ORCA-job input E -296.908411432830
  B       2.961566      0.032378      0.156309
  B       1.533311      2.626410      0.240947
  B      -1.470963      2.524815      0.200659
  B      -2.977889     -0.020662      0.178782
  B      -1.539318     -2.624609      0.234176
  B       1.479563     -2.536410      0.174633
  B       2.457353      1.476900     -0.214071
  B       0.073881      2.901669     -0.175368
  B      -2.484184      1.412753     -0.218660
  B      -2.496939     -1.464117     -0.210269
  B      -0.060184     -2.881236     -0.123553
  B       2.523805     -1.447890     -0.243586
12
Coordinates from ORCA-job input E -296.918800707159
  B       2.979010      0.043463      0.134239
  B       1.566454      2.644763      0.235537
  B      -1.451044      2.545244      0.182368
  B      -3.015402     -0.020176      0.161282
  B      -1.567185     -2.651194      0.226933
  B       1.464574     -2.547595      0.158775
  B       2.487745      1.472617     -0.194523
  B       0.073582      2.920919     -0.157557
  B      -2.517920      1.396025     -0.210783
  B      -2.531056     -1.485852     -0.194106
  B      -0.044878     -2.895612     -0.104857
  B       2.556119     -1.422603     -0.237309
12
Coordinates from ORCA-job input E -296.926071322773
  B       2.987495      0.005118      0.117847
  B       1.559597      2.683115      0.230724
  B      -1.437511      2.556467      0.159209
  B      -3.026524     -0.051644      0.148754
  B      -1.554921     -2.679389      0.217046
  B       1.486110     -2.537824      0.142573
  B       2.492254      1.471274     -0.182820
  B       0.050413      2.940712     -0.139804
  B      -2.505984      1.419970     -0.202657
  B      -2.557035     -1.473711     -0.177381
  B      -0.069126     -2.902263     -0.090254
  B       2.575233     -1.431824     -0.223239
12
Coordinates from ORCA-job input E -296.934050834548
  B       3.001674     -0.021240      0.112603
  B       1.549777      2.719516      0.216870
  B      -1.449838      2.533312      0.140285
  B      -3.023615     -0.025024      0.141311
  B      -1.586141     -2.661543      0.197517
  B       1.488061     -2.540156      0.125478
  B       2.489792      1.496901     -0.171327
  B       0.055277      2.948849     -0.129116
  B      -2.507263      1.415591     -0.183430
  B      -2.536995     -1.508040     -0.158012
  B      -0.063743     -2.891967     -0.083390
  B       2.583015     -1.466199     -0.208790
12
Coordinates from ORCA-job input E -296.940742433973
  B       3.000496      0.044290      0.104193
  B       1.601261      2.702882      0.205531
  B      -1.443720      2.510419      0.124433
  B      -3.046314     -0.027169      0.126687
  B      -1.588869     -2.687408      0.193383
  B       1.463338     -2.541602      0.107418
  B       2.501459      1.524790     -0.146513
  B       0.081539      2.935780     -0.121485
  B      -2.522154      1.393907     -0.173739
  B      -2.569385     -1.492963     -0.143628
  B      -0.056111     -2.896290     -0.068755
  B       2.578459     -1.466637     -0.207526
12
Coordinates from ORCA-job input E -296.946407596765
  B       2.993484      0.045672      0.084989
  B       1.607844      2.716337      0.195022
  B      -1.430731      2.509327      0.109782
  B      -3.077438     -0.044988      0.118740
  B      -1.596150     -2.714601      0.180165
  B       1.465628     -2.515660      0.098317
  B       2.513464      1.492040     -0.132441
  B       0.120826      2.940894     -0.107672
  B      -2.529320      1.402889     -0.165164
  B      -2.591715     -1.519627     -0.129952
  B      -0.080483     -2.894880     -0.057367
  B       2.604589     -1.417403     -0.194420
12
Coordinates from ORCA-job input E -296.951137672350
  B       3.003233      0.008146      0.077522
  B       1.615860      2.766426      0.188180
  B      -1.407391      2.513828      0.093469
  B      -3.072400     -0.057768      0.109476
  B      -1.600593     -2.704433      0.165757
  B       1.477019     -2.507444      0.083071
  B       2.519036      1.510502     -0.122111
  B       0.079236      2.961072     -0.096257
  B      -2.533525      1.382208     -0.155201
  B      -2.585345     -1.525076     -0.112234
  B      -0.099788     -2.883567     -0.050967
  B       2.604657     -1.463894     -0.180707
12
Coordinates from ORCA-job input E -296.951362293677
  B       3.012987      0.003637      0.071532
  B       1.598523      2.793195      0.179390
  B      -1.422049      2.478429      0.077153
  B      -3.068465     -0.067627      0.100446
  B      -1.628322     -2.697007      0.159231
  B       1.455249     -2.528848      0.069121
  B       2.513487      1.527989     -0.111010
  B       0.077816      2.957135     -0.086593
  B      -2.505550      1.404502     -0.144403
  B      -2.603423     -1.501988     -0.095683
  B      -0.049413     -2.881749     -0.045048
  B       2.619160     -1.487668     -0.174136
12
Coordinates from ORCA-job input E -296.957967489928
  B       3.001271      0.035919      0.065676
  B       1.619050      2.760609      0.166615
  B      -1.410560      2.462040      0.074008
  B      -3.088874     -0.021006      0.095768
  B      -1.615572     -2.724331      0.149749
  B       1.458314     -2.511996      0.066498
  B       2.504963      1.534563     -0.101968
  B       0.113041      2.938681     -0.083340
  B      -2.528408      1.387264     -0.133482
  B      -2.607068     -1.516674     -0.094317
  B      -0.076936     -2.888052     -0.038916
  B       2.630778     -1.457017     -0.166291
12
Coordinates from ORCA-job input E -296.959579582147
  B       2.992665      0.044657      0.060273
  B       1.662154      2.772770      0.162081
  B      -1.394785      2.475979      0.067644
  B      -3.108506     -0.079307      0.095483
  B      -1.622057     -2.713725      0.139268
  B       1.457648     -2.479642      0.060342
  B       2.529640      1.518482     -0.094295
  B       0.120794      2.954340     -0.080518
  B      -2.541603      1.379521     -0.131915
  B      -2.611126     -1.551302     -0.083696
  B      -0.102401     -2.869419     -0.037873
  B       2.617576     -1.452353     -0.156791
12
Coordinates from ORCA-job input E -296.962429596531
  B       2.993084      0.014834      0.054658
  B       1.633237      2.801281      0.153310
  B      -1.388867      2.466185      0.062279
  B      -3.101573     -0.060364      0.087724
  B      -1.609180     -2.720636      0.132545
  B       1.462883     -2.488844      0.054659
  B       2.516325      1.521460     -0.092167
  B       0.112567      2.958927     -0.071317
  B      -2.541025      1.377199     -0.122716
  B      -2.620357     -1.521402     -0.078815
  B      -0.085173     -2.875161     -0.033332
  B       2.628078     -1.473478     -0.146828
12
Coordinates from ORCA-job input E -296.963926406349
  B       2.996250      0.031949      0.052450
  B       1.633012      2.791367      0.147180
  B      -1.392003      2.442029      0.056746
  B      -3.098114     -0.041842      0.086181
  B      -1.622551     -2.721091      0.126540
  B       1.450326     -2.496652      0.052384
  B       2.512183      1.535405     -0.088210
  B       0.106650      2.944521     -0.069300
  B      -2.524264      1.389388     -0.114918
  B      -2.621518     -1.526894     -0.074950
  B      -0.084731     -2.880967     -0.031789
  B       2.644759     -1.467213     -0.142314
12
Coordinates from ORCA-job input E -296.965502400278
  B       2.990652      0.036120      0.049544
  B       1.646919      2.790877      0.139260
  B      -1.382028      2.436690      0.054885
  B      -3.108069     -0.057501      0.083168
  B      -1.629510     -2.714107      0.119264
  B       1.453805     -2.480035      0.048903
  B       2.515082      1.537517     -0.085225
  B       0.127413      2.946896     -0.065789
  B      -2.538150      1.374148     -0.109524
  B      -2.632893     -1.532176     -0.070054
  B      -0.085767     -2.873452     -0.030993
  B       2.642545     -1.464977     -0.133439
12
Coordinates from ORCA-job input E -296.966557487079
  B       2.982865      0.029752      0.045710
  B       1.653402      2.804476      0.132996
  B      -1.381375      2.440789      0.052359
  B      -3.108863     -0.059626      0.081401
  B      -1.606823     -2.713405      0.110787
  B       1.453198     -2.475161      0.046946
  B       2.523035      1.525940     -0.084100
  B       0.117205      2.957244     -0.061991
  B      -2.545838      1.380092     -0.103120
  B      -2.632206     -1.537832     -0.067934
  B      -0.090117     -2.876034     -0.029277
  B       2.635516     -1.476237     -0.123778
12
Coordinates from ORCA-job input E -296.968696898953
  B       2.982194      0.034503      0.040826
  B       1.652059      2.809818      0.120399
  B      -1.367631      2.425494      0.047807
  B      -3.111898     -0.060814      0.076677
  B      -1.619968     -2.710941      0.098873
  B       1.452185     -2.473132      0.043137
  B       2.519575      1.537527     -0.081074
  B       0.123679      2.954531     -0.055270
  B      -2.543459      1.379138     -0.092102
  B      -2.647400     -1.539772     -0.061534
  B      -0.090078     -2.881000     -0.027248
  B       2.650740     -1.475353     -0.110491
12
Coordinates from ORCA-job input E -296.970095333616
  B       2.975875      0.027908      0.036302
  B       1.665946      2.804521      0.107397
  B      -1.377876      2.406468      0.046206
  B      -3.116532     -0.057623      0.072437
  B      -1.614971     -2.698102      0.085494
  B       1.448068     -2.461667      0.041258
  B       2.527893      1.537926     -0.081644
  B       0.130386      2.957594     -0.050067
  B      -2.554802      1.378361     -0.079091
  B      -2.661511     -1.543595     -0.058479
  B      -0.075581     -2.879252     -0.025860
  B       2.653107     -1.472542     -0.093953
12
Coordinates from ORCA-job input E -296.972529278680
  B       2.965401      0.039223      0.029646
  B       1.657310      2.815780      0.086130
  B      -1.349363      2.394523      0.044470
  B      -3.108630     -0.061241      0.065975
  B      -1.612452     -2.687723      0.063833
  B       1.441570     -2.463983      0.040041
  B       2.527888      1.555742     -0.084293
  B       0.133692      2.962325     -0.038937
  B      -2.549030      1.383848     -0.060406
  B      -2.685241     -1.557891     -0.053952
  B      -0.081656     -2.901422     -0.023230
  B       2.660510     -1.479181     -0.069277
12
Coordinates from ORCA-job input E -296.973568900222
  B       2.967943      0.044806      0.022663
  B       1.662160      2.820234      0.065147
  B      -1.344955      2.367822      0.044305
  B      -3.105417     -0.058246      0.058134
  B      -1.623551     -2.663804      0.041769
  B       1.461898     -2.453345      0.039698
  B       2.549849      1.554494     -0.088158
  B       0.120281      2.957290     -0.028460
  B      -2.555228      1.378987     -0.040842
  B      -2.726935     -1.553961     -0.049300
  B      -0.084810     -2.918842     -0.021166
  B       2.678765     -1.475435     -0.043789
12
Coordinates from ORCA-job input E -296.975207053158
  B       2.950605      0.042789      0.017244
  B       1.671218      2.830967      0.046854
  B      -1.328895      2.369535      0.045628
  B      -3.105889     -0.072993      0.050312
  B      -1.600225     -2.659791      0.023182
  B       1.434500     -2.453618      0.039206
  B       2.561455      1.569512     -0.092332
  B       0.136367      2.977462     -0.018316
  B      -2.560530      1.385264     -0.025618
  B      -2.739597     -1.585159     -0.045434
  B      -0.077007     -2.926628     -0.017316
  B       2.658000     -1.477342     -0.023411
12
Coordinates from ORCA-job input E -296.975982723146
  B       2.943308      0.051557      0.011508
  B       1.673555      2.832272      0.027799
  B      -1.319329      2.348197      0.047977
  B      -3.100305     -0.077904      0.040972
  B      -1.601467     -2.644856      0.005048
  B       1.429203     -2.449343      0.039509
  B       2.578200      1.583284     -0.096661
  B       0.141216      2.975163     -0.007473
  B      -2.552142      1.377479     -0.010528
  B      -2.760295     -1.593780     -0.041192
  B      -0.081316     -2.933176     -0.013644
  B       2.649372     -1.468893     -0.003315
12
Coordinates from ORCA-job input E -296.976775610594
  B       2.942624      0.064116      0.006683
  B       1.680654      2.836616      0.007478
  B      -1.311155      2.337719      0.053344
  B      -3.103074     -0.085983      0.030959
  B      -1.608633     -2.641369     -0.012518
  B       1.423595     -2.452025      0.040751
  B       2.601651      1.597871     -0.100192
  B       0.147160      2.967821      0.002596
  B      -2.538488      1.362491      0.003404
  B      -2.775656     -1.603658     -0.037355
  B      -0.087097     -2.930724     -0.009587
  B       2.628420     -1.452875      0.014437
12
Coordinates from ORCA-job input E -296.977826492445
  B       2.953760      0.084342      0.002366
  B       1.690383      2.838751     -0.016148
  B      -1.310280      2.339054      0.063063
  B      -3.114498     -0.097713      0.018981
  B      -1.624581     -2.650152     -0.031162
  B       1.420095     -2.467035      0.043167
  B       2.639267      1.620445     -0.103242
  B       0.157644      2.949610      0.012728
  B      -2.509143      1.332032      0.016858
  B      -2.787327     -1.612660     -0.033084
  B      -0.099771     -2.916279     -0.004562
  B       2.584451     -1.420393      0.031035
12
Coordinates from ORCA-job input E -296.978295119193
  B       2.969248      0.099582     -0.002044
  B       1.702254      2.840040     -0.034894
  B      -1.313955      2.351097      0.069046
  B      -3.133226     -0.104138      0.007903
  B      -1.637152     -2.663944     -0.046073
  B       1.423478     -2.481073      0.042847
  B       2.675705      1.637813     -0.101739
  B       0.162813      2.937414      0.020930
  B      -2.491237      1.311092      0.027088
  B      -2.801832     -1.622085     -0.026409
  B      -0.104322     -2.909964      0.000854
  B       2.548226     -1.395835      0.042492
12
Coordinates from ORCA-job input E -296.978370627747
  B       2.973275      0.103694     -0.003619
  B       1.704734      2.838014     -0.041020
  B      -1.315520      2.348568      0.068224
  B      -3.135427     -0.108843      0.003731
  B      -1.639440     -2.666185     -0.050295
  B       1.419098     -2.481480      0.039844
  B       2.689796      1.646312     -0.098079
  B       0.166005      2.932810      0.023843
  B      -2.484534      1.304571      0.029951
  B      -2.803325     -1.624123     -0.021067
  B      -0.109996     -2.907517      0.002721
  B       2.535334     -1.385820      0.045766
12
Coordinates from ORCA-job input E -296.978420848320
  B       2.975485      0.104952     -0.004656
  B       1.704302      2.833855     -0.042459
  B      -1.315917      2.347040      0.066076
  B      -3.136290     -0.107949      0.001973
  B      -1.639428     -2.666930     -0.051411
  B       1.416854     -2.476867      0.037126
  B       2.694289      1.646909     -0.094420
  B       0.165484      2.929975      0.024605
  B      -2.485838      1.305354      0.030785
  B      -2.802056     -1.623855     -0.017612
  B      -0.109591     -2.909048      0.004064
  B       2.532705     -1.383436      0.045928
12
Coordinates from ORCA-job input E -296.978542342252
  B       2.988334      0.105786     -0.006016
  B       1.701211      2.820892     -0.040989
  B      -1.321845      2.345317      0.057470
  B      -3.138112     -0.104333      0.000710
  B      -1.640071     -2.671300     -0.049915
  B       1.410302     -2.462915      0.028460
  B       2.704742      1.645146     -0.082225
  B       0.160898      2.923677      0.023169
  B      -2.497568      1.312099      0.030117
  B      -2.792560     -1.618584     -0.008861
  B      -0.110306     -2.915194      0.006330
  B       2.534975     -1.380589      0.041751
12
Coordinates from ORCA-job input E -296.978673069341
  B       3.009990      0.103449     -0.006579
  B       1.692681      2.799348     -0.033691
  B      -1.334993      2.351226      0.045045
  B      -3.141287     -0.097092      0.002058
  B      -1.639980     -2.681207     -0.043394
  B       1.403598     -2.447004      0.017334
  B       2.717043      1.640137     -0.065031
  B       0.152030      2.914377      0.017967
  B      -2.516150      1.325209      0.026207
  B      -2.773672     -1.607741      0.000818
  B      -0.110030     -2.922968      0.008235
  B       2.540770     -1.377736      0.031032
12
Coordinates from ORCA-job input E -296.978788399796
  B       3.039620      0.099306     -0.006126
  B       1.681199      2.771308     -0.021522
  B      -1.355562      2.365571      0.030397
  B      -3.144810     -0.088648      0.006146
  B      -1.639241     -2.693904     -0.031929
  B       1.397205     -2.433843      0.005231
  B       2.731907      1.633259     -0.045183
  B       0.139738      2.903624      0.009927
  B      -2.539668      1.341020      0.019149
  B      -2.748522     -1.593173      0.009856
  B      -0.109646     -2.930234      0.009016
  B       2.547779     -1.374286      0.015037
12
Coordinates from ORCA-job input E -296.978848437878
  B       3.055923      0.095090     -0.004909
  B       1.671779      2.752527     -0.012121
  B      -1.369529      2.379138      0.022992
  B      -3.144355     -0.083961      0.009738
  B      -1.636874     -2.698575     -0.022561
  B       1.396822     -2.431371     -0.000473
  B       2.739173      1.628013     -0.035544
  B       0.131186      2.898497      0.004519
  B      -2.553119      1.351677      0.013252
  B      -2.734602     -1.585056      0.012780
  B      -0.107967     -2.933334      0.008422
  B       2.551563     -1.372644      0.003904
12
Coordinates from ORCA-job input E -296.978896710722
  B       3.067297      0.092416     -0.003993
  B       1.664049      2.736873     -0.005136
  B      -1.381868      2.392293      0.019263
  B      -3.141512     -0.081130      0.012008
  B      -1.633399     -2.697361     -0.015019
  B       1.400064     -2.435823     -0.003339
  B       2.745523      1.624476     -0.030541
  B       0.124250      2.895981      0.001178
  B      -2.562372      1.359543      0.008473
  B      -2.729089     -1.581120      0.013448
  B      -0.105490     -2.934873      0.007745
  B       2.552545     -1.371277     -0.004088
12
Coordinates from ORCA-job input E -296.978931347211
  B       3.074039      0.089588     -0.003958
  B       1.656523      2.722453     -0.000379
  B      -1.391800      2.402997      0.017411
  B      -3.136718     -0.078531      0.012667
  B      -1.628037     -2.690876     -0.009511
  B       1.405809     -2.441875     -0.004823
  B       2.749727      1.620829     -0.027678
  B       0.117672      2.895270     -0.000488
  B      -2.570207      1.367522      0.005237
  B      -2.729360     -1.579860      0.013370
  B      -0.101322     -2.936133      0.007723
  B       2.553674     -1.371381     -0.009573
12
Coordinates from ORCA-job input E -296.978950211007
  B       3.078182      0.087822     -0.004847
  B       1.651303      2.712090      0.001984
  B      -1.398871      2.408701      0.016044
  B      -3.133236     -0.076312      0.012129
  B      -1.623459     -2.683686     -0.006566
  B       1.410524     -2.445535     -0.005944
  B       2.751634      1.617315     -0.025338
  B       0.113246      2.894829     -0.000879
  B      -2.576379      1.373289      0.003840
  B      -2.731205     -1.579331      0.013736
  B      -0.097407     -2.936198      0.008377
  B       2.555668     -1.372982     -0.012537
12
Coordinates from ORCA-job input E -296.978963745845
  B       3.080871      0.085390     -0.006372
  B       1.647075      2.704156      0.003218
  B      -1.404029      2.411337      0.014498
  B      -3.131147     -0.074242      0.010871
  B      -1.619651     -2.676820     -0.004885
  B       1.415241     -2.446623     -0.007205
  B       2.750952      1.613361     -0.022739
  B       0.109488      2.894231     -0.000686
  B      -2.581944      1.378641      0.003516
  B      -2.732770     -1.578475      0.014606
  B      -0.093960     -2.934853      0.009531
  B       2.559873     -1.376103     -0.014353
12
Coordinates from ORCA-job input E -296.978977151680
  B       3.084472      0.082468     -0.008299
  B       1.642815      2.696962      0.004292
  B      -1.410058      2.413520      0.012389
  B      -3.130864     -0.071796      0.009418
  B      -1.616404     -2.670205     -0.003377
  B       1.420607     -2.447069     -0.008819
  B       2.748559      1.608043     -0.019415
  B       0.105788      2.892730     -0.000475
  B      -2.588075      1.383762      0.003599
  B      -2.733228     -1.576373      0.015882
  B      -0.090474     -2.930981      0.010789
  B       2.566863     -1.381061     -0.015984
12
Coordinates from ORCA-job input E -296.978995584726
  B       3.089778      0.076649     -0.010896
  B       1.636481      2.687719      0.006167
  B      -1.418873      2.417407      0.009409
  B      -3.132083     -0.067989      0.007697
  B      -1.612214     -2.661521     -0.000940
  B       1.429703     -2.447827     -0.010855
  B       2.742010      1.599002     -0.014959
  B       0.099781      2.890056     -0.000506
  B      -2.597029      1.391196      0.003787
  B      -2.732207     -1.572071      0.017251
  B      -0.085544     -2.922405      0.012186
  B       2.580198     -1.390217     -0.018341
12
Coordinates from ORCA-job input E -296.979017549256
  B       3.098606      0.068100     -0.013795
  B       1.627261      2.675237      0.008994
  B      -1.431894      2.424854      0.005079
  B      -3.135997     -0.062519      0.006260
  B      -1.607181     -2.651265      0.002706
  B       1.442337     -2.450043     -0.013632
  B       2.732961      1.585871     -0.008806
  B       0.091048      2.885362     -0.001309
  B      -2.609278      1.400207      0.004004
  B      -2.729124     -1.564745      0.018959
  B      -0.078918     -2.908050      0.013184
  B       2.600178     -1.403010     -0.021645
12
Coordinates from ORCA-job input E -296.979033760243
  B       3.104526      0.060334     -0.015160
  B       1.619731      2.666444      0.011562
  B      -1.441608      2.432178      0.002814
  B      -3.140644     -0.058288      0.006132
  B      -1.603164     -2.643816      0.005897
  B       1.453402     -2.453228     -0.014545
  B       2.723187      1.574744     -0.005873
  B       0.084115      2.881868     -0.002456
  B      -2.617737      1.406305      0.003980
  B      -2.726033     -1.558278      0.018777
  B      -0.073573     -2.894049      0.012903
  B       2.617798     -1.414213     -0.024031
12
Coordinates from ORCA-job input E -296.979039965907
  B       3.107396      0.057459     -0.015135
  B       1.616917      2.663050      0.012241
  B      -1.445484      2.435893      0.002439
  B      -3.144369     -0.056992      0.006686
  B      -1.602161     -2.641984      0.006994
  B       1.457387     -2.454913     -0.014420
  B       2.721123      1.571221     -0.005325
  B       0.081613      2.880438     -0.003201
  B      -2.619977      1.407081      0.004004
  B      -2.724679     -1.555564      0.018204
  B      -0.072088     -2.887891      0.012173
  B       2.624322     -1.417798     -0.024660
12
Coordinates from ORCA-job input E -296.979043027384
  B       3.107772      0.056928     -0.014827
  B       1.616303      2.661818      0.011801
  B      -1.446139      2.436586      0.003251
  B      -3.146850     -0.057020      0.007122
  B      -1.601909     -2.641117      0.006818
  B       1.458609     -2.455309     -0.013533
  B       2.721276      1.570830     -0.006252
  B       0.081211      2.880177     -0.003401
  B      -2.619545      1.406207      0.004354
  B      -2.725045     -1.554847      0.017234
  B      -0.071859     -2.885572      0.011561
  B       2.626174     -1.418680     -0.024127
12
Coordinates from ORCA-job input E -296.979047531096
  B       3.108298      0.056666     -0.014407
  B       1.615554      2.659394      0.010498
  B      -1.446501      2.436207      0.004662
  B      -3.150453     -0.057290      0.007690
  B      -1.601418     -2.638678      0.005985
  B       1.459444     -2.454721     -0.012071
  B       2.723443      1.571152     -0.007738
  B       0.080694      2.880097     -0.003529
  B      -2.619099      1.404612      0.005253
  B      -2.726601     -1.554431      0.015783
  B      -0.071622     -2.883547      0.010701
  B       2.628260     -1.419462     -0.022825
12
Coordinates from ORCA-job input E -296.979051658954
  B       3.109935      0.055760     -0.014382
  B       1.614043      2.654703      0.008187
  B      -1.447776      2.434788      0.006314
  B      -3.156524     -0.056998      0.008025
  B      -1.600229     -2.633275      0.004423
  B       1.461925     -2.453207     -0.010194
  B       2.725361      1.570121     -0.009310
  B       0.079434      2.878858     -0.003468
  B      -2.619901      1.402958      0.007182
  B      -2.729375     -1.553067      0.014031
  B      -0.070306     -2.878851      0.009708
  B       2.633414     -1.421790     -0.020517
12
Coordinates from ORCA-job input E -296.979053978632
  B       3.111578      0.054965     -0.014007
  B       1.613112      2.650608      0.004150
  B      -1.447158      2.430676      0.008826
  B      -3.164417     -0.057096      0.008673
  B      -1.598757     -2.625858      0.001333
  B       1.463437     -2.450337     -0.007539
  B       2.727884      1.569529     -0.011958
  B       0.078744      2.877519     -0.003342
  B      -2.620868      1.399741      0.010380
  B      -2.734103     -1.552141      0.011741
  B      -0.069122     -2.873665      0.008043
  B       2.639668     -1.423942     -0.016299
12
Coordinates from ORCA-job input E -296.979056286288
  B       3.113583      0.054450     -0.014233
  B       1.612243      2.648840      0.004705
  B      -1.448328      2.430669      0.007780
  B      -3.164056     -0.056282      0.008640
  B      -1.598200     -2.625113      0.001926
  B       1.463812     -2.449501     -0.008359
  B       2.727675      1.568316     -0.010581
  B       0.077968      2.876332     -0.003602
  B      -2.623221      1.401423      0.010174
  B      -2.733272     -1.551353      0.012421
  B      -0.068553     -2.873747      0.008230
  B       2.640348     -1.424036     -0.017101
