12
Optimized coordinates extracted from calculations\B12\bilayer_3d\d_5.0\mult_3\output.out
B        3.11358338       0.05445038      -0.01423342
B        1.61224268       2.64884018       0.00470545
B       -1.44832788       2.43066926       0.00778022
B       -3.16405582      -0.05628189       0.00863992
B       -1.59820040      -2.62511324       0.00192623
B        1.46381221      -2.44950119      -0.00835943
B        2.72767533       1.56831644      -0.01058127
B        0.07796765       2.87633198      -0.00360186
B       -2.62322058       1.40142339       0.01017402
B       -2.73327213      -1.55135259       0.01242112
B       -0.06855273      -2.87374706       0.00822984
B        2.64034829      -1.42403564      -0.01710083
