12
B12 distorted_icosahedron_02; neutral charge=0; multiplicity=3; 3D initial geometry; nominal d=2.0 A; Low-symmetry distorted icosahedron variant 02.
B        0.00663965      -1.04489645      -1.67233409
B        0.05856046      -1.03586432       1.71808123
B       -0.01207950       0.90783917      -1.54251278
B        0.04042005       0.99952740       1.71354273
B       -1.06385424      -1.61595792       0.05833327
B       -1.10520213       1.58942288      -0.01541108
B        1.03935763      -1.66340438      -0.04876462
B        1.07040984       1.69449453      -0.04991619
B       -1.65916971       0.05446270      -1.01939179
B       -1.63706532       0.03462342       0.94950205
B        1.62556182       0.01207816      -1.05924227
B        1.63642146       0.06767481       0.96811353
