12
B12 icosahedron; neutral charge=0; multiplicity=3; 3D initial geometry; nominal d=2.0 A; Regular icosahedral B12 vertex shell.
B        0.00000000      -1.00000000      -1.61803399
B        0.00000000      -1.00000000       1.61803399
B        0.00000000       1.00000000      -1.61803399
B        0.00000000       1.00000000       1.61803399
B       -1.00000000      -1.61803399       0.00000000
B       -1.00000000       1.61803399       0.00000000
B        1.00000000      -1.61803399       0.00000000
B        1.00000000       1.61803399       0.00000000
B       -1.61803399       0.00000000      -1.00000000
B       -1.61803399       0.00000000       1.00000000
B        1.61803399       0.00000000      -1.00000000
B        1.61803399       0.00000000       1.00000000
