12
Coordinates from ORCA-job input E -295.014851702133
  B       4.500000     -0.000000      1.395000
  B       2.250000      3.897114      1.395000
  B      -2.250000      3.897114      1.395000
  B      -4.500000      0.000000      1.395000
  B      -2.250000     -3.897114      1.395000
  B       2.250000     -3.897114      1.395000
  B       3.663287      2.115000     -1.395000
  B       0.000000      4.230000     -1.395000
  B      -3.663287      2.115000     -1.395000
  B      -3.663287     -2.115000     -1.395000
  B      -0.000000     -4.230000     -1.395000
  B       3.663287     -2.115000     -1.395000
12
Coordinates from ORCA-job input E -295.025863716136
  B       4.484527     -0.009003      1.373966
  B       2.250137      3.878220      1.374930
  B      -2.234110      3.887548      1.375135
  B      -4.484506      0.009261      1.374515
  B      -2.250632     -3.878283      1.374483
  B       2.233505     -3.887286      1.374940
  B       3.638624      2.112238     -1.375598
  B      -0.009946      4.206519     -1.374046
  B      -3.648257      2.094885     -1.374728
  B      -3.638515     -2.112030     -1.374962
  B       0.010006     -4.206899     -1.374240
  B       3.649168     -2.095170     -1.374395
12
Coordinates from ORCA-job input E -295.037187676892
  B       4.469044     -0.018505      1.352961
  B       2.250713      3.859053      1.354893
  B      -2.217769      3.878186      1.355351
  B      -4.469012      0.019013      1.354090
  B      -2.251734     -3.859165      1.353981
  B       2.216482     -3.877656      1.354936
  B       3.614181      2.110219     -1.356312
  B      -0.020432      4.183562     -1.353122
  B      -3.633999      2.074581     -1.354487
  B      -3.613988     -2.109813     -1.354968
  B       0.020586     -4.184313     -1.353528
  B       3.635928     -2.075162     -1.353794
12
Coordinates from ORCA-job input E -295.054794670439
  B       4.444810     -0.033291      1.321822
  B       2.251542      3.829241      1.325147
  B      -2.192301      3.863545      1.326048
  B      -4.444769      0.034131      1.323832
  B      -2.253355     -3.829389      1.323531
  B       2.189930     -3.862647      1.325293
  B       3.577398      2.107760     -1.327770
  B      -0.036719      4.149382     -1.322122
  B      -3.613114      2.043778     -1.324446
  B      -3.577147     -2.107089     -1.325298
  B       0.037056     -4.150631     -1.322850
  B       3.616671     -2.044789     -1.323186
12
Coordinates from ORCA-job input E -295.082755463045
  B       4.406753     -0.056412      1.275716
  B       2.252778      3.782732      1.281052
  B      -2.152451      3.840585      1.282744
  B      -4.406706      0.057665      1.279087
  B      -2.255790     -3.782850      1.278346
  B       2.148328     -3.839219      1.281431
  B       3.522209      2.105222     -1.285635
  B      -0.062148      4.098799     -1.276275
  B      -3.582888      1.997077     -1.279926
  B      -3.522002     -2.104197     -1.281343
  B       0.062839     -4.100711     -1.277462
  B       3.589079     -1.998690     -1.277735
12
Coordinates from ORCA-job input E -295.114082911333
  B       4.368584     -0.081843      1.227432
  B       2.256047      3.734830      1.235029
  B      -2.110438      3.818435      1.237713
  B      -4.368554      0.083504      1.232417
  B      -2.260444     -3.734826      1.231013
  B       2.104201     -3.816612      1.235601
  B       3.466889      2.105605     -1.241971
  B      -0.090143      4.049334     -1.228341
  B      -3.555133      1.948812     -1.233429
  B      -3.466843     -2.104197     -1.235500
  B       0.091317     -4.052017     -1.229914
  B       3.564518     -1.951024     -1.230050
12
Coordinates from ORCA-job input E -295.148186308121
  B       4.332673     -0.108253      1.178280
  B       2.261392      3.688226      1.188356
  B      -2.068556      3.798460      1.192179
  B      -4.332635      0.110346      1.185106
  B      -2.267321     -3.688021      1.182797
  B       2.059938     -3.796196      1.188929
  B       3.414272      2.108947     -1.197977
  B      -0.119302      4.003430     -1.179602
  B      -3.531276      1.901413     -1.186264
  B      -3.414504     -2.107115     -1.189054
  B       0.121021     -4.007073     -1.181368
  B       3.544299     -1.904165     -1.181381
12
Coordinates from ORCA-job input E -295.185516820051
  B       4.299605     -0.134940      1.128077
  B       2.268561      3.643504      1.140741
  B      -2.027522      3.780684      1.145891
  B      -4.299381      0.137594      1.136893
  B      -2.276132     -3.643127      1.133434
  B       2.016242     -3.777900      1.140948
  B       3.364994      2.114812     -1.153465
  B      -0.149038      3.961226     -1.129703
  B      -3.511225      1.855552     -1.138226
  B      -3.365533     -2.112533     -1.141806
  B       0.151207     -3.966203     -1.131429
  B       3.528223     -1.858669     -1.131354
12
Coordinates from ORCA-job input E -295.226644974825
  B       4.269747     -0.161408      1.076722
  B       2.277075      3.601152      1.091983
  B      -1.987960      3.765058      1.098702
  B      -4.268978      0.164710      1.087522
  B      -2.286479     -3.600698      1.082798
  B       1.973882     -3.761445      1.091237
  B       3.319425      2.122753     -1.108254
  B      -0.178680      3.922788     -1.078420
  B      -3.494732      1.811809     -1.089195
  B      -3.320275     -2.119984     -1.093573
  B       0.181100     -3.929615     -1.079827
  B       3.515875     -1.815120     -1.079696
12
Coordinates from ORCA-job input E -295.272277266209
  B       4.243090     -0.187368      1.024199
  B       2.286331      3.561530      1.042062
  B      -1.950286      3.751422      1.050562
  B      -4.241315      0.191221      1.036862
  B      -2.297837     -3.560995      1.030888
  B       1.933599     -3.746453      1.039591
  B       3.277576      2.132278     -1.062102
  B      -0.207597      3.888111     -1.025799
  B      -3.481414      1.770584     -1.039159
  B      -3.278869     -2.128948     -1.044257
  B       0.210046     -3.897309     -1.026466
  B       3.506674     -1.774074     -1.026382
12
Coordinates from ORCA-job input E -295.323465080279
  B       4.219065     -0.212690      0.970450
  B       2.295822      3.524865      0.991216
  B      -1.914681      3.739501      1.001494
  B      -4.216052      0.216788      0.985038
  B      -2.309424     -3.523864      0.977691
  B       1.896024     -3.732761      0.986330
  B       3.238963      2.142731     -1.014623
  B      -0.235395      3.857097     -0.972252
  B      -3.470726      1.732055     -0.988177
  B      -3.241147     -2.138837     -0.993964
  B       0.237639     -3.868872     -0.971405
  B       3.499911     -1.736011     -0.971796
12
Coordinates from ORCA-job input E -295.381528436272
  B       4.196487     -0.237123      0.915546
  B       2.305185      3.490858      0.939870
  B      -1.881032      3.728672      0.951614
  B      -4.192372      0.241164      0.932311
  B      -2.320230     -3.488798      0.923499
  B       1.861208     -3.719905      0.932223
  B       3.202855      2.153135     -0.965611
  B      -0.261938      3.829129     -0.918271
  B      -3.461829      1.696053     -0.936420
  B      -3.206395     -2.148965     -0.943023
  B       0.263545     -3.843338     -0.915128
  B       3.494516     -1.700883     -0.916609
12
Coordinates from ORCA-job input E -295.445771079448
  B       4.172328     -0.259980      0.860409
  B       2.312547      3.457163      0.888533
  B      -1.848471      3.716247      0.901183
  B      -4.167545      0.263791      0.879205
  B      -2.328301     -3.453794      0.869268
  B       1.828163     -3.705324      0.878377
  B       3.167392      2.161385     -0.915725
  B      -0.286623      3.801173     -0.864155
  B      -3.451863      1.661588     -0.884379
  B      -3.172198     -2.157253     -0.891977
  B       0.287084     -3.817498     -0.858754
  B       3.487488     -1.667499     -0.861983
12
Coordinates from ORCA-job input E -295.514371767505
  B       4.143043     -0.281023      0.806400
  B       2.315685      3.420596      0.838099
  B      -1.815386      3.698842      0.851183
  B      -4.137962      0.284415      0.826808
  B      -2.331900     -3.415865      0.816262
  B       1.795017     -3.685974      0.825868
  B       3.129560      2.165509     -0.866219
  B      -0.309079      3.769318     -0.810910
  B      -3.437213      1.626960     -0.833106
  B      -3.135316     -2.161481     -0.841689
  B       0.308101     -3.787420     -0.803648
  B       3.475450     -1.633878     -0.809048
12
Coordinates from ORCA-job input E -295.585036915317
  B       4.106679     -0.300685      0.754884
  B       2.313803      3.378850      0.789238
  B      -1.780182      3.674682      0.802623
  B      -4.101252      0.303519      0.776300
  B      -2.330355     -3.372745      0.765429
  B       1.760169     -3.660167      0.775641
  B       3.087980      2.165488     -0.817977
  B      -0.329938      3.732371     -0.759712
  B      -3.417260      1.591066     -0.783538
  B      -3.094675     -2.161567     -0.793122
  B       0.327203     -3.751927     -0.751149
  B       3.457828     -1.598884     -0.758617
12
Coordinates from ORCA-job input E -295.653785508306
  B       4.062566     -0.318775      0.706851
  B       2.306473      3.330636      0.741961
  B      -1.742181      3.642845      0.755945
  B      -4.056205      0.321246      0.728339
  B      -2.323106     -3.323549      0.717234
  B       1.723356     -3.627008      0.728267
  B       3.042678      2.161815     -0.771106
  B      -0.349494      3.690738     -0.711262
  B      -3.392615      1.553997     -0.736056
  B      -3.050827     -2.157775     -0.746886
  B       0.344352     -3.711491     -0.702133
  B       3.435002     -1.562680     -0.711153
12
Coordinates from ORCA-job input E -295.720359784135
  B       4.013860     -0.331839      0.657753
  B       2.292704      3.280159      0.693205
  B      -1.705621      3.604328      0.708055
  B      -4.006018      0.334548      0.678877
  B      -2.309375     -3.272417      0.667862
  B       1.688650     -3.586717      0.679949
  B       2.996395      2.151943     -0.722861
  B      -0.364181      3.644802     -0.661109
  B      -3.361931      1.519090     -0.687230
  B      -3.006131     -2.147610     -0.699971
  B       0.355867     -3.667438     -0.651559
  B       3.405781     -1.528849     -0.662971
12
Coordinates from ORCA-job input E -295.777367216486
  B       3.958403     -0.337233      0.614660
  B       2.270250      3.223810      0.645356
  B      -1.668673      3.555873      0.661904
  B      -3.946481      0.343454      0.632106
  B      -2.286223     -3.217378      0.622128
  B       1.657565     -3.537004      0.636108
  B       2.945216      2.134324     -0.674913
  B      -0.373661      3.590845     -0.613955
  B      -3.321845      1.485109     -0.640497
  B      -2.958744     -2.127700     -0.656533
  B       0.358801     -3.616576     -0.606379
  B       3.365393     -1.497524     -0.619986
12
Coordinates from ORCA-job input E -295.823761608533
  B       3.894234     -0.329046      0.580481
  B       2.233040      3.164565      0.603673
  B      -1.637852      3.494074      0.622403
  B      -3.877829      0.340441      0.592703
  B      -2.247660     -3.162112      0.584830
  B       1.634367     -3.473922      0.599011
  B       2.890699      2.101020     -0.631684
  B      -0.369067      3.525956     -0.574969
  B      -3.264724      1.457350     -0.601221
  B      -2.908607     -2.089972     -0.620233
  B       0.346714     -3.555484     -0.568936
  B       3.306684     -1.472870     -0.586057
12
Coordinates from ORCA-job input E -295.866309732906
  B       3.827255     -0.310349      0.552897
  B       2.184624      3.112631      0.573703
  B      -1.618606      3.426639      0.592434
  B      -3.809456      0.324228      0.562272
  B      -2.198405     -3.113280      0.556969
  B       1.619345     -3.403829      0.568284
  B       2.841500      2.053492     -0.598697
  B      -0.349469      3.457953     -0.545543
  B      -3.196188      1.439631     -0.572315
  B      -2.860190     -2.039433     -0.591787
  B       0.322808     -3.490579     -0.537539
  B       3.236783     -1.457105     -0.560677
12
Coordinates from ORCA-job input E -295.909966205618
  B       3.761226     -0.288285      0.527511
  B       2.133650      3.064365      0.547834
  B      -1.603122      3.358873      0.565407
  B      -3.742483      0.304336      0.534605
  B      -2.146954     -3.068046      0.532280
  B       1.607977     -3.332769      0.539915
  B       2.795943      2.002985     -0.569180
  B      -0.325835      3.391272     -0.519030
  B      -3.126321      1.425765     -0.546759
  B      -2.814402     -1.986390     -0.566129
  B       0.294970     -3.426967     -0.508266
  B       3.165352     -1.445140     -0.538188
12
Coordinates from ORCA-job input E -295.955880969810
  B       3.695492     -0.266050      0.502669
  B       2.081898      3.018086      0.524453
  B      -1.589387      3.291615      0.540161
  B      -3.676795      0.282826      0.508488
  B      -2.094986     -3.024390      0.509142
  B       1.596803     -3.261175      0.512419
  B       2.752316      1.950999     -0.541988
  B      -0.300663      3.325487     -0.494038
  B      -3.056290      1.413465     -0.523132
  B      -2.769318     -1.933011     -0.541752
  B       0.266917     -3.363505     -0.479681
  B       3.094013     -1.434347     -0.516740
12
Coordinates from ORCA-job input E -296.005640578312
  B       3.631108     -0.243548      0.478409
  B       2.029796      2.973800      0.502759
  B      -1.577192      3.225558      0.516252
  B      -3.612648      0.260034      0.483373
  B      -2.043038     -2.982977      0.487322
  B       1.586168     -3.189160      0.485635
  B       2.710866      1.898318     -0.516400
  B      -0.274329      3.261308     -0.470097
  B      -2.987036      1.402734     -0.500845
  B      -2.725662     -1.879664     -0.518467
  B       0.238749     -3.301184     -0.451768
  B       3.023218     -1.425219     -0.496173
12
Coordinates from ORCA-job input E -296.068703989893
  B       3.573654     -0.221568      0.454552
  B       1.979400      2.932820      0.481752
  B      -1.567693      3.166694      0.495068
  B      -3.549726      0.234444      0.456486
  B      -1.994196     -2.951274      0.466799
  B       1.574669     -3.112123      0.456916
  B       2.674377      1.849775     -0.492344
  B      -0.245414      3.202883     -0.446576
  B      -2.923732      1.391980     -0.479361
  B      -2.684960     -1.825843     -0.495802
  B       0.212161     -3.244824     -0.422242
  B       2.951460     -1.422963     -0.475248
12
Coordinates from ORCA-job input E -296.140859653648
  B       3.516612     -0.202627      0.429534
  B       1.932742      2.895601      0.462922
  B      -1.561313      3.114089      0.473765
  B      -3.492013      0.206464      0.431414
  B      -1.942580     -2.922777      0.444337
  B       1.566495     -3.036981      0.428075
  B       2.644277      1.801550     -0.469117
  B      -0.218242      3.151144     -0.423988
  B      -2.864799      1.384417     -0.459691
  B      -2.645094     -1.777163     -0.471987
  B       0.180904     -3.190077     -0.392122
  B       2.883012     -1.423640     -0.453143
12
Coordinates from ORCA-job input E -296.219288195392
  B       3.459458     -0.184095      0.405233
  B       1.886007      2.858743      0.444627
  B      -1.555869      3.062653      0.452499
  B      -3.433594      0.178903      0.407505
  B      -1.889626     -2.894068      0.422271
  B       1.558225     -2.963433      0.400911
  B       2.615146      1.752869     -0.446311
  B      -0.191875      3.100532     -0.401985
  B      -2.806761      1.378354     -0.440330
  B      -2.605560     -1.730534     -0.448933
  B       0.148412     -3.136024     -0.363652
  B       2.816037     -1.423900     -0.431835
12
Coordinates from ORCA-job input E -296.304971765440
  B       3.403247     -0.165327      0.381413
  B       1.836902      2.821269      0.425883
  B      -1.550593      3.011636      0.430553
  B      -3.372314      0.153665      0.383962
  B      -1.837805     -2.867056      0.401701
  B       1.548125     -2.891673      0.374411
  B       2.584872      1.705550     -0.423274
  B      -0.164873      3.049732     -0.379398
  B      -2.748834      1.374509     -0.420802
  B      -2.566789     -1.685293     -0.426824
  B       0.117557     -3.084123     -0.336201
  B       2.750504     -1.422888     -0.411426
12
Coordinates from ORCA-job input E -296.397592367960
  B       3.347143     -0.146716      0.357630
  B       1.785489      2.783095      0.406712
  B      -1.543357      2.958941      0.408011
  B      -3.308270      0.129925      0.360369
  B      -1.788390     -2.839344      0.381956
  B       1.537064     -2.822468      0.348803
  B       2.552508      1.659329     -0.400074
  B      -0.138550      2.999060     -0.356404
  B      -2.690247      1.371518     -0.400981
  B      -2.528777     -1.640477     -0.405042
  B       0.088820     -3.032899     -0.309551
  B       2.686568     -1.419963     -0.391430
12
Coordinates from ORCA-job input E -296.493935501193
  B       3.289635     -0.127128      0.333926
  B       1.734142      2.743077      0.387281
  B      -1.534256      2.903483      0.386173
  B      -3.243622      0.105793      0.337084
  B      -1.740941     -2.807385      0.362231
  B       1.525805     -2.754828      0.325022
  B       2.519510      1.611574     -0.377062
  B      -0.113714      2.947936     -0.334211
  B      -2.630970      1.367600     -0.380782
  B      -2.491524     -1.595693     -0.383765
  B       0.061505     -2.980195     -0.284129
  B       2.624430     -1.414233     -0.371767
12
Coordinates from ORCA-job input E -296.588772246097
  B       3.229739     -0.105527      0.310564
  B       1.682883      2.702470      0.368160
  B      -1.523397      2.845151      0.364991
  B      -3.179085      0.080725      0.314847
  B      -1.694380     -2.772224      0.343096
  B       1.512515     -2.689494      0.303239
  B       2.486319      1.562008     -0.354532
  B      -0.089279      2.895913     -0.312869
  B      -2.569952      1.363949     -0.360864
  B      -2.454504     -1.551425     -0.363282
  B       0.034672     -2.926994     -0.260021
  B       2.564468     -1.404552     -0.353329
12
Coordinates from ORCA-job input E -296.682418755233
  B       3.181875     -0.072007      0.287490
  B       1.629940      2.678008      0.353061
  B      -1.526749      2.791279      0.346072
  B      -3.124954      0.047503      0.294028
  B      -1.653448     -2.753891      0.328964
  B       1.506288     -2.636722      0.283385
  B       2.473096      1.511668     -0.334433
  B      -0.055309      2.858322     -0.293565
  B      -2.514901      1.378392     -0.344052
  B      -2.434679     -1.507939     -0.345028
  B       0.001748     -2.892388     -0.236581
  B       2.517094     -1.402225     -0.339341
12
Coordinates from ORCA-job input E -296.760244085461
  B       3.125252     -0.036856      0.264065
  B       1.575826      2.640911      0.336124
  B      -1.522375      2.724824      0.324473
  B      -3.060245      0.020438      0.272509
  B      -1.615025     -2.724183      0.314249
  B       1.491262     -2.582160      0.264996
  B       2.450048      1.460775     -0.312880
  B      -0.026086      2.808422     -0.273276
  B      -2.452039      1.385435     -0.324534
  B      -2.407247     -1.461737     -0.325601
  B      -0.027610     -2.848891     -0.214508
  B       2.468239     -1.386978     -0.325618
12
Coordinates from ORCA-job input E -296.816349025135
  B       3.070598     -0.002409      0.239278
  B       1.524805      2.599816      0.317269
  B      -1.515372      2.655248      0.299122
  B      -2.993677     -0.000969      0.249743
  B      -1.586303     -2.690466      0.298044
  B       1.470083     -2.532604      0.246688
  B       2.425569      1.412387     -0.289591
  B      -0.003834      2.755072     -0.251008
  B      -2.388093      1.389963     -0.301646
  B      -2.378088     -1.419868     -0.303839
  B      -0.051537     -2.803642     -0.192702
  B       2.425849     -1.362527     -0.311360
12
Coordinates from ORCA-job input E -296.849047185908
  B       3.028735      0.023384      0.215055
  B       1.485336      2.559274      0.294161
  B      -1.505870      2.597132      0.270828
  B      -2.929357     -0.011899      0.223576
  B      -1.567862     -2.660713      0.277485
  B       1.449617     -2.487415      0.225751
  B       2.401655      1.375145     -0.264453
  B       0.003106      2.706313     -0.226046
  B      -2.332989      1.385991     -0.274192
  B      -2.347590     -1.389434     -0.278683
  B      -0.076956     -2.759393     -0.170148
  B       2.392175     -1.338384     -0.293332
12
Coordinates from ORCA-job input E -296.868510784508
  B       3.026524      0.021679      0.194807
  B       1.467970      2.557179      0.268248
  B      -1.509033      2.607208      0.251034
  B      -2.904682     -0.029175      0.197894
  B      -1.572624     -2.674497      0.258704
  B       1.430314     -2.471657      0.201337
  B       2.399340      1.361488     -0.243702
  B       0.015394      2.708866     -0.202347
  B      -2.318441      1.390755     -0.250769
  B      -2.341718     -1.395889     -0.254753
  B      -0.078845     -2.746612     -0.148481
  B       2.385800     -1.329344     -0.271971
12
Coordinates from ORCA-job input E -296.886319395009
  B       3.036823      0.027962      0.178784
  B       1.482721      2.532046      0.247360
  B      -1.503168      2.608189      0.224921
  B      -2.873344     -0.014053      0.174747
  B      -1.579413     -2.685460      0.236352
  B       1.424945     -2.446813      0.178562
  B       2.398782      1.365260     -0.220851
  B      -0.027511      2.695822     -0.181507
  B      -2.305276      1.380615     -0.225847
  B      -2.323753     -1.407764     -0.231601
  B      -0.112378     -2.730376     -0.128333
  B       2.381570     -1.325428     -0.252587
12
Coordinates from ORCA-job input E -296.904278422470
  B       3.078782      0.017634      0.163273
  B       1.488322      2.539578      0.224112
  B      -1.526056      2.647170      0.210126
  B      -2.877934     -0.005404      0.155598
  B      -1.626213     -2.727991      0.221058
  B       1.409388     -2.461423      0.160770
  B       2.415018      1.375961     -0.204628
  B      -0.021748      2.717777     -0.163646
  B      -2.322319      1.395706     -0.205070
  B      -2.341944     -1.444276     -0.213559
  B      -0.094687     -2.746587     -0.112008
  B       2.419393     -1.308145     -0.236025
12
Coordinates from ORCA-job input E -296.918829546301
  B       3.127909      0.023710      0.150379
  B       1.489051      2.574959      0.208386
  B      -1.547835      2.716944      0.198153
  B      -2.882617     -0.024000      0.134992
  B      -1.643968     -2.805096      0.210201
  B       1.417277     -2.473030      0.142104
  B       2.451998      1.383870     -0.190522
  B      -0.021932      2.770836     -0.146590
  B      -2.340571      1.418624     -0.190816
  B      -2.367435     -1.465725     -0.198821
  B      -0.118530     -2.785130     -0.093960
  B       2.436653     -1.335960     -0.223507
12
Coordinates from ORCA-job input E -296.931804964497
  B       3.158490      0.010914      0.136483
  B       1.489870      2.565082      0.188488
  B      -1.575705      2.750128      0.177279
  B      -2.855240     -0.032062      0.120892
  B      -1.662288     -2.837407      0.189185
  B       1.400124     -2.454191      0.123297
  B       2.462614      1.377558     -0.173474
  B      -0.043637      2.780959     -0.130681
  B      -2.327917      1.452243     -0.170151
  B      -2.353058     -1.505717     -0.177253
  B      -0.140500     -2.780578     -0.078725
  B       2.447247     -1.326928     -0.205341
12
Coordinates from ORCA-job input E -296.943190088501
  B       3.173497      0.014610      0.121605
  B       1.469221      2.531734      0.167866
  B      -1.574992      2.784552      0.161646
  B      -2.794361     -0.021962      0.098923
  B      -1.681970     -2.870025      0.173529
  B       1.363474     -2.420292      0.103917
  B       2.460223      1.354809     -0.155845
  B      -0.063825      2.777990     -0.112233
  B      -2.311148      1.430129     -0.151105
  B      -2.330897     -1.515861     -0.156395
  B      -0.149228     -2.763584     -0.063042
  B       2.440005     -1.302099     -0.188865
12
Coordinates from ORCA-job input E -296.954573353456
  B       3.215731      0.014598      0.112441
  B       1.450440      2.492702      0.145031
  B      -1.607926      2.814261      0.144768
  B      -2.731558     -0.025507      0.082370
  B      -1.705857     -2.922249      0.157819
  B       1.344067     -2.384831      0.085275
  B       2.454065      1.354466     -0.139615
  B      -0.081003      2.768344     -0.098615
  B      -2.284102      1.454406     -0.130206
  B      -2.317691     -1.517221     -0.137124
  B      -0.181933     -2.760284     -0.049425
  B       2.445767     -1.288685     -0.172717
12
Coordinates from ORCA-job input E -296.964808793828
  B       3.259581      0.024115      0.104919
  B       1.411217      2.467786      0.129839
  B      -1.643950      2.860551      0.129643
  B      -2.662566     -0.035468      0.073044
  B      -1.728104     -2.961873      0.141645
  B       1.318562     -2.339007      0.069498
  B       2.478995      1.312932     -0.126676
  B      -0.106749      2.774442     -0.088612
  B      -2.255322      1.494211     -0.113647
  B      -2.282061     -1.565527     -0.118386
  B      -0.226836     -2.750638     -0.040838
  B       2.437235     -1.281526     -0.160428
12
Coordinates from ORCA-job input E -296.977315716417
  B       3.288842      0.002586      0.094261
  B       1.371953      2.423969      0.113409
  B      -1.657351      2.923816      0.116020
  B      -2.573990     -0.057718      0.060318
  B      -1.737838     -3.012887      0.126903
  B       1.265813     -2.291205      0.056474
  B       2.470716      1.278489     -0.115987
  B      -0.153464      2.781387     -0.076417
  B      -2.210892      1.516552     -0.098092
  B      -2.242315     -1.582242     -0.101556
  B      -0.261256     -2.740560     -0.030527
  B       2.439783     -1.242185     -0.144808
12
Coordinates from ORCA-job input E -296.991002468564
  B       3.326036     -0.010165      0.089991
  B       1.336405      2.340106      0.092228
  B      -1.683869      2.972609      0.104039
  B      -2.461665     -0.044271      0.048303
  B      -1.769842     -3.054904      0.111660
  B       1.211975     -2.218316      0.041133
  B       2.439381      1.258091     -0.104551
  B      -0.184703      2.757266     -0.067945
  B      -2.167906      1.505811     -0.079812
  B      -2.192815     -1.593947     -0.081481
  B      -0.277167     -2.705233     -0.025417
  B       2.424171     -1.207046     -0.128148
12
Coordinates from ORCA-job input E -297.007642720615
  B       3.367660     -0.006474      0.084648
  B       1.283750      2.253236      0.075561
  B      -1.717503      3.002992      0.090112
  B      -2.346219     -0.033288      0.040156
  B      -1.791131     -3.088744      0.096182
  B       1.159649     -2.141432      0.028600
  B       2.433633      1.204237     -0.093046
  B      -0.232599      2.723466     -0.061983
  B      -2.114283      1.522993     -0.061480
  B      -2.135743     -1.602869     -0.063136
  B      -0.320835     -2.674138     -0.020845
  B       2.413620     -1.159980     -0.114767
12
Coordinates from ORCA-job input E -297.024409609286
  B       3.408850     -0.012958      0.078868
  B       1.220030      2.161193      0.057930
  B      -1.742644      3.040175      0.076066
  B      -2.226973     -0.039343      0.033517
  B      -1.808585     -3.108079      0.079276
  B       1.109425     -2.054868      0.017193
  B       2.412360      1.149257     -0.081797
  B      -0.280325      2.688481     -0.056001
  B      -2.052259      1.538099     -0.043075
  B      -2.072554     -1.614476     -0.044769
  B      -0.359263     -2.630980     -0.017768
  B       2.391938     -1.116500     -0.099441
12
Coordinates from ORCA-job input E -297.041106032011
  B       3.453390     -0.010727      0.071678
  B       1.149835      2.048249      0.042250
  B      -1.778700      3.062271      0.063240
  B      -2.119506     -0.028190      0.028447
  B      -1.814486     -3.112038      0.064012
  B       1.069070     -1.958308      0.008290
  B       2.403890      1.069451     -0.069769
  B      -0.325113      2.630348     -0.050933
  B      -2.000086      1.561328     -0.026628
  B      -2.008294     -1.617190     -0.028938
  B      -0.400899     -2.582778     -0.015614
  B       2.370897     -1.062417     -0.086036
12
Coordinates from ORCA-job input E -297.051543537782
  B       3.497726     -0.011801      0.060213
  B       1.084638      1.931198      0.027235
  B      -1.791143      3.079600      0.046386
  B      -2.011333     -0.021193      0.023361
  B      -1.835834     -3.126971      0.047786
  B       1.020342     -1.870367      0.000496
  B       2.374387      1.002442     -0.056441
  B      -0.389403      2.576836     -0.042645
  B      -1.933814      1.578703     -0.010418
  B      -1.951553     -1.606660     -0.011636
  B      -0.416494     -2.529070     -0.014338
  B       2.352482     -1.002717     -0.069998
12
Coordinates from ORCA-job input E -297.049875326714
  B       3.548172     -0.037838      0.040598
  B       1.021880      1.821472      0.014262
  B      -1.826231      3.126052      0.036661
  B      -1.947224     -0.019159      0.018046
  B      -1.818592     -3.100269      0.033607
  B       0.995149     -1.767457     -0.001486
  B       2.345926      0.923667     -0.044672
  B      -0.400784      2.515458     -0.031305
  B      -1.910046      1.560602     -0.002290
  B      -1.899840     -1.611265     -0.003816
  B      -0.466921     -2.477457     -0.008337
  B       2.358509     -0.933808     -0.051267
12
Coordinates from ORCA-job input E -297.054840984364
  B       3.588012     -0.011599      0.032169
  B       1.012416      1.764021      0.018380
  B      -1.833302      3.113591      0.037711
  B      -2.011574      0.006353      0.014986
  B      -1.817059     -3.101690      0.047391
  B       1.034079     -1.764350     -0.002061
  B       2.386821      0.875628     -0.033148
  B      -0.421755      2.478835     -0.018553
  B      -1.953080      1.608000     -0.017651
  B      -1.940706     -1.568958     -0.014021
  B      -0.418351     -2.464743     -0.004006
  B       2.374499     -0.935087     -0.061196
12
Coordinates from ORCA-job input E -297.055311411253
  B       3.573409      0.015034      0.036527
  B       1.037886      1.822391      0.024128
  B      -1.776300      3.094143      0.045947
  B      -2.044143      0.014590      0.014950
  B      -1.805887     -3.123529      0.056055
  B       1.004809     -1.826537      0.001350
  B       2.365629      0.946326     -0.038640
  B      -0.394620      2.509970     -0.017995
  B      -1.950569      1.604120     -0.028066
  B      -1.959282     -1.594786     -0.024370
  B      -0.420312     -2.506065     -0.001433
  B       2.369380     -0.955656     -0.068453
12
Coordinates from ORCA-job input E -297.055922184175
  B       3.554693     -0.011403      0.031951
  B       1.058551      1.797665      0.024695
  B      -1.775467      3.105763      0.050793
  B      -2.072289     -0.016377      0.012766
  B      -1.814459     -3.099646      0.058021
  B       1.044859     -1.779406      0.003368
  B       2.364447      0.921804     -0.040876
  B      -0.388719      2.506868     -0.015078
  B      -1.970162      1.578329     -0.033035
  B      -1.980381     -1.597688     -0.029353
  B      -0.410684     -2.472877      0.001683
  B       2.389609     -0.933031     -0.064935
12
Coordinates from ORCA-job input E -297.057587968659
  B       3.599802     -0.025250      0.023971
  B       1.014911      1.755420      0.021675
  B      -1.805622      3.108670      0.048595
  B      -2.066241      0.010613      0.010656
  B      -1.784726     -3.075389      0.057457
  B       1.041100     -1.760820      0.002618
  B       2.370098      0.878403     -0.034479
  B      -0.409978      2.473072     -0.008840
  B      -1.980490      1.596416     -0.034341
  B      -1.961027     -1.573726     -0.030241
  B      -0.405798     -2.452856      0.004596
  B       2.387972     -0.934554     -0.061666
12
Coordinates from ORCA-job input E -297.057652519120
  B       3.588345      0.015630      0.022498
  B       1.030457      1.753251      0.022078
  B      -1.777264      3.110682      0.046885
  B      -2.067445      0.004232      0.010080
  B      -1.797053     -3.105942      0.059726
  B       1.018131     -1.772131      0.002272
  B       2.369614      0.895871     -0.030577
  B      -0.392028      2.472792     -0.006082
  B      -1.966753      1.606195     -0.036685
  B      -1.969173     -1.592662     -0.030578
  B      -0.415833     -2.470918      0.005137
  B       2.379004     -0.917000     -0.064754
12
Coordinates from ORCA-job input E -297.057749187321
  B       3.590858     -0.007670      0.023599
  B       1.020927      1.768011      0.023248
  B      -1.776024      3.098753      0.048878
  B      -2.077855      0.015891      0.010158
  B      -1.798408     -3.099979      0.059982
  B       1.040932     -1.774381      0.002993
  B       2.362950      0.898478     -0.034079
  B      -0.403368      2.479987     -0.007166
  B      -1.973205      1.603010     -0.037154
  B      -1.976593     -1.583586     -0.032081
  B      -0.404188     -2.468648      0.005526
  B       2.393974     -0.929867     -0.063904
12
Coordinates from ORCA-job input E -297.058008434424
  B       3.599031     -0.015697      0.022638
  B       1.030470      1.756666      0.022942
  B      -1.793445      3.105625      0.049726
  B      -2.083215      0.007304      0.009667
  B      -1.786559     -3.079555      0.059837
  B       1.037076     -1.770067      0.003263
  B       2.369668      0.889312     -0.033939
  B      -0.405482      2.476738     -0.006533
  B      -1.985830      1.595500     -0.037795
  B      -1.973240     -1.576649     -0.032728
  B      -0.399840     -2.455669      0.006055
  B       2.391366     -0.933508     -0.063132
12
Coordinates from ORCA-job input E -297.058099715110
  B       3.592816     -0.003541      0.020281
  B       1.021866      1.748945      0.022517
  B      -1.782188      3.110899      0.048650
  B      -2.080719      0.008680      0.008978
  B      -1.787229     -3.090481      0.060690
  B       1.036355     -1.764224      0.002828
  B       2.365861      0.884988     -0.030918
  B      -0.397306      2.469993     -0.004208
  B      -1.978665      1.603134     -0.039106
  B      -1.972374     -1.584593     -0.032968
  B      -0.405966     -2.460658      0.006905
  B       2.387549     -0.923141     -0.063650
12
Coordinates from ORCA-job input E -297.058184395097
  B       3.598295     -0.003048      0.021068
  B       1.026122      1.753407      0.022701
  B      -1.784601      3.104228      0.047705
  B      -2.082540      0.010945      0.009363
  B      -1.792767     -3.089860      0.059817
  B       1.036163     -1.770112      0.002599
  B       2.369556      0.889797     -0.031317
  B      -0.401556      2.471932     -0.004930
  B      -1.980325      1.601471     -0.037860
  B      -1.976054     -1.581103     -0.031723
  B      -0.405685     -2.461774      0.006392
  B       2.393393     -0.925884     -0.063815
12
Coordinates from ORCA-job input E -297.058188651721
  B       3.591374     -0.010357      0.020111
  B       1.023302      1.753655      0.022655
  B      -1.783644      3.110687      0.048035
  B      -2.082339      0.012268      0.008956
  B      -1.782917     -3.090533      0.059654
  B       1.037027     -1.770952      0.002720
  B       2.362627      0.887424     -0.031395
  B      -0.403282      2.475750     -0.004338
  B      -1.980547      1.605207     -0.038302
  B      -1.971509     -1.581382     -0.032301
  B      -0.397925     -2.461054      0.007018
  B       2.387832     -0.930712     -0.062813
12
Coordinates from ORCA-job input E -297.058240490227
  B       3.598153     -0.006436      0.019150
  B       1.023119      1.749478      0.022590
  B      -1.781648      3.106663      0.047431
  B      -2.086725      0.008659      0.008642
  B      -1.787925     -3.084451      0.059811
  B       1.039781     -1.766756      0.002423
  B       2.364871      0.886631     -0.030077
  B      -0.401639      2.470362     -0.003265
  B      -1.982098      1.600204     -0.038823
  B      -1.976364     -1.580256     -0.032037
  B      -0.401901     -2.457056      0.007369
  B       2.392376     -0.927042     -0.063214
12
Coordinates from ORCA-job input E -297.058276179658
  B       3.598798     -0.004316      0.018963
  B       1.024558      1.750536      0.022500
  B      -1.785365      3.107158      0.046166
  B      -2.087449      0.011572      0.008761
  B      -1.789134     -3.086345      0.058876
  B       1.040012     -1.770077      0.002050
  B       2.368475      0.886459     -0.029434
  B      -0.401040      2.470145     -0.003350
  B      -1.983846      1.602006     -0.037780
  B      -1.976974     -1.579958     -0.030722
  B      -0.403298     -2.459933      0.007153
  B       2.395264     -0.927247     -0.063183
12
Coordinates from ORCA-job input E -297.058342405851
  B       3.598596     -0.002887      0.017628
  B       1.023815      1.749060      0.022192
  B      -1.783737      3.106662      0.044590
  B      -2.088346      0.011780      0.008487
  B      -1.788681     -3.085583      0.057738
  B       1.040433     -1.770455      0.001517
  B       2.367271      0.885842     -0.028103
  B      -0.401435      2.468775     -0.002477
  B      -1.983409      1.602639     -0.037096
  B      -1.977158     -1.579531     -0.029431
  B      -0.402823     -2.459141      0.007477
  B       2.395473     -0.927161     -0.062522
12
Coordinates from ORCA-job input E -297.058405794424
  B       3.597352     -0.004015      0.016295
  B       1.022916      1.749251      0.021893
  B      -1.781897      3.107423      0.043426
  B      -2.089704      0.011384      0.008164
  B      -1.786710     -3.084825      0.056560
  B       1.041494     -1.770678      0.001117
  B       2.364780      0.885566     -0.027236
  B      -0.401627      2.469024     -0.001756
  B      -1.983379      1.602868     -0.036490
  B      -1.976869     -1.579490     -0.028391
  B      -0.400794     -2.458002      0.007856
  B       2.394438     -0.928506     -0.061439
12
Coordinates from ORCA-job input E -297.058513597529
  B       3.595031     -0.007320      0.002431
  B       1.016822      1.731914      0.022576
  B      -1.781777      3.108976      0.038554
  B      -2.083310      0.016437      0.001684
  B      -1.781157     -3.085319      0.057821
  B       1.032719     -1.764158      0.000675
  B       2.367109      0.887770     -0.016933
  B      -0.400693      2.485057      0.011923
  B      -1.981219      1.601112     -0.042527
  B      -1.971159     -1.577374     -0.030617
  B      -0.398749     -2.476613      0.016560
  B       2.386382     -0.920482     -0.062148
12
Coordinates from ORCA-job input E -297.058739701708
  B       3.594396     -0.003379     -0.007435
  B       1.016542      1.741855      0.025552
  B      -1.779762      3.113184      0.034653
  B      -2.073154      0.010767     -0.001856
  B      -1.794082     -3.096952      0.054488
  B       1.027973     -1.770080      0.001872
  B       2.369338      0.902240     -0.011684
  B      -0.393760      2.490009      0.017654
  B      -1.976321      1.606298     -0.045104
  B      -1.970651     -1.583096     -0.028447
  B      -0.398316     -2.492276      0.021724
  B       2.377798     -0.918570     -0.061418
12
Coordinates from ORCA-job input E -297.058560633596
  B       3.574470     -0.009650     -0.011938
  B       1.023591      1.757891      0.027565
  B      -1.786088      3.091367      0.040633
  B      -2.050596      0.010365     -0.007813
  B      -1.798740     -3.080304      0.051936
  B       1.016175     -1.770459      0.006117
  B       2.372005      0.907999     -0.017673
  B      -0.387114      2.484544      0.016645
  B      -1.972659      1.602096     -0.046292
  B      -1.960311     -1.582540     -0.028894
  B      -0.392992     -2.496816      0.024545
  B       2.362260     -0.914493     -0.054830
12
Coordinates from ORCA-job input E -297.059049320914
  B       3.573517     -0.007451     -0.021200
  B       1.026318      1.772436      0.028906
  B      -1.784759      3.102729      0.030645
  B      -2.040433      0.007577     -0.005866
  B      -1.804679     -3.097196      0.042619
  B       1.014733     -1.779857      0.008310
  B       2.369343      0.911353     -0.014687
  B      -0.389602      2.504430      0.019458
  B      -1.961106      1.596558     -0.040299
  B      -1.954417     -1.584892     -0.024782
  B      -0.400000     -2.513996      0.026244
  B       2.351087     -0.911691     -0.049349
12
Coordinates from ORCA-job input E -297.058969227345
  B       3.574619     -0.011184     -0.031462
  B       1.027502      1.776689      0.030541
  B      -1.792271      3.117287      0.029462
  B      -2.026440      0.011102     -0.010510
  B      -1.804440     -3.102538      0.039275
  B       1.010746     -1.784125      0.012510
  B       2.354313      0.905365     -0.016438
  B      -0.391969      2.516183      0.024826
  B      -1.955756      1.609244     -0.039645
  B      -1.947649     -1.588657     -0.028359
  B      -0.396107     -2.545168      0.032406
  B       2.347451     -0.904197     -0.042607
12
Coordinates from ORCA-job input E -297.059248862467
  B       3.565784     -0.012878     -0.042213
  B       1.026184      1.785527      0.031491
  B      -1.790513      3.111744      0.020148
  B      -2.022501      0.007164     -0.008534
  B      -1.809316     -3.102271      0.031387
  B       1.009574     -1.795807      0.014133
  B       2.363046      0.915096     -0.009131
  B      -0.388613      2.527022      0.029541
  B      -1.951081      1.601275     -0.038845
  B      -1.940755     -1.589205     -0.021130
  B      -0.397092     -2.544797      0.031895
  B       2.335283     -0.902871     -0.038744
12
Coordinates from ORCA-job input E -297.059280897675
  B       3.550108     -0.011447     -0.049919
  B       1.035366      1.809481      0.034879
  B      -1.791214      3.104940      0.012483
  B      -2.002589      0.004735     -0.007469
  B      -1.816537     -3.105965      0.023148
  B       0.996616     -1.799954      0.015020
  B       2.359627      0.923499     -0.007687
  B      -0.383823      2.534294      0.030919
  B      -1.935305      1.595360     -0.035371
  B      -1.927086     -1.587599     -0.015732
  B      -0.398527     -2.569464      0.033332
  B       2.313364     -0.897879     -0.033602
12
Coordinates from ORCA-job input E -297.059265598494
  B       3.549589     -0.020804     -0.060786
  B       1.028112      1.808082      0.027564
  B      -1.798421      3.115549      0.005919
  B      -1.990077      0.006103     -0.008465
  B      -1.820302     -3.110700      0.014835
  B       0.996168     -1.811585      0.012942
  B       2.352625      0.915770     -0.000899
  B      -0.382893      2.565541      0.035373
  B      -1.934297      1.602276     -0.031072
  B      -1.911572     -1.596674     -0.005559
  B      -0.392937     -2.585614      0.030130
  B       2.304004     -0.887944     -0.019982
12
Coordinates from ORCA-job input E -297.059294246215
  B       3.537480     -0.018159     -0.057387
  B       1.021329      1.809734      0.026167
  B      -1.798226      3.118384      0.004496
  B      -1.984333      0.006113     -0.007844
  B      -1.820205     -3.101292      0.012854
  B       0.993819     -1.815625      0.010786
  B       2.351824      0.929602      0.000227
  B      -0.388031      2.552857      0.031127
  B      -1.921762      1.599859     -0.026432
  B      -1.905809     -1.584129     -0.001660
  B      -0.391927     -2.599409      0.028524
  B       2.305841     -0.897935     -0.020858
12
Coordinates from ORCA-job input E -297.059388061873
  B       3.530052     -0.015817     -0.053535
  B       1.034495      1.827864      0.026292
  B      -1.795250      3.107937      0.002558
  B      -1.961973      0.005239     -0.008213
  B      -1.824683     -3.112343      0.010876
  B       0.984945     -1.820933      0.010161
  B       2.349326      0.931803     -0.003272
  B      -0.377887      2.564686      0.030829
  B      -1.920330      1.598422     -0.024185
  B      -1.901363     -1.590051      0.003059
  B      -0.395680     -2.613720      0.025995
  B       2.278347     -0.883086     -0.020565
12
Coordinates from ORCA-job input E -297.059437353256
  B       3.543529     -0.019473     -0.049373
  B       1.033955      1.818448      0.022697
  B      -1.795402      3.110698      0.007576
  B      -1.989874      0.004603     -0.017105
  B      -1.819637     -3.110024      0.014331
  B       0.989578     -1.805806      0.010466
  B       2.353257      0.921964     -0.008360
  B      -0.381286      2.556739      0.030142
  B      -1.927467      1.597817     -0.018910
  B      -1.911649     -1.593547      0.001162
  B      -0.393190     -2.592344      0.026123
  B       2.298186     -0.889075     -0.018751
12
Coordinates from ORCA-job input E -297.059468164142
  B       3.544996     -0.017900     -0.042033
  B       1.029702      1.809314      0.018783
  B      -1.793499      3.112855      0.006914
  B      -1.987408      0.005959     -0.011140
  B      -1.818376     -3.106604      0.015713
  B       0.993242     -1.809142      0.006832
  B       2.355493      0.924316     -0.007329
  B      -0.384126      2.549649      0.024711
  B      -1.934570      1.600026     -0.015330
  B      -1.914296     -1.589707      0.002406
  B      -0.393454     -2.588463      0.020450
  B       2.302296     -0.890302     -0.019977
12
Coordinates from ORCA-job input E -297.059480758548
  B       3.547353     -0.017379     -0.036471
  B       1.030040      1.806207      0.012289
  B      -1.791950      3.112334      0.010609
  B      -1.993593      0.008171     -0.011662
  B      -1.816940     -3.104894      0.016900
  B       0.995599     -1.809230      0.005935
  B       2.357328      0.924454     -0.010206
  B      -0.384695      2.543929      0.021194
  B      -1.943227      1.602470     -0.010115
  B      -1.912135     -1.586243      0.000011
  B      -0.393334     -2.586850      0.018887
  B       2.305554     -0.892970     -0.017373
12
Coordinates from ORCA-job input E -297.059495555396
  B       3.552594     -0.015399     -0.026077
  B       1.031632      1.800928      0.003195
  B      -1.789375      3.112075      0.012472
  B      -1.998592      0.010696     -0.006772
  B      -1.816461     -3.102745      0.017250
  B       0.998162     -1.806125      0.001760
  B       2.362504      0.924927     -0.013161
  B      -0.387110      2.530795      0.014133
  B      -1.951703      1.603197     -0.001976
  B      -1.918229     -1.585310     -0.000123
  B      -0.393621     -2.579864      0.013283
  B       2.310199     -0.893174     -0.013983
12
Coordinates from ORCA-job input E -297.059508921707
  B       3.561437     -0.016044     -0.015176
  B       1.030674      1.787807     -0.007302
  B      -1.786805      3.113081      0.011945
  B      -2.011658      0.014101      0.000329
  B      -1.812353     -3.098011      0.015976
  B       1.003650     -1.800342     -0.003747
  B       2.367802      0.920952     -0.014503
  B      -0.391207      2.513993      0.005958
  B      -1.968967      1.606491      0.009265
  B      -1.921914     -1.581046     -0.000178
  B      -0.392464     -2.564916      0.007951
  B       2.321806     -0.896067     -0.010520
12
Coordinates from ORCA-job input E -297.059512871104
  B       3.571282     -0.014560     -0.005120
  B       1.030083      1.771625     -0.011704
  B      -1.782061      3.115275      0.010350
  B      -2.032224      0.018400      0.009672
  B      -1.809186     -3.093939      0.015406
  B       1.008573     -1.794593     -0.006456
  B       2.378406      0.920817     -0.018597
  B      -0.395500      2.493643     -0.001629
  B      -1.985836      1.611307      0.016537
  B      -1.925189     -1.577357     -0.000144
  B      -0.391048     -2.553378      0.000470
  B       2.332700     -0.897240     -0.008785
12
Coordinates from ORCA-job input E -297.059530758842
  B       3.574003     -0.016249     -0.003691
  B       1.031506      1.766729     -0.013968
  B      -1.779835      3.115272      0.007437
  B      -2.037182      0.021044      0.010830
  B      -1.807393     -3.090484      0.011482
  B       1.010191     -1.793492     -0.009712
  B       2.382605      0.922819     -0.015943
  B      -0.397508      2.481884     -0.004419
  B      -1.994936      1.613110      0.019870
  B      -1.925114     -1.574576      0.008231
  B      -0.390020     -2.550408     -0.003139
  B       2.333683     -0.895649     -0.006977
12
Coordinates from ORCA-job input E -297.059446025703
  B       3.575538     -0.029257     -0.010868
  B       1.040872      1.754026     -0.021174
  B      -1.774009      3.107174     -0.005235
  B      -2.032263      0.032026      0.048528
  B      -1.807401     -3.077556     -0.016520
  B       1.001937     -1.783487     -0.014994
  B       2.402073      0.936938      0.004399
  B      -0.403025      2.440887     -0.012222
  B      -2.030075      1.618790      0.002613
  B      -1.905099     -1.560679      0.047266
  B      -0.385711     -2.558394     -0.024368
  B       2.317163     -0.880469      0.002575
12
Coordinates from ORCA-job input E -297.059593931572
  B       3.582039     -0.024235      0.004974
  B       1.046883      1.743796     -0.026170
  B      -1.765510      3.114939     -0.006989
  B      -2.055329      0.035543      0.037201
  B      -1.810586     -3.080975     -0.011209
  B       1.000224     -1.789628     -0.018354
  B       2.424034      0.949104     -0.005768
  B      -0.405303      2.419975     -0.022694
  B      -2.041557      1.625502      0.030608
  B      -1.901235     -1.560578      0.043494
  B      -0.386366     -2.566558     -0.028765
  B       2.312705     -0.866884      0.003671
12
Coordinates from ORCA-job input E -297.059691800586
  B       3.580394     -0.026286      0.005822
  B       1.047952      1.741735     -0.024971
  B      -1.758959      3.112093     -0.006861
  B      -2.051089      0.034360      0.041211
  B      -1.812555     -3.080323     -0.010871
  B       0.992678     -1.779746     -0.014342
  B       2.427113      0.954380     -0.009663
  B      -0.405224      2.413154     -0.024719
  B      -2.042639      1.623329      0.033863
  B      -1.897546     -1.561021      0.033465
  B      -0.385765     -2.570498     -0.025904
  B       2.305641     -0.861177      0.002971
12
Coordinates from ORCA-job input E -297.060155728360
  B       3.506130     -0.084397      0.045839
  B       1.111328      1.738478     -0.039154
  B      -1.699690      3.064952     -0.050509
  B      -1.961509      0.076078      0.086927
  B      -1.849461     -3.022853     -0.020282
  B       0.913118     -1.784822     -0.019619
  B       2.533428      1.080510     -0.031133
  B      -0.439059      2.223677     -0.015405
  B      -2.126037      1.639575      0.086781
  B      -1.729334     -1.508270     -0.020825
  B      -0.372490     -2.704021     -0.003417
  B       2.113575     -0.718907     -0.019202
12
Coordinates from ORCA-job input E -297.021250126143
  B       3.641413     -0.042544      0.063752
  B       0.964706      1.194500     -0.039567
  B      -1.503980      3.023837     -0.164255
  B      -2.151911      0.246224      0.108501
  B      -1.734941     -2.848519     -0.070526
  B       0.920912     -1.522243     -0.016846
  B       2.608483      0.982192     -0.061521
  B      -0.518183      1.608104     -0.022466
  B      -2.553685      1.745540      0.236647
  B      -1.575639     -1.290387      0.013753
  B      -0.304413     -2.472676     -0.060144
  B       2.207237     -0.624028      0.012671
12
Coordinates from ORCA-job input E -297.055789347310
  B       3.588847     -0.050119      0.068961
  B       1.021178      1.253123     -0.050192
  B      -1.530184      3.004989     -0.117886
  B      -1.996039      0.251692      0.081717
  B      -1.811450     -2.866584     -0.055675
  B       0.851256     -1.576244     -0.014582
  B       2.620214      1.085666     -0.061092
  B      -0.522190      1.661981     -0.033409
  B      -2.480719      1.723882      0.212740
  B      -1.522805     -1.315133      0.009377
  B      -0.323596     -2.605459     -0.050259
  B       2.105487     -0.567794      0.010298
12
Coordinates from ORCA-job input E -297.073190147205
  B       3.523906     -0.049545      0.069440
  B       1.040504      1.262495     -0.054730
  B      -1.540581      2.939407     -0.093855
  B      -1.881846      0.273140      0.068649
  B      -1.822247     -2.836224     -0.050497
  B       0.814591     -1.597240     -0.013188
  B       2.581825      1.108857     -0.058711
  B      -0.537826      1.684440     -0.039868
  B      -2.425309      1.712728      0.199871
  B      -1.479600     -1.312965      0.007736
  B      -0.327400     -2.638035     -0.045305
  B       2.053984     -0.547059      0.010457
12
Coordinates from ORCA-job input E -297.078920348820
  B       3.442543     -0.075628      0.067589
  B       1.049546      1.317140     -0.055366
  B      -1.528047      2.912693     -0.091758
  B      -1.764612      0.270984      0.074700
  B      -1.831743     -2.839766     -0.046052
  B       0.749077     -1.620035     -0.015932
  B       2.586026      1.166105     -0.044239
  B      -0.527208      1.730392     -0.052745
  B      -2.360078      1.691207      0.195297
  B      -1.426740     -1.332558      0.010208
  B      -0.329487     -2.729869     -0.048765
  B       1.940723     -0.490665      0.007066
12
Coordinates from ORCA-job input E -297.079953647430
  B       3.349188     -0.113392      0.048733
  B       1.062631      1.315274     -0.050006
  B      -1.523187      2.907860     -0.149832
  B      -1.658314      0.282590      0.152815
  B      -1.818467     -2.803156     -0.086471
  B       0.680277     -1.627252     -0.019006
  B       2.595112      1.204511     -0.015411
  B      -0.531408      1.715997     -0.078844
  B      -2.332379      1.670231      0.208800
  B      -1.320075     -1.323910      0.037827
  B      -0.314129     -2.800478     -0.065774
  B       1.810752     -0.428276      0.017170
12
Coordinates from ORCA-job input E -297.079560246224
  B       3.282087     -0.132229      0.049302
  B       1.065130      1.417790     -0.075036
  B      -1.571476      2.964167     -0.138529
  B      -1.602367      0.230612      0.172219
  B      -1.811385     -2.860591     -0.064075
  B       0.639530     -1.663117     -0.027773
  B       2.582248      1.202163      0.031840
  B      -0.495010      1.877868     -0.157288
  B      -2.220165      1.651540      0.219871
  B      -1.317963     -1.379397      0.059540
  B      -0.303925     -2.873073     -0.104157
  B       1.753297     -0.435732      0.034086
12
Coordinates from ORCA-job input E -297.080880530634
  B       3.353103     -0.126631      0.093535
  B       1.071230      1.354862     -0.086968
  B      -1.576534      2.946053     -0.136238
  B      -1.688783      0.249210      0.176516
  B      -1.812797     -2.840830     -0.060822
  B       0.693062     -1.628673     -0.037588
  B       2.611692      1.191707     -0.007147
  B      -0.516655      1.810164     -0.151562
  B      -2.290799      1.665725      0.230849
  B      -1.377837     -1.361549      0.067483
  B      -0.306760     -2.793687     -0.121692
  B       1.841078     -0.466351      0.033634
12
Coordinates from ORCA-job input E -297.081388747896
  B       3.349068     -0.120772      0.089827
  B       1.063229      1.332938     -0.079785
  B      -1.562570      2.938234     -0.144091
  B      -1.675235      0.260620      0.144336
  B      -1.819498     -2.822880     -0.071766
  B       0.682927     -1.620409     -0.030980
  B       2.595154      1.182088     -0.022277
  B      -0.518725      1.773677     -0.114801
  B      -2.301221      1.672425      0.239787
  B      -1.328247     -1.342464      0.061355
  B      -0.306519     -2.813792     -0.101266
  B       1.821638     -0.439665      0.029660
12
Coordinates from ORCA-job input E -297.081743939572
  B       3.322524     -0.131180      0.128247
  B       1.063578      1.338922     -0.093763
  B      -1.568770      2.936168     -0.167488
  B      -1.644098      0.260609      0.181034
  B      -1.808240     -2.822642     -0.045709
  B       0.663936     -1.625182     -0.053442
  B       2.593649      1.189457     -0.022418
  B      -0.521583      1.791557     -0.136707
  B      -2.282135      1.667024      0.258312
  B      -1.313513     -1.347692      0.067106
  B      -0.303805     -2.816922     -0.148316
  B       1.798457     -0.440120      0.033144
12
Coordinates from ORCA-job input E -297.081912639734
  B       3.327132     -0.128725      0.124503
  B       1.059271      1.344478     -0.104361
  B      -1.577081      2.936910     -0.159995
  B      -1.646024      0.258486      0.182634
  B      -1.809846     -2.819277     -0.062163
  B       0.664053     -1.626601     -0.045125
  B       2.592969      1.185480     -0.029106
  B      -0.519458      1.802337     -0.144671
  B      -2.279199      1.663640      0.256993
  B      -1.317678     -1.348104      0.080229
  B      -0.303467     -2.816906     -0.150059
  B       1.809328     -0.451717      0.051120
12
Coordinates from ORCA-job input E -297.082129199719
  B       3.324664     -0.126044      0.159807
  B       1.058267      1.333752     -0.123778
  B      -1.577790      2.934369     -0.165040
  B      -1.646823      0.257695      0.191517
  B      -1.807054     -2.819772     -0.045695
  B       0.658852     -1.616834     -0.056626
  B       2.592866      1.180805     -0.044412
  B      -0.516726      1.802107     -0.155048
  B      -2.275075      1.664819      0.273366
  B      -1.314953     -1.348694      0.088882
  B      -0.302381     -2.814865     -0.185132
  B       1.806152     -0.447339      0.062158
12
Coordinates from ORCA-job input E -297.082323676333
  B       3.311017     -0.122148      0.215132
  B       1.056061      1.310945     -0.161411
  B      -1.580769      2.922536     -0.192122
  B      -1.629014      0.260295      0.236834
  B      -1.800011     -2.811834     -0.062998
  B       0.638331     -1.597867     -0.063332
  B       2.590140      1.174068     -0.081052
  B      -0.515897      1.793093     -0.175539
  B      -2.265445      1.666046      0.306723
  B      -1.296994     -1.348622      0.125196
  B      -0.299677     -2.806629     -0.241502
  B       1.792258     -0.439882      0.094072
12
Coordinates from ORCA-job input E -297.082283420775
  B       3.301381     -0.119532      0.243996
  B       1.055864      1.317184     -0.178657
  B      -1.590151      2.923590     -0.177210
  B      -1.624844      0.261508      0.225974
  B      -1.799303     -2.800295     -0.035786
  B       0.637712     -1.608648     -0.060236
  B       2.590827      1.168460     -0.102280
  B      -0.517744      1.797886     -0.177473
  B      -2.264796      1.663278      0.315734
  B      -1.274466     -1.341057      0.102300
  B      -0.303151     -2.815290     -0.260996
  B       1.788672     -0.447086      0.104634
12
Coordinates from ORCA-job input E -297.082441268403
  B       3.303148     -0.117202      0.259864
  B       1.061750      1.309609     -0.177693
  B      -1.584899      2.919376     -0.203545
  B      -1.642837      0.253719      0.240906
  B      -1.794051     -2.820750     -0.028088
  B       0.635765     -1.592316     -0.074293
  B       2.598015      1.173306     -0.100144
  B      -0.512164      1.798507     -0.174478
  B      -2.253944      1.669371      0.324839
  B      -1.302570     -1.350728      0.124292
  B      -0.303057     -2.798978     -0.286502
  B       1.794845     -0.443914      0.094842
12
Coordinates from ORCA-job input E -297.082553679134
  B       3.309680     -0.111134      0.253183
  B       1.057592      1.301080     -0.185348
  B      -1.581555      2.916324     -0.192889
  B      -1.631637      0.257207      0.248392
  B      -1.798980     -2.814504     -0.062063
  B       0.633116     -1.590848     -0.058217
  B       2.592508      1.177186     -0.096745
  B      -0.515701      1.788243     -0.199129
  B      -2.254625      1.667632      0.330437
  B      -1.306330     -1.348836      0.136603
  B      -0.303323     -2.797471     -0.272143
  B       1.799255     -0.444880      0.097918
12
Coordinates from ORCA-job input E -297.082744997074
  B       3.315953     -0.109031      0.243335
  B       1.055524      1.294349     -0.178356
  B      -1.583256      2.910162     -0.216495
  B      -1.632977      0.257881      0.268491
  B      -1.797855     -2.812012     -0.067258
  B       0.622561     -1.580917     -0.059099
  B       2.591044      1.179949     -0.086517
  B      -0.516592      1.781624     -0.200850
  B      -2.251593      1.669679      0.336413
  B      -1.307639     -1.347409      0.141949
  B      -0.301962     -2.792878     -0.282721
  B       1.806792     -0.451397      0.101108
12
Coordinates from ORCA-job input E -297.083073179119
  B       3.310015     -0.104725      0.275261
  B       1.053579      1.284015     -0.198928
  B      -1.588846      2.895116     -0.248095
  B      -1.625885      0.254542      0.299504
  B      -1.787255     -2.808307     -0.053582
  B       0.586849     -1.548520     -0.066426
  B       2.590182      1.181957     -0.067393
  B      -0.519017      1.766889     -0.221860
  B      -2.230891      1.672619      0.366934
  B      -1.302181     -1.346305      0.154905
  B      -0.300015     -2.782587     -0.324823
  B       1.813464     -0.464695      0.084503
12
Coordinates from ORCA-job input E -297.083134251937
  B       3.317776     -0.098235      0.266524
  B       1.050907      1.273988     -0.208075
  B      -1.583597      2.891312     -0.250037
  B      -1.631484      0.258935      0.301488
  B      -1.788756     -2.806399     -0.060394
  B       0.592032     -1.549376     -0.044415
  B       2.581982      1.180678     -0.064661
  B      -0.521347      1.759502     -0.228557
  B      -2.233768      1.678370      0.380575
  B      -1.306076     -1.342927      0.144235
  B      -0.298859     -2.779620     -0.330549
  B       1.821188     -0.466228      0.093867
12
Coordinates from ORCA-job input E -297.083147197160
  B       3.314558     -0.106243      0.283623
  B       1.053222      1.276130     -0.223183
  B      -1.584849      2.891022     -0.246348
  B      -1.631547      0.260746      0.286644
  B      -1.781409     -2.815239     -0.031394
  B       0.586110     -1.537958     -0.077952
  B       2.579669      1.177438     -0.040849
  B      -0.520897      1.762614     -0.242555
  B      -2.228096      1.678799      0.396824
  B      -1.305541     -1.344907      0.144954
  B      -0.297307     -2.779354     -0.332836
  B       1.816085     -0.463047      0.083071
12
Coordinates from ORCA-job input E -297.083191570825
  B       3.315335     -0.106826      0.273897
  B       1.050223      1.278627     -0.216781
  B      -1.586804      2.893659     -0.245433
  B      -1.625031      0.259973      0.288964
  B      -1.784878     -2.810101     -0.045960
  B       0.589379     -1.544338     -0.061416
  B       2.581422      1.176289     -0.048303
  B      -0.523068      1.764302     -0.233581
  B      -2.230612      1.676680      0.386442
  B      -1.304209     -1.345086      0.144739
  B      -0.297135     -2.781419     -0.325803
  B       1.815378     -0.461760      0.083235
12
Coordinates from ORCA-job input E -297.083194109282
  B       3.317997     -0.105527      0.267806
  B       1.046585      1.272118     -0.204630
  B      -1.586760      2.896146     -0.244898
  B      -1.626633      0.261729      0.284885
  B      -1.783824     -2.810295     -0.042056
  B       0.590191     -1.544761     -0.061164
  B       2.578790      1.176244     -0.046617
  B      -0.522941      1.766721     -0.232623
  B      -2.233413      1.678799      0.381903
  B      -1.303743     -1.344124      0.142709
  B      -0.296176     -2.781997     -0.324351
  B       1.819927     -0.465053      0.079035
12
Coordinates from ORCA-job input E -297.083206057172
  B       3.316461     -0.105499      0.270037
  B       1.048345      1.275719     -0.212406
  B      -1.589347      2.894761     -0.246435
  B      -1.623815      0.261667      0.289100
  B      -1.785421     -2.808695     -0.048062
  B       0.589866     -1.546765     -0.057357
  B       2.578489      1.176352     -0.046917
  B      -0.521911      1.768342     -0.233274
  B      -2.231626      1.676622      0.385091
  B      -1.303208     -1.344465      0.143855
  B      -0.296805     -2.782715     -0.324156
  B       1.818971     -0.465326      0.080523
12
Coordinates from ORCA-job input E -297.083213412221
  B       3.316313     -0.107780      0.267758
  B       1.048656      1.275062     -0.213389
  B      -1.591127      2.894513     -0.247677
  B      -1.621771      0.261654      0.287623
  B      -1.785237     -2.809178     -0.046391
  B       0.589603     -1.545743     -0.058789
  B       2.579114      1.176309     -0.042376
  B      -0.521778      1.770205     -0.232833
  B      -2.231025      1.675592      0.385786
  B      -1.302923     -1.344801      0.143843
  B      -0.296810     -2.782203     -0.323658
  B       1.816984     -0.463629      0.080103
12
Coordinates from ORCA-job input E -297.083218386436
  B       3.317445     -0.108765      0.264210
  B       1.047750      1.273172     -0.211163
  B      -1.593552      2.895458     -0.248094
  B      -1.619949      0.262363      0.285785
  B      -1.785591     -2.808800     -0.045449
  B       0.590331     -1.546164     -0.060197
  B       2.578454      1.176420     -0.037845
  B      -0.521533      1.773580     -0.231097
  B      -2.232300      1.675103      0.383927
  B      -1.302627     -1.344571      0.143056
  B      -0.296762     -2.782910     -0.320244
  B       1.818333     -0.464887      0.077112
12
Coordinates from ORCA-job input E -297.083219682120
  B       3.317419     -0.108487      0.261972
  B       1.047499      1.271112     -0.209038
  B      -1.594089      2.895618     -0.247832
  B      -1.619355      0.262691      0.284360
  B      -1.785947     -2.808504     -0.045026
  B       0.589872     -1.546792     -0.059943
  B       2.578485      1.177715     -0.036292
  B      -0.520708      1.775220     -0.230164
  B      -2.232541      1.674712      0.382705
  B      -1.301868     -1.344389      0.142212
  B      -0.296937     -2.784058     -0.318591
  B       1.818170     -0.464837      0.075639
12
Coordinates from ORCA-job input E -297.083220045349
  B       3.317906     -0.108211      0.261126
  B       1.047294      1.271203     -0.208420
  B      -1.593768      2.896173     -0.247020
  B      -1.619710      0.262772      0.283559
  B      -1.786252     -2.808372     -0.044946
  B       0.590592     -1.547343     -0.060534
  B       2.578295      1.177937     -0.035710
  B      -0.520936      1.775223     -0.229208
  B      -2.233355      1.674946      0.381582
  B      -1.302168     -1.344169      0.141439
  B      -0.296909     -2.784679     -0.316643
  B       1.819013     -0.465479      0.074776
12
Coordinates from ORCA-job input E -297.083220113666
  B       3.317826     -0.108153      0.260820
  B       1.047410      1.271555     -0.208311
  B      -1.593424      2.896316     -0.246563
  B      -1.619953      0.262704      0.283178
  B      -1.786353     -2.808398     -0.044951
  B       0.590647     -1.547675     -0.060422
  B       2.578403      1.178178     -0.035752
  B      -0.520886      1.775156     -0.228866
  B      -2.233480      1.674934      0.381194
  B      -1.302126     -1.344168      0.141072
  B      -0.296904     -2.785085     -0.316054
  B       1.818839     -0.465366      0.074658
