12
Coordinates from ORCA-job input E -297.083220113666
  B           3.31782591105819     -0.10815254922911      0.26081959932271
  B           1.04740963741530      1.27155520887570     -0.20831127588024
  B          -1.59342371396549      2.89631580500317     -0.24656344895858
  B          -1.61995321536723      0.26270417889423      0.28317783571996
  B          -1.78635262753904     -2.80839794570973     -0.04495095263784
  B           0.59064673225716     -1.54767473378599     -0.06042195933148
  B           2.57840340690775      1.17817805858408     -0.03575241987344
  B          -0.52088572101365      1.77515600351919     -0.22886641589567
  B          -2.23347951773862      1.67493434524332      0.38119365662149
  B          -1.30212556198294     -1.34416774064479      0.14107193992815
  B          -0.29690424497902     -2.78508483633578     -0.31605408902380
  B           1.81883891494760     -0.46536579441428      0.07465753000875
