12
Optimized coordinates extracted from calculations\B12\bilayer_3d\d_4.5\mult_1\output.out
B        3.31782591      -0.10815255       0.26081960
B        1.04740964       1.27155521      -0.20831128
B       -1.59342371       2.89631581      -0.24656345
B       -1.61995322       0.26270418       0.28317784
B       -1.78635263      -2.80839795      -0.04495095
B        0.59064673      -1.54767473      -0.06042196
B        2.57840341       1.17817806      -0.03575242
B       -0.52088572       1.77515600      -0.22886642
B       -2.23347952       1.67493435       0.38119366
B       -1.30212556      -1.34416774       0.14107194
B       -0.29690424      -2.78508484      -0.31605409
B        1.81883891      -0.46536579       0.07465753
