12
B12 random_3d_02; neutral charge=0; multiplicity=1; 3d initial geometry; nominal d=2.5 A; Random 3D B12 cloud with controlled minimum distance 02.
B        3.68866426      -2.86811843       3.15047860
B       -1.97851591       3.62579955       1.25969072
B       -0.90807782       0.05020380       2.68857133
B       -0.89750605       3.69862819      -0.47415537
B       -1.93202000      -2.82916205      -0.38585130
B       -2.39881262      -1.14364799      -1.08327734
B       -2.72011603       0.70345734      -1.40947127
B        4.23015716      -1.87723157      -0.40120560
B       -1.68995002       1.17086188      -2.89554520
B        1.01312255      -3.25504091       0.71419516
B        0.21442020       2.42026624      -1.25863036
B        3.37863428       0.30398396       0.09520062
