12
B12 distorted_icosahedron_02; neutral charge=0; multiplicity=5; 3D initial geometry; nominal d=2.5 A; Low-symmetry distorted icosahedron variant 02.
B        0.00829956      -1.30612056      -2.09041761
B        0.07320057      -1.29483040       2.14760154
B       -0.01509938       1.13479896      -1.92814098
B        0.05052506       1.24940924       2.14192842
B       -1.32981780      -2.01994739       0.07291659
B       -1.38150267       1.98677859      -0.01926384
B        1.29919704      -2.07925547      -0.06095577
B        1.33801229       2.11811817      -0.06239523
B       -2.07396214       0.06807838      -1.27423973
B       -2.04633165       0.04327927       1.18687756
B        2.03195228       0.01509770      -1.32405284
B        2.04552682       0.08459351       1.21014191
