12
Coordinates from ORCA-job input E -297.238882497052
  B           1.48122452243029      0.21925740174289      0.71320452824802
  B           1.17913263623664      1.77555910082707      0.42218155273814
  B          -0.18442004910632      0.86711764396078      0.86209374332765
  B          -1.48700904655906     -0.19025882957420      0.62816702928758
  B          -1.11081597441070     -1.75436300633786      0.48894855774832
  B           0.33538294559805     -0.95872106377641      0.99359341354620
  B           0.58673337937488      0.64930930636959     -0.87270126032097
  B          -0.12765291223167      2.12501338358509     -0.44038166376829
  B          -1.17537382482394      0.92799731698576     -0.71307913575937
  B          -0.77054439942341     -0.66891640393975     -0.98588168173155
  B           0.08368584972570     -2.07969319930433     -0.47032020695783
  B           1.18965687318953     -0.91230165053865     -0.62582487635789
