12
Coordinates from ORCA-job input E -296.965490193864
  B       2.000000     -0.000000      0.620000
  B       1.000000      1.732051      0.620000
  B      -1.000000      1.732051      0.620000
  B      -2.000000      0.000000      0.620000
  B      -1.000000     -1.732051      0.620000
  B       1.000000     -1.732051      0.620000
  B       1.628128      0.940000     -0.620000
  B       0.000000      1.880000     -0.620000
  B      -1.628128      0.940000     -0.620000
  B      -1.628128     -0.940000     -0.620000
  B      -0.000000     -1.880000     -0.620000
  B       1.628128     -0.940000     -0.620000
12
Coordinates from ORCA-job input E -297.007839652429
  B       1.966830      0.000251      0.628377
  B       0.983459      1.703196      0.627952
  B      -0.983382      1.702844      0.628093
  B      -1.966549     -0.000558      0.628096
  B      -0.983010     -1.703682      0.627844
  B       0.983728     -1.703031      0.628071
  B       1.594775      0.920792     -0.628423
  B       0.000376      1.842035     -0.628437
  B      -1.595015      0.921357     -0.627988
  B      -1.595434     -0.920582     -0.628136
  B      -0.000466     -1.841579     -0.628170
  B       1.594687     -0.921043     -0.627279
12
Coordinates from ORCA-job input E -297.046820065942
  B       1.933757      0.000851      0.637330
  B       0.966505      1.674018      0.636398
  B      -0.966341      1.673052      0.636657
  B      -1.932780     -0.000904      0.636698
  B      -0.966302     -1.675492      0.636226
  B       0.967744     -1.674358      0.636717
  B       1.561701      0.902173     -0.637418
  B       0.000722      1.804651     -0.637582
  B      -1.562277      0.903236     -0.636593
  B      -1.563466     -0.901182     -0.636777
  B      -0.001088     -1.803821     -0.636762
  B       1.561826     -0.902223     -0.634893
12
Coordinates from ORCA-job input E -297.096950309173
  B       1.883842      0.003205      0.650918
  B       0.938320      1.628150      0.649100
  B      -0.938360      1.625072      0.649387
  B      -1.879944      0.000282      0.649686
  B      -0.942577     -1.633118      0.649143
  B       0.944571     -1.632686      0.650061
  B       1.511967      0.875880     -0.651059
  B       0.000660      1.749228     -0.652025
  B      -1.513299      0.877229     -0.650178
  B      -1.516834     -0.871336     -0.649688
  B      -0.002276     -1.748307     -0.649176
  B       1.513929     -0.873599     -0.646169
12
Coordinates from ORCA-job input E -297.146683002198
  B       1.811497      0.012015      0.672321
  B       0.885803      1.554123      0.668583
  B      -0.888035      1.542415      0.668155
  B      -1.795345      0.009451      0.669905
  B      -0.913555     -1.572514      0.669888
  B       0.914835     -1.578352      0.671154
  B       1.438912      0.843333     -0.672222
  B      -0.001693      1.671024     -0.677455
  B      -1.442353      0.843544     -0.673825
  B      -1.453235     -0.824666     -0.668688
  B      -0.005166     -1.670297     -0.665735
  B       1.448335     -0.830077     -0.662082
12
Coordinates from ORCA-job input E -297.161549874005
  B       1.764087      0.025261      0.691874
  B       0.830840      1.490321      0.685123
  B      -0.837362      1.463011      0.683187
  B      -1.725414      0.027378      0.687777
  B      -0.901800     -1.533453      0.689540
  B       0.900096     -1.549775      0.690036
  B       1.394115      0.831114     -0.690648
  B      -0.005983      1.630169     -0.705684
  B      -1.401777      0.828617     -0.699402
  B      -1.419162     -0.791069     -0.683375
  B      -0.009067     -1.622377     -0.675447
  B       1.411430     -0.799197     -0.672981
12
Coordinates from ORCA-job input E -297.165615617799
  B       1.767445      0.031569      0.698284
  B       0.817232      1.467807      0.689106
  B      -0.821576      1.434094      0.687877
  B      -1.716889      0.034004      0.692323
  B      -0.908869     -1.533353      0.698181
  B       0.903165     -1.549708      0.699117
  B       1.397356      0.837896     -0.699156
  B      -0.006308      1.649357     -0.719010
  B      -1.410868      0.835931     -0.711980
  B      -1.423038     -0.790297     -0.687609
  B      -0.009743     -1.621172     -0.673324
  B       1.412091     -0.796127     -0.673809
12
Coordinates from ORCA-job input E -297.170903360605
  B       1.790193      0.045765      0.708347
  B       0.806009      1.415792      0.691924
  B      -0.799878      1.379756      0.695257
  B      -1.724644      0.042621      0.697869
  B      -0.931701     -1.543221      0.714789
  B       0.916903     -1.550845      0.718564
  B       1.399997      0.854778     -0.720298
  B      -0.004710      1.711051     -0.742959
  B      -1.427463      0.857435     -0.735898
  B      -1.428720     -0.792703     -0.693891
  B      -0.008201     -1.627812     -0.661895
  B       1.412215     -0.792615     -0.671811
12
Coordinates from ORCA-job input E -297.172343853145
  B       1.798906      0.052276      0.706977
  B       0.809741      1.390602      0.693011
  B      -0.796655      1.358976      0.700500
  B      -1.735204      0.041616      0.696112
  B      -0.943842     -1.546761      0.720923
  B       0.923009     -1.546235      0.728170
  B       1.386606      0.857853     -0.734693
  B      -0.004281      1.744718     -0.746447
  B      -1.418087      0.864295     -0.744901
  B      -1.418282     -0.790698     -0.697088
  B      -0.005959     -1.635472     -0.651438
  B       1.404048     -0.791171     -0.671125
12
Coordinates from ORCA-job input E -297.174366008589
  B       1.802427      0.057065      0.698678
  B       0.819084      1.364204      0.695528
  B      -0.798981      1.345170      0.709064
  B      -1.753134      0.036018      0.689693
  B      -0.959202     -1.552093      0.725887
  B       0.931318     -1.536878      0.737681
  B       1.353246      0.856688     -0.756107
  B      -0.003885      1.795014     -0.743052
  B      -1.385001      0.869366     -0.752927
  B      -1.391312     -0.785779     -0.699470
  B      -0.001416     -1.657563     -0.632939
  B       1.386855     -0.791212     -0.672036
12
Coordinates from ORCA-job input E -297.176436139601
  B       1.791903      0.054714      0.686604
  B       0.824121      1.350327      0.700771
  B      -0.805471      1.346513      0.717634
  B      -1.763205      0.031057      0.680893
  B      -0.969655     -1.556179      0.727673
  B       0.939366     -1.526281      0.740632
  B       1.308536      0.850896     -0.774433
  B      -0.003630      1.844390     -0.733979
  B      -1.334701      0.868559     -0.757187
  B      -1.355888     -0.779633     -0.698594
  B       0.003016     -1.691820     -0.613239
  B       1.365607     -0.792543     -0.676776
12
Coordinates from ORCA-job input E -297.178940383860
  B       1.763659      0.045367      0.673157
  B       0.824549      1.352684      0.710042
  B      -0.815098      1.362284      0.726044
  B      -1.756182      0.027567      0.671141
  B      -0.975151     -1.559329      0.726862
  B       0.945805     -1.515240      0.736631
  B       1.257000      0.842313     -0.787415
  B      -0.002027      1.893680     -0.721108
  B      -1.272489      0.861032     -0.758939
  B      -1.316089     -0.775995     -0.695650
  B       0.005800     -1.739548     -0.594089
  B       1.340224     -0.794813     -0.686675
12
Coordinates from ORCA-job input E -297.182234213504
  B       1.711963      0.032950      0.660496
  B       0.821986      1.370408      0.723935
  B      -0.824319      1.387275      0.734883
  B      -1.721953      0.025331      0.662236
  B      -0.977996     -1.563193      0.725156
  B       0.948283     -1.503589      0.728162
  B       1.198405      0.833031     -0.795862
  B       0.002243      1.948732     -0.705916
  B      -1.199696      0.847068     -0.760533
  B      -1.272109     -0.778336     -0.694063
  B       0.006424     -1.802080     -0.575873
  B       1.306768     -0.797598     -0.702621
12
Coordinates from ORCA-job input E -297.185638290164
  B       1.648895      0.024371      0.653198
  B       0.820972      1.405438      0.738766
  B      -0.830349      1.414807      0.742017
  B      -1.663054      0.024207      0.658375
  B      -0.980419     -1.570416      0.724079
  B       0.943478     -1.497988      0.719264
  B       1.151728      0.827364     -0.797270
  B       0.007452      1.999071     -0.692048
  B      -1.138659      0.830020     -0.762479
  B      -1.238253     -0.789482     -0.697905
  B       0.004323     -1.865228     -0.565069
  B       1.273886     -0.802165     -0.720928
12
Coordinates from ORCA-job input E -297.188170189800
  B       1.600315      0.028279      0.653431
  B       0.828235      1.441233      0.746974
  B      -0.829772      1.430171      0.746161
  B      -1.605090      0.022092      0.660464
  B      -0.987794     -1.583757      0.725959
  B       0.934127     -1.499610      0.718162
  B       1.131386      0.826748     -0.795066
  B       0.010738      2.035089     -0.682743
  B      -1.110491      0.818725     -0.766336
  B      -1.225981     -0.804415     -0.708970
  B       0.001478     -1.907347     -0.563606
  B       1.252850     -0.807207     -0.734430
12
Coordinates from ORCA-job input E -297.189809804933
  B       1.572094      0.037570      0.658308
  B       0.844376      1.469479      0.746372
  B      -0.823305      1.433110      0.747607
  B      -1.562150      0.013808      0.665260
  B      -1.000577     -1.603694      0.729124
  B       0.923598     -1.499441      0.725184
  B       1.129755      0.827118     -0.791885
  B       0.011182      2.056733     -0.678126
  B      -1.109271      0.815687     -0.770430
  B      -1.227055     -0.815417     -0.724232
  B       0.000514     -1.923904     -0.565889
  B       1.240839     -0.811049     -0.741292
12
Coordinates from ORCA-job input E -297.191084480547
  B       1.551572      0.045159      0.665377
  B       0.865658      1.494325      0.739494
  B      -0.810567      1.427128      0.747465
  B      -1.524809     -0.002365      0.671158
  B      -1.017220     -1.629294      0.731049
  B       0.908910     -1.489519      0.736282
  B       1.130959      0.826051     -0.788208
  B       0.009300      2.070657     -0.676471
  B      -1.116010      0.816123     -0.773059
  B      -1.227284     -0.819335     -0.741497
  B       0.001379     -1.925712     -0.566890
  B       1.228111     -0.813217     -0.744700
12
Coordinates from ORCA-job input E -297.192524358089
  B       1.533500      0.052429      0.677290
  B       0.895139      1.528467      0.725128
  B      -0.787114      1.412168      0.745584
  B      -1.481814     -0.029049      0.680125
  B      -1.037560     -1.664729      0.729976
  B       0.879945     -1.466444      0.750886
  B       1.138934      0.824161     -0.780509
  B       0.004353      2.073242     -0.677670
  B      -1.134898      0.817109     -0.772316
  B      -1.229660     -0.817264     -0.763022
  B       0.002651     -1.915096     -0.569758
  B       1.216524     -0.814995     -0.745714
12
Coordinates from ORCA-job input E -297.193957975026
  B       1.520682      0.059256      0.692098
  B       0.923913      1.558663      0.706272
  B      -0.755727      1.387553      0.743553
  B      -1.444790     -0.058613      0.690037
  B      -1.053223     -1.698337      0.725229
  B       0.838138     -1.430440      0.764428
  B       1.146981      0.820561     -0.772705
  B      -0.002840      2.065350     -0.681123
  B      -1.157239      0.817702     -0.767501
  B      -1.230356     -0.807954     -0.782270
  B       0.004045     -1.898134     -0.573480
  B       1.210418     -0.815607     -0.744537
12
Coordinates from ORCA-job input E -297.195787479708
  B       1.520940      0.064707      0.709775
  B       0.947073      1.585104      0.684203
  B      -0.721334      1.360706      0.741710
  B      -1.425101     -0.084406      0.700748
  B      -1.056326     -1.722731      0.715398
  B       0.785024     -1.390296      0.773047
  B       1.161323      0.815434     -0.764179
  B      -0.012717      2.040161     -0.686981
  B      -1.188862      0.818857     -0.756365
  B      -1.235897     -0.794113     -0.795102
  B       0.005149     -1.876070     -0.582787
  B       1.220728     -0.817355     -0.739468
12
Coordinates from ORCA-job input E -297.198636965513
  B       1.522769      0.070456      0.728102
  B       0.965152      1.602545      0.660366
  B      -0.682523      1.326576      0.744061
  B      -1.419718     -0.106306      0.713379
  B      -1.045674     -1.737112      0.699035
  B       0.714659     -1.331819      0.774602
  B       1.158512      0.802272     -0.762782
  B      -0.024617      2.018925     -0.689012
  B      -1.206038      0.819728     -0.741242
  B      -1.227816     -0.775380     -0.800900
  B       0.007085     -1.866470     -0.592196
  B       1.238209     -0.823415     -0.733414
12
Coordinates from ORCA-job input E -297.201867678592
  B       1.535755      0.077177      0.740777
  B       0.974931      1.617146      0.642783
  B      -0.656949      1.302926      0.751316
  B      -1.439465     -0.112051      0.725628
  B      -1.021099     -1.732068      0.677164
  B       0.649591     -1.279499      0.766827
  B       1.151225      0.782606     -0.765749
  B      -0.033511      1.998179     -0.683660
  B      -1.219410      0.822582     -0.724914
  B      -1.221820     -0.765383     -0.796758
  B       0.010526     -1.873401     -0.608129
  B       1.270227     -0.838213     -0.725285
12
Coordinates from ORCA-job input E -297.204749922970
  B       1.539214      0.090817      0.740530
  B       0.984709      1.626927      0.635919
  B      -0.643568      1.280314      0.766397
  B      -1.460293     -0.112810      0.732526
  B      -1.006820     -1.720744      0.657482
  B       0.605176     -1.225635      0.759786
  B       1.120600      0.756284     -0.777397
  B      -0.033979      2.008901     -0.665848
  B      -1.209302      0.826988     -0.717796
  B      -1.201549     -0.765530     -0.792124
  B       0.017070     -1.907156     -0.615842
  B       1.288742     -0.858355     -0.723634
12
Coordinates from ORCA-job input E -297.206925523179
  B       1.556354      0.110636      0.736534
  B       0.998722      1.642822      0.629732
  B      -0.634622      1.257428      0.782280
  B      -1.484802     -0.114685      0.735272
  B      -1.009985     -1.710396      0.641580
  B       0.578021     -1.184650      0.760641
  B       1.099831      0.732805     -0.786763
  B      -0.031254      2.012916     -0.645299
  B      -1.215176      0.835623     -0.714970
  B      -1.191606     -0.770218     -0.792807
  B       0.026641     -1.933458     -0.624592
  B       1.307876     -0.878824     -0.721609
12
Coordinates from ORCA-job input E -297.208409493405
  B       1.560738      0.129662      0.733350
  B       1.016008      1.662968      0.617388
  B      -0.614201      1.223220      0.796736
  B      -1.487526     -0.128661      0.735963
  B      -1.024666     -1.712188      0.628445
  B       0.548021     -1.137762      0.767291
  B       1.063383      0.709396     -0.794284
  B      -0.031150      2.023419     -0.623763
  B      -1.211570      0.846154     -0.716208
  B      -1.164891     -0.763491     -0.801961
  B       0.037340     -1.955997     -0.621644
  B       1.308514     -0.896720     -0.721313
12
Coordinates from ORCA-job input E -297.209647043676
  B       1.573288      0.143882      0.731430
  B       1.029738      1.681215      0.602064
  B      -0.590891      1.190818      0.808441
  B      -1.494312     -0.141737      0.735853
  B      -1.042217     -1.718792      0.616437
  B       0.523278     -1.101613      0.776934
  B       1.029317      0.692138     -0.800317
  B      -0.033666      2.022140     -0.605638
  B      -1.214431      0.861786     -0.719277
  B      -1.136726     -0.751947     -0.811385
  B       0.048232     -1.967522     -0.615290
  B       1.308391     -0.910369     -0.719251
12
Coordinates from ORCA-job input E -297.210847461063
  B       1.572295      0.153557      0.727791
  B       1.042155      1.700159      0.586672
  B      -0.564844      1.162035      0.819877
  B      -1.488602     -0.156447      0.734332
  B      -1.060511     -1.732348      0.604064
  B       0.500029     -1.071947      0.786899
  B       0.982257      0.680705     -0.805515
  B      -0.037152      2.027156     -0.587830
  B      -1.202041      0.875728     -0.726830
  B      -1.093143     -0.736472     -0.820242
  B       0.054888     -1.983768     -0.598273
  B       1.294669     -0.918356     -0.720946
12
Coordinates from ORCA-job input E -297.212260090981
  B       1.566366      0.160902      0.725182
  B       1.055110      1.716812      0.568851
  B      -0.532036      1.133143      0.831754
  B      -1.478493     -0.171289      0.734542
  B      -1.077016     -1.747499      0.587716
  B       0.471112     -1.047465      0.798442
  B       0.928679      0.674074     -0.811233
  B      -0.042889      2.031487     -0.571434
  B      -1.187220      0.888955     -0.738032
  B      -1.039039     -0.718784     -0.827317
  B       0.059179     -2.000338     -0.575467
  B       1.276249     -0.919998     -0.723005
12
Coordinates from ORCA-job input E -297.214183368460
  B       1.547782      0.166315      0.720802
  B       1.071145      1.732356      0.549713
  B      -0.491741      1.105096      0.846578
  B      -1.458642     -0.188232      0.735598
  B      -1.094287     -1.764259      0.566192
  B       0.438034     -1.029821      0.815443
  B       0.862578      0.673869     -0.818649
  B      -0.050373      2.046364     -0.554475
  B      -1.163247      0.899448     -0.756339
  B      -0.967735     -0.702536     -0.832791
  B       0.061442     -2.023650     -0.543801
  B       1.245044     -0.914949     -0.728269
12
Coordinates from ORCA-job input E -297.216696409441
  B       1.524205      0.169228      0.720535
  B       1.089100      1.740599      0.525700
  B      -0.438318      1.071624      0.860015
  B      -1.435662     -0.203894      0.742275
  B      -1.106998     -1.774497      0.538926
  B       0.392283     -1.015805      0.838787
  B       0.801351      0.676039     -0.829278
  B      -0.063342      2.061125     -0.539763
  B      -1.152658      0.909297     -0.776922
  B      -0.893364     -0.686253     -0.836646
  B       0.068429     -2.041750     -0.514417
  B       1.214973     -0.905713     -0.729212
12
Coordinates from ORCA-job input E -297.220004388244
  B       1.499278      0.171795      0.718734
  B       1.107839      1.734237      0.503485
  B      -0.381087      1.039091      0.869622
  B      -1.419202     -0.212325      0.749607
  B      -1.116385     -1.779324      0.509264
  B       0.354684     -1.014081      0.876577
  B       0.754605      0.683560     -0.846443
  B      -0.080456      2.081096     -0.528369
  B      -1.155178      0.918273     -0.797349
  B      -0.833820     -0.675666     -0.841690
  B       0.080164     -2.054783     -0.490982
  B       1.189559     -0.891871     -0.722456
12
Coordinates from ORCA-job input E -297.224492506681
  B       1.479197      0.186915      0.722298
  B       1.129703      1.740978      0.481833
  B      -0.318616      0.990157      0.865239
  B      -1.395737     -0.228852      0.752834
  B      -1.130022     -1.792237      0.483581
  B       0.318524     -0.991235      0.904300
  B       0.685818      0.681590     -0.839824
  B      -0.094370      2.097976     -0.514240
  B      -1.140746      0.929809     -0.820519
  B      -0.779132     -0.658862     -0.846100
  B       0.084779     -2.071752     -0.469973
  B       1.160602     -0.884488     -0.719428
12
Coordinates from ORCA-job input E -297.229043314739
  B       1.465988      0.218969      0.736726
  B       1.157985      1.730944      0.469291
  B      -0.240977      0.933547      0.834929
  B      -1.367634     -0.233536      0.749232
  B      -1.135414     -1.800475      0.462139
  B       0.319145     -0.988858      0.971192
  B       0.631765      0.682695     -0.820743
  B      -0.120302      2.120485     -0.509592
  B      -1.145558      0.942776     -0.841858
  B      -0.798866     -0.648792     -0.892947
  B       0.084247     -2.080492     -0.470900
  B       1.149623     -0.877265     -0.687467
12
Coordinates from ORCA-job input E -297.231671782434
  B       1.483745      0.218744      0.743574
  B       1.165301      1.769054      0.472704
  B      -0.251176      0.936656      0.824451
  B      -1.388457     -0.234292      0.742870
  B      -1.128143     -1.782900      0.471567
  B       0.333597     -0.981556      0.960463
  B       0.655384      0.671697     -0.809351
  B      -0.117657      2.116849     -0.500515
  B      -1.163807      0.939672     -0.825549
  B      -0.851868     -0.658963     -0.915254
  B       0.082581     -2.090766     -0.492077
  B       1.180498     -0.904195     -0.672884
12
Coordinates from ORCA-job input E -297.232555559901
  B       1.491948      0.197177      0.722577
  B       1.171111      1.772784      0.468825
  B      -0.258280      0.937272      0.834694
  B      -1.428627     -0.229026      0.734968
  B      -1.116227     -1.772315      0.461140
  B       0.357476     -0.996430      0.997086
  B       0.629297      0.678066     -0.825669
  B      -0.124932      2.130403     -0.484835
  B      -1.142991      0.940490     -0.837164
  B      -0.822200     -0.662865     -0.915639
  B       0.085607     -2.090029     -0.480495
  B       1.157815     -0.905527     -0.675489
12
Coordinates from ORCA-job input E -297.233641639979
  B       1.462075      0.194923      0.735436
  B       1.179199      1.781372      0.449018
  B      -0.218772      0.908678      0.820218
  B      -1.418596     -0.242035      0.750637
  B      -1.105591     -1.770664      0.457765
  B       0.308294     -0.972546      0.998807
  B       0.639333      0.670348     -0.845862
  B      -0.126036      2.120238     -0.468681
  B      -1.165858      0.945603     -0.826222
  B      -0.814727     -0.654226     -0.923523
  B       0.097525     -2.073902     -0.483247
  B       1.163154     -0.907789     -0.664347
12
Coordinates from ORCA-job input E -297.234692017142
  B       1.470680      0.213840      0.734248
  B       1.168720      1.759500      0.463698
  B      -0.231874      0.894485      0.813834
  B      -1.441255     -0.226254      0.750618
  B      -1.095962     -1.758809      0.474391
  B       0.325359     -0.958053      0.983498
  B       0.657951      0.662950     -0.851987
  B      -0.126656      2.110364     -0.466571
  B      -1.150209      0.937891     -0.813359
  B      -0.849131     -0.661402     -0.935091
  B       0.089267     -2.070875     -0.494422
  B       1.183109     -0.903636     -0.658856
12
Coordinates from ORCA-job input E -297.235309991504
  B       1.464245      0.217346      0.726879
  B       1.176424      1.774816      0.458136
  B      -0.227557      0.893503      0.817662
  B      -1.440362     -0.231669      0.745902
  B      -1.102648     -1.770549      0.471357
  B       0.326074     -0.958335      0.995484
  B       0.642640      0.667612     -0.853820
  B      -0.124280      2.121897     -0.456115
  B      -1.133412      0.936150     -0.815611
  B      -0.837046     -0.666173     -0.939345
  B       0.084315     -2.080566     -0.489704
  B       1.171605     -0.904032     -0.660823
12
Coordinates from ORCA-job input E -297.235678117200
  B       1.467702      0.212194      0.719306
  B       1.178042      1.773735      0.451009
  B      -0.224686      0.890107      0.820077
  B      -1.451442     -0.229811      0.742459
  B      -1.104510     -1.774820      0.470845
  B       0.323196     -0.963471      1.012036
  B       0.640347      0.670312     -0.868799
  B      -0.125036      2.123199     -0.448295
  B      -1.137892      0.939046     -0.813254
  B      -0.826082     -0.665536     -0.941970
  B       0.086857     -2.073020     -0.488409
  B       1.173505     -0.901933     -0.655005
12
Coordinates from ORCA-job input E -297.236059911466
  B       1.474968      0.213122      0.713313
  B       1.179675      1.775234      0.445170
  B      -0.219313      0.877243      0.817449
  B      -1.461954     -0.229908      0.737813
  B      -1.107376     -1.775796      0.475673
  B       0.313067     -0.952985      1.013544
  B       0.629298      0.666257     -0.875262
  B      -0.127300      2.123823     -0.437505
  B      -1.136197      0.940410     -0.807075
  B      -0.813601     -0.661587     -0.944356
  B       0.086456     -2.071498     -0.489483
  B       1.182277     -0.904315     -0.649279
12
Coordinates from ORCA-job input E -297.236592047256
  B       1.472718      0.218078      0.706810
  B       1.176975      1.777433      0.434882
  B      -0.212428      0.873798      0.823376
  B      -1.455754     -0.228770      0.722482
  B      -1.114168     -1.781312      0.486191
  B       0.305222     -0.953096      1.018603
  B       0.630350      0.662740     -0.887058
  B      -0.129232      2.127483     -0.430135
  B      -1.135968      0.934879     -0.787311
  B      -0.816338     -0.660177     -0.958933
  B       0.079843     -2.065224     -0.497740
  B       1.198779     -0.905832     -0.631168
12
Coordinates from ORCA-job input E -297.237115247336
  B       1.484903      0.215912      0.701391
  B       1.174848      1.773728      0.430115
  B      -0.209849      0.872970      0.828365
  B      -1.458429     -0.222699      0.705655
  B      -1.115030     -1.778840      0.490010
  B       0.304178     -0.951715      1.015625
  B       0.618382      0.656013     -0.881936
  B      -0.134662      2.128504     -0.431059
  B      -1.143251      0.934703     -0.775858
  B      -0.811281     -0.654398     -0.962179
  B       0.077214     -2.063786     -0.501658
  B       1.212978     -0.910393     -0.618471
12
Coordinates from ORCA-job input E -297.237731007549
  B       1.489886      0.213301      0.694718
  B       1.173962      1.771067      0.423752
  B      -0.203594      0.876462      0.840782
  B      -1.456692     -0.214857      0.677868
  B      -1.110790     -1.774446      0.491000
  B       0.305840     -0.949610      1.010321
  B       0.602938      0.648268     -0.872388
  B      -0.137136      2.129518     -0.433259
  B      -1.154167      0.932996     -0.758229
  B      -0.807384     -0.652445     -0.968350
  B       0.074256     -2.063570     -0.503690
  B       1.222880     -0.916685     -0.602527
12
Coordinates from ORCA-job input E -297.238092747594
  B       1.489007      0.211649      0.690016
  B       1.175903      1.770771      0.420565
  B      -0.198807      0.879616      0.853378
  B      -1.458216     -0.208822      0.655163
  B      -1.105226     -1.771058      0.488889
  B       0.309782     -0.945645      1.005624
  B       0.591572      0.644345     -0.865145
  B      -0.133801      2.128087     -0.434321
  B      -1.163686      0.932736     -0.745456
  B      -0.803404     -0.656256     -0.972192
  B       0.074890     -2.065161     -0.500707
  B       1.221985     -0.920261     -0.595814
12
Coordinates from ORCA-job input E -297.238268591715
  B       1.485806      0.211472      0.689939
  B       1.179499      1.771619      0.420574
  B      -0.195782      0.879689      0.859305
  B      -1.462266     -0.206755      0.646461
  B      -1.102003     -1.770085      0.486312
  B       0.312163     -0.942366      1.004091
  B       0.587095      0.644443     -0.863711
  B      -0.129124      2.126229     -0.434487
  B      -1.168438      0.933927     -0.740947
  B      -0.800525     -0.661169     -0.973597
  B       0.078277     -2.067392     -0.495814
  B       1.215297     -0.919611     -0.598126
12
Coordinates from ORCA-job input E -297.238413927533
  B       1.483107      0.212149      0.692100
  B       1.182777      1.773157      0.420753
  B      -0.192786      0.878196      0.864220
  B      -1.467918     -0.204687      0.640516
  B      -1.100684     -1.769543      0.485041
  B       0.313451     -0.940329      1.003140
  B       0.584665      0.644935     -0.865484
  B      -0.124962      2.124260     -0.435030
  B      -1.170645      0.934455     -0.735857
  B      -0.797641     -0.665770     -0.975600
  B       0.082415     -2.069863     -0.491028
  B       1.208222     -0.916959     -0.602772
12
Coordinates from ORCA-job input E -297.238562458262
  B       1.481970      0.213164      0.697660
  B       1.185289      1.774444      0.421670
  B      -0.189399      0.875803      0.867988
  B      -1.474609     -0.201951      0.635555
  B      -1.100693     -1.768127      0.484866
  B       0.315016     -0.940313      1.001668
  B       0.583749      0.645745     -0.868366
  B      -0.122082      2.122900     -0.437764
  B      -1.171895      0.934053     -0.729258
  B      -0.795248     -0.669800     -0.978427
  B       0.087221     -2.072964     -0.485832
  B       1.200680     -0.912954     -0.609761
12
Coordinates from ORCA-job input E -297.238674063555
  B       1.483062      0.214015      0.704005
  B       1.185047      1.774761      0.422163
  B      -0.186402      0.872685      0.869457
  B      -1.479657     -0.199094      0.631930
  B      -1.102258     -1.765900      0.485685
  B       0.316478     -0.942347      1.000678
  B       0.583361      0.646264     -0.871602
  B      -0.121839      2.123226     -0.441023
  B      -1.171577      0.932656     -0.722531
  B      -0.792378     -0.671073     -0.981090
  B       0.090328     -2.075439     -0.481619
  B       1.195833     -0.909753     -0.616054
12
Coordinates from ORCA-job input E -297.238739493244
  B       1.484972      0.214527      0.709346
  B       1.182639      1.774058      0.422987
  B      -0.185486      0.870804      0.867617
  B      -1.481419     -0.197455      0.631614
  B      -1.104073     -1.763614      0.486322
  B       0.318613     -0.945527      1.000060
  B       0.584503      0.647122     -0.873271
  B      -0.123124      2.124839     -0.443759
  B      -1.170827      0.931315     -0.719127
  B      -0.790672     -0.670279     -0.982010
  B       0.090881     -2.076991     -0.478992
  B       1.193992     -0.908798     -0.620788
12
Coordinates from ORCA-job input E -297.238778519161
  B       1.486114      0.215156      0.712048
  B       1.179637      1.773309      0.422606
  B      -0.184662      0.868824      0.865496
  B      -1.481532     -0.195952      0.630677
  B      -1.105686     -1.761470      0.486452
  B       0.320699     -0.947938      1.000363
  B       0.584474      0.647400     -0.874203
  B      -0.124539      2.126284     -0.444314
  B      -1.170508      0.930130     -0.716435
  B      -0.787890     -0.668671     -0.982494
  B       0.089660     -2.077566     -0.477236
  B       1.194231     -0.909507     -0.622960
12
Coordinates from ORCA-job input E -297.238805442576
  B       1.486152      0.215630      0.713930
  B       1.177380      1.772751      0.422947
  B      -0.185279      0.868473      0.862724
  B      -1.481224     -0.195071      0.631489
  B      -1.106663     -1.759672      0.485766
  B       0.323725     -0.950402      1.000281
  B       0.585618      0.648168     -0.873851
  B      -0.125155      2.126984     -0.444485
  B      -1.171168      0.929673     -0.716175
  B      -0.785750     -0.667832     -0.981534
  B       0.088177     -2.077976     -0.475721
  B       1.194186     -0.910727     -0.625370
12
Coordinates from ORCA-job input E -297.238826160632
  B       1.484961      0.216498      0.714061
  B       1.176295      1.772940      0.422192
  B      -0.184814      0.867459      0.861547
  B      -1.481717     -0.193420      0.629800
  B      -1.107355     -1.757835      0.485207
  B       0.326558     -0.951809      1.000397
  B       0.585111      0.648042     -0.873601
  B      -0.125309      2.126700     -0.443040
  B      -1.172514      0.929146     -0.714442
  B      -0.782199     -0.667714     -0.981613
  B       0.086582     -2.077964     -0.474376
  B       1.194403     -0.912044     -0.626131
12
Coordinates from ORCA-job input E -297.238842131718
  B       1.483292      0.217141      0.714217
  B       1.176699      1.773395      0.422510
  B      -0.185415      0.867801      0.860393
  B      -1.482975     -0.192429      0.629889
  B      -1.107723     -1.756570      0.484807
  B       0.329635     -0.953514      0.999653
  B       0.585827      0.648405     -0.872855
  B      -0.125056      2.125975     -0.442172
  B      -1.173887      0.929098     -0.714565
  B      -0.779625     -0.668570     -0.981047
  B       0.085809     -2.078092     -0.473236
  B       1.193419     -0.912639     -0.627592
12
Coordinates from ORCA-job input E -297.238856169836
  B       1.481469      0.218007      0.713712
  B       1.177920      1.774354      0.422225
  B      -0.185134      0.867689      0.860626
  B      -1.484960     -0.191030      0.628350
  B      -1.108264     -1.755399      0.485349
  B       0.332123     -0.954948      0.998452
  B       0.585700      0.648195     -0.872538
  B      -0.125109      2.125050     -0.440963
  B      -1.175035      0.928698     -0.713229
  B      -0.776483     -0.669609     -0.981846
  B       0.085236     -2.078162     -0.472382
  B       1.192538     -0.912846     -0.627756
12
Coordinates from ORCA-job input E -297.238867495782
  B       1.480281      0.218652      0.713470
  B       1.179324      1.775146      0.422344
  B      -0.185115      0.867835      0.860803
  B      -1.486819     -0.190314      0.627979
  B      -1.108996     -1.754700      0.486466
  B       0.334041     -0.956655      0.996776
  B       0.586092      0.648340     -0.872361
  B      -0.125649      2.124589     -0.440422
  B      -1.175485      0.928413     -0.712797
  B      -0.773967     -0.670264     -0.982784
  B       0.084959     -2.078460     -0.471690
  B       1.191334     -0.912581     -0.627784
12
Coordinates from ORCA-job input E -297.238874833038
  B       1.480208      0.218960      0.713162
  B       1.179866      1.775520      0.422248
  B      -0.184909      0.867760      0.861245
  B      -1.487312     -0.190259      0.627989
  B      -1.109642     -1.754633      0.487621
  B       0.334457     -0.957593      0.995541
  B       0.586354      0.648511     -0.872507
  B      -0.126457      2.124655     -0.440275
  B      -1.175324      0.928202     -0.712694
  B      -0.772791     -0.670009     -0.983954
  B       0.084640     -2.078751     -0.471497
  B       1.190910     -0.912362     -0.626877
12
Coordinates from ORCA-job input E -297.238879892001
  B       1.480650      0.219240      0.713170
  B       1.179687      1.775701      0.422158
  B      -0.184588      0.867404      0.861890
  B      -1.487559     -0.190063      0.627760
  B      -1.110604     -1.754303      0.488747
  B       0.335317     -0.958745      0.993953
  B       0.586528      0.648977     -0.872634
  B      -0.127368      2.124875     -0.440354
  B      -1.175322      0.927926     -0.712522
  B      -0.770770     -0.669390     -0.985266
  B       0.084073     -2.079391     -0.470616
  B       1.189955     -0.912231     -0.626286
12
Coordinates from ORCA-job input E -297.238882497052
  B       1.481225      0.219257      0.713205
  B       1.179133      1.775559      0.422182
  B      -0.184420      0.867118      0.862094
  B      -1.487009     -0.190259      0.628167
  B      -1.110816     -1.754363      0.488949
  B       0.335383     -0.958721      0.993593
  B       0.586733      0.649309     -0.872701
  B      -0.127653      2.125013     -0.440382
  B      -1.175374      0.927997     -0.713079
  B      -0.770544     -0.668916     -0.985882
  B       0.083686     -2.079693     -0.470320
  B       1.189657     -0.912302     -0.625825
