12
Optimized coordinates extracted from calculations/B12/bilayer_3d/d_2.0/mult_5/output.out
B        1.48122452       0.21925740       0.71320453
B        1.17913264       1.77555910       0.42218155
B       -0.18442005       0.86711764       0.86209374
B       -1.48700905      -0.19025883       0.62816703
B       -1.11081597      -1.75436301       0.48894856
B        0.33538295      -0.95872106       0.99359341
B        0.58673338       0.64930931      -0.87270126
B       -0.12765291       2.12501338      -0.44038166
B       -1.17537382       0.92799732      -0.71307914
B       -0.77054440      -0.66891640      -0.98588168
B        0.08368585      -2.07969320      -0.47032021
B        1.18965687      -0.91230165      -0.62582488
