12
Coordinates from ORCA-job input
  B           2.37332967821108      0.02665723535336      5.52552298548120
  B           3.11897437960042      0.01850521868406      3.95783347798862
  B          -3.16014155749035      4.34885874863211      2.39209649740493
  B          -3.18242120326201     -4.36627690134169      2.36063076073653
  B           2.63418915594596      6.16106203753082     -1.70117155579804
  B          -3.57195603032438      4.68371830978277      0.83363991397301
  B           2.62745398997515     -6.14756405875152     -1.67432411578288
  B          -3.60814177917604     -4.73134749622441      0.81217581225748
  B           5.31644071569723      0.00490184630281     -3.11822355057419
  B          -5.34447430934342      0.00617116064930     -4.44934083626184
  B           1.40027411564078      5.39335721433908     -2.47172506196376
  B           1.39647283452561     -5.39804331495671     -2.46711431746105
