12
Coordinates from ORCA-job input E -294.718147021836
  B       0.000000      0.000000      8.052446
  B       6.068262      0.000000      3.681241
  B      -3.034131      5.245447      3.681241
  B      -3.034131     -5.245447      3.681241
  B       3.702668      6.068262     -0.175705
  B      -3.702668      6.068262     -0.175705
  B       3.702668     -6.068262     -0.175705
  B      -3.702668     -6.068262     -0.175705
  B       5.759706      0.000000     -4.084077
  B      -5.759706      0.000000     -4.084077
  B       0.000000      5.039743     -5.112596
  B       0.000000     -5.039743     -5.112596
12
Coordinates from ORCA-job input E -294.725079921853
  B      -0.007473     -0.000024      8.037989
  B       6.067752      0.000045      3.678138
  B      -3.044033      5.225159      3.625200
  B      -3.044028     -5.225187      3.625203
  B       3.708420      6.067461     -0.182432
  B      -3.692992      6.038597     -0.130133
  B       3.708436     -6.067464     -0.182425
  B      -3.692995     -6.038591     -0.130123
  B       5.763576     -0.000031     -4.088024
  B      -5.764307      0.000009     -4.077736
  B      -0.001158      5.038497     -5.087835
  B      -0.001198     -5.038470     -5.087823
12
Coordinates from ORCA-job input E -294.732469487236
  B      -0.015355     -0.000048      8.023596
  B       6.067272      0.000092      3.675115
  B      -3.053618      5.204906      3.569158
  B      -3.053608     -5.204963      3.569163
  B       3.714156      6.066648     -0.188917
  B      -3.683071      6.008330     -0.084528
  B       3.714189     -6.066654     -0.188904
  B      -3.683076     -6.008318     -0.084509
  B       5.767330     -0.000064     -4.091964
  B      -5.769044      0.000018     -4.071454
  B      -0.002546      5.037039     -5.063390
  B      -0.002627     -5.036986     -5.063366
12
Coordinates from ORCA-job input E -294.744462071986
  B      -0.028059     -0.000082      8.001690
  B       6.066780      0.000156      3.670764
  B      -3.067329      5.176063      3.485166
  B      -3.067314     -5.176155      3.485172
  B       3.722519      6.065416     -0.198191
  B      -3.667781      5.962834     -0.016171
  B       3.722575     -6.065427     -0.198168
  B      -3.667789     -5.962816     -0.016141
  B       5.772312     -0.000109     -4.097735
  B      -5.776017      0.000030     -4.061674
  B      -0.004880      5.035012     -5.027377
  B      -0.005018     -5.034923     -5.027336
12
Coordinates from ORCA-job input E -294.758844160055
  B      -0.041591     -0.000102      7.975353
  B       6.064886      0.000202      3.664924
  B      -3.081653      5.149160      3.394254
  B      -3.081633     -5.149271      3.394266
  B       3.729481      6.064132     -0.210207
  B      -3.651993      5.915262      0.058068
  B       3.729552     -6.064145     -0.210175
  B      -3.652006     -5.915248      0.058095
  B       5.777664     -0.000142     -4.104361
  B      -5.782588      0.000038     -4.050805
  B      -0.004972      5.034142     -4.984728
  B      -0.005148     -5.034028     -4.984682
12
Coordinates from ORCA-job input E -294.774640554737
  B      -0.055982     -0.000123      7.948874
  B       6.062886      0.000250      3.659095
  B      -3.095324      5.122356      3.302876
  B      -3.095300     -5.122485      3.302894
  B       3.736233      6.062814     -0.221962
  B      -3.635655      5.866064      0.132736
  B       3.736320     -6.062829     -0.221919
  B      -3.635673     -5.866057      0.132758
  B       5.782857     -0.000176     -4.111076
  B      -5.789468      0.000047     -4.040060
  B      -0.005338      5.032820     -4.942134
  B      -0.005555     -5.032680     -4.942082
12
Coordinates from ORCA-job input E -294.790496490962
  B      -0.071309     -0.000159      7.926577
  B       6.062121      0.000325      3.655041
  B      -3.107053      5.093523      3.217223
  B      -3.107025     -5.093686      3.217246
  B       3.744321      6.061500     -0.230251
  B      -3.618544      5.815376      0.202521
  B       3.744434     -6.061520     -0.230195
  B      -3.618567     -5.815372      0.202545
  B       5.787251     -0.000228     -4.116907
  B      -5.797484      0.000060     -4.030653
  B      -0.008933      5.029351     -4.906606
  B      -0.009212     -5.029169     -4.906540
12
Coordinates from ORCA-job input E -294.801790498169
  B      -0.082017     -0.000189      7.911693
  B       6.061431      0.000380      3.652387
  B      -3.114533      5.073464      3.159317
  B      -3.114503     -5.073651      3.159335
  B       3.749807      6.060603     -0.235637
  B      -3.606686      5.779758      0.249685
  B       3.749941     -6.060628     -0.235571
  B      -3.606711     -5.779754      0.249717
  B       5.790269     -0.000267     -4.120855
  B      -5.803265      0.000070     -4.024647
  B      -0.011704      5.026461     -4.882752
  B      -0.012031     -5.026247     -4.882672
12
Coordinates from ORCA-job input E -294.813472515873
  B      -0.093003     -0.000219      7.896758
  B       6.060649      0.000436      3.649778
  B      -3.121647      5.053568      3.101442
  B      -3.121614     -5.053777      3.101455
  B       3.755181      6.059706     -0.240903
  B      -3.594655      5.743594      0.296775
  B       3.755336     -6.059735     -0.240827
  B      -3.594682     -5.743590      0.296815
  B       5.793165     -0.000307     -4.124774
  B      -5.809144      0.000079     -4.018709
  B      -0.014605      5.023415     -4.858952
  B      -0.014980     -5.023168     -4.858857
12
Coordinates from ORCA-job input E -294.831312114142
  B      -0.109727     -0.000257      7.874311
  B       6.059412      0.000513      3.645973
  B      -3.131500      5.025409      3.016014
  B      -3.131465     -5.025647      3.016029
  B       3.762712      6.058386     -0.248519
  B      -3.576658      5.690038      0.366139
  B       3.762894     -6.058420     -0.248427
  B      -3.576689     -5.690043      0.366179
  B       5.796948     -0.000362     -4.130476
  B      -5.817698      0.000092     -4.009697
  B      -0.018895      5.019108     -4.823818
  B      -0.019334     -5.018817     -4.823708
12
Coordinates from ORCA-job input E -294.850787967959
  B      -0.127033     -0.000285      7.848128
  B       6.056578      0.000574      3.640620
  B      -3.141650      4.999013      2.925018
  B      -3.141614     -4.999265      2.925034
  B       3.768663      6.057046     -0.258680
  B      -3.558405      5.634557      0.440093
  B       3.768868     -6.057084     -0.258572
  B      -3.558440     -5.634575      0.440126
  B       5.801198     -0.000406     -4.137151
  B      -5.825886      0.000101     -3.999850
  B      -0.020894      5.015723     -4.782441
  B      -0.021383     -5.015399     -4.782324
12
Coordinates from ORCA-job input E -294.870002385814
  B      -0.144695     -0.000312      7.821682
  B       6.053333      0.000633      3.635154
  B      -3.151086      4.973064      2.834121
  B      -3.151049     -4.973326      2.834137
  B       3.774067      6.055706     -0.268893
  B      -3.539878      5.577919      0.513830
  B       3.774294     -6.055748     -0.268769
  B      -3.539916     -5.577952      0.513855
  B       5.805244     -0.000450     -4.143865
  B      -5.834216      0.000110     -3.990193
  B      -0.022781      5.012089     -4.740591
  B      -0.023318     -5.011733     -4.740469
12
Coordinates from ORCA-job input E -294.886920461034
  B      -0.161959     -0.000357      7.798480
  B       6.050104      0.000723      3.630536
  B      -3.159112      4.944132      2.748992
  B      -3.159073     -4.944421      2.749006
  B       3.779978      6.054398     -0.277465
  B      -3.521335      5.519147      0.582873
  B       3.780238     -6.054447     -0.277320
  B      -3.521378     -5.519194      0.582895
  B       5.809842     -0.000515     -4.150134
  B      -5.843790      0.000125     -3.982924
  B      -0.026452      5.005868     -4.702539
  B      -0.027063     -5.005459     -4.702400
12
Coordinates from ORCA-job input E -294.897087179760
  B      -0.173623     -0.000391      7.782756
  B       6.047436      0.000788      3.627148
  B      -3.164217      4.924161      2.691798
  B      -3.164178     -4.924468      2.691806
  B       3.783508      6.053493     -0.283611
  B      -3.508693      5.478262      0.629188
  B       3.783793     -6.053548     -0.283450
  B      -3.508738     -5.478318      0.629214
  B       5.813295     -0.000562     -4.154389
  B      -5.850582      0.000135     -3.978334
  B      -0.028668      5.001140     -4.676141
  B      -0.029333     -5.000692     -4.675987
12
Coordinates from ORCA-job input E -294.908434238117
  B      -0.190087     -0.000437      7.758032
  B       6.041716      0.000881      3.620558
  B      -3.171795      4.894446      2.607035
  B      -3.171756     -4.894778      2.607040
  B       3.786853      6.052125     -0.295203
  B      -3.490506      5.416145      0.697947
  B       3.787175     -6.052187     -0.295017
  B      -3.490555     -5.416219      0.697967
  B       5.819622     -0.000630     -4.161174
  B      -5.860732      0.000150     -3.972467
  B      -0.029595      4.993867     -4.632442
  B      -0.030340     -4.993363     -4.632275
12
Coordinates from ORCA-job input E -294.920262120045
  B      -0.197066     -0.000432      7.723240
  B       6.024130      0.000894      3.601953
  B      -3.183451      4.862618      2.523525
  B      -3.183412     -4.862934      2.523537
  B       3.776338      6.050910     -0.327189
  B      -3.477680      5.349874      0.767757
  B       3.776680     -6.050975     -0.326972
  B      -3.477725     -5.349967      0.767753
  B       5.831459     -0.000646     -4.170298
  B      -5.867672      0.000148     -3.974083
  B      -0.010413      4.990975     -4.554677
  B      -0.011187     -4.990464     -4.554547
12
Coordinates from ORCA-job input E -294.936918596974
  B      -0.210853     -0.000469      7.691775
  B       6.012526      0.000977      3.587969
  B      -3.192642      4.830576      2.434164
  B      -3.192603     -4.830903      2.434170
  B       3.772598      6.049249     -0.349333
  B      -3.461366      5.280260      0.840747
  B       3.772978     -6.049321     -0.349080
  B      -3.461411     -5.280376      0.840730
  B       5.843103     -0.000711     -4.178795
  B      -5.878332      0.000159     -3.970879
  B      -0.001574      4.982128     -4.490794
  B      -0.002424     -4.981569     -4.490672
12
Coordinates from ORCA-job input E -294.935770090069
  B      -0.210851     -0.000417      7.662191
  B       5.993568      0.000966      3.565611
  B      -3.204575      4.805525      2.375462
  B      -3.204542     -4.805839      2.375574
  B       3.755465      6.047860     -0.385187
  B      -3.456982      5.228996      0.891962
  B       3.755837     -6.047922     -0.384895
  B      -3.457055     -5.229185      0.891842
  B       5.858920     -0.000699     -4.187581
  B      -5.882790      0.000161     -3.974070
  B       0.026927      4.978961     -4.415472
  B       0.026077     -4.978407     -4.415436
12
Coordinates from ORCA-job input E -294.940870375375
  B      -0.193264     -0.000458      7.664638
  B       5.984919      0.000792      3.556860
  B      -3.206970      4.814814      2.415060
  B      -3.206904     -4.815037      2.414724
  B       3.739927      6.048469     -0.400886
  B      -3.470924      5.255166      0.862096
  B       3.740331     -6.048574     -0.400628
  B      -3.470841     -5.255079      0.862336
  B       5.860265     -0.000616     -4.186531
  B      -5.873710      0.000100     -3.983311
  B       0.048969      4.989273     -4.402241
  B       0.048202     -4.988848     -4.402116
12
Coordinates from ORCA-job input E -294.942166120903
  B      -0.183777      0.000085      7.655612
  B       5.973545      0.000841      3.543383
  B      -3.212851      4.812206      2.416321
  B      -3.212902     -4.812589      2.417763
  B       3.725624      6.048218     -0.422471
  B      -3.477819      5.252516      0.863951
  B       3.725698     -6.048108     -0.422103
  B      -3.478311     -5.253449      0.862757
  B       5.869634     -0.000498     -4.190660
  B      -5.871208      0.000232     -3.989629
  B       0.071507      4.992002     -4.367214
  B       0.070859     -4.991456     -4.367710
12
Coordinates from ORCA-job input E -294.944173788941
  B      -0.169815     -0.003019      7.642243
  B       5.957247     -0.000021      3.523686
  B      -3.221841      4.808734      2.425043
  B      -3.221160     -4.807935      2.414971
  B       3.702806      6.047044     -0.454074
  B      -3.489632      5.252166      0.860994
  B       3.704782     -6.048251     -0.454315
  B      -3.486357     -5.246521      0.869045
  B       5.881207     -0.000890     -4.196037
  B      -5.866641     -0.000721     -3.999357
  B       0.105212      4.996853     -4.317641
  B       0.104193     -4.997438     -4.314558
12
Coordinates from ORCA-job input E -294.944098844364
  B      -0.151926      0.020207      7.624938
  B       5.936913      0.005155      3.498034
  B      -3.230460      4.799397      2.386870
  B      -3.234706     -4.806340      2.461344
  B       3.680564      6.051003     -0.497835
  B      -3.488368      5.223275      0.896790
  B       3.668865     -6.042811     -0.493761
  B      -3.512384     -5.265492      0.836791
  B       5.894340      0.002667     -4.202542
  B      -5.859961      0.006168     -4.012488
  B       0.147606      5.008569     -4.237367
  B       0.149515     -5.001797     -4.260773
12
Coordinates from ORCA-job input E -294.950670186487
  B      -0.132598      0.005466      7.605860
  B       5.915089      0.001759      3.469110
  B      -3.244799      4.796749      2.419553
  B      -3.245806     -4.799069      2.439129
  B       3.644970      6.046953     -0.542295
  B      -3.511803      5.234172      0.876478
  B       3.641829     -6.044446     -0.540626
  B      -3.518357     -5.245787      0.860344
  B       5.912379      0.000534     -4.211209
  B      -5.853758      0.001833     -4.027168
  B       0.196353      5.011505     -4.171247
  B       0.196500     -5.009669     -4.177929
12
Coordinates from ORCA-job input E -294.953794171396
  B      -0.121741     -0.000483      7.591624
  B       5.901227      0.000126      3.447746
  B      -3.255433      4.794134      2.429508
  B      -3.254809     -4.793946      2.427453
  B       3.621951      6.044037     -0.573491
  B      -3.525574      5.234669      0.873125
  B       3.622686     -6.044287     -0.573163
  B      -3.524860     -5.233565      0.874471
  B       5.929687     -0.000341     -4.219788
  B      -5.851860     -0.000213     -4.036552
  B       0.229665      5.010189     -4.120345
  B       0.229060     -5.010320     -4.120587
12
Coordinates from ORCA-job input E -294.958373203673
  B      -0.104547     -0.004798      7.570645
  B       5.880803     -0.001126      3.415212
  B      -3.270768      4.790256      2.439394
  B      -3.269136     -4.788387      2.421419
  B       3.587996      6.040521     -0.621377
  B      -3.544284      5.232693      0.872025
  B       3.591468     -6.042776     -0.621973
  B      -3.538248     -5.222333      0.886354
  B       5.955473     -0.000890     -4.232620
  B      -5.848276     -0.001666     -4.051534
  B       0.280259      5.008931     -4.041039
  B       0.279261     -5.010425     -4.036506
12
Coordinates from ORCA-job input E -294.964223450940
  B      -0.080559     -0.008739      7.546233
  B       5.852476     -0.002100      3.378721
  B      -3.286054      4.784423      2.452854
  B      -3.283978     -4.781136      2.418984
  B       3.547485      6.037732     -0.678136
  B      -3.563945      5.230447      0.867581
  B       3.553701     -6.041743     -0.678737
  B      -3.552958     -5.211217      0.894398
  B       5.976530     -0.001518     -4.242962
  B      -5.839910     -0.003173     -4.070153
  B       0.339301      5.012847     -3.948377
  B       0.337910     -5.015823     -3.940405
12
Coordinates from ORCA-job input E -294.970982797111
  B      -0.056574     -0.010948      7.522302
  B       5.825045     -0.002471      3.342482
  B      -3.300308      4.778266      2.464515
  B      -3.299020     -4.774509      2.421048
  B       3.506952      6.035154     -0.734876
  B      -3.581860      5.226665      0.864392
  B       3.514713     -6.039889     -0.734984
  B      -3.568512     -5.202585      0.898410
  B       5.995488     -0.001740     -4.252470
  B      -5.830554     -0.004077     -4.089414
  B       0.397898      5.017808     -3.855650
  B       0.396732     -5.021673     -3.845755
12
Coordinates from ORCA-job input E -294.977817925328
  B      -0.039327     -0.010518      7.502715
  B       5.806419     -0.002102      3.310638
  B      -3.313124      4.773978      2.469569
  B      -3.313670     -4.770895      2.427105
  B       3.472993      6.032276     -0.782783
  B      -3.596095      5.221200      0.866867
  B       3.480313     -6.036251     -0.782333
  B      -3.584266     -5.198444      0.899464
  B       6.015843     -0.001372     -4.263367
  B      -5.824287     -0.004011     -4.105696
  B       0.447683      5.019775     -3.776077
  B       0.447519     -5.023636     -3.766103
12
Coordinates from ORCA-job input E -294.982938087661
  B      -0.028735     -0.009220      7.489890
  B       5.794698     -0.001487      3.289177
  B      -3.321607      4.770997      2.470439
  B      -3.323777     -4.768889      2.432470
  B       3.450436      6.030199     -0.814709
  B      -3.604709      5.216075      0.870942
  B       3.456830     -6.033081     -0.813605
  B      -3.595384     -5.196554      0.899327
  B       6.030266     -0.000950     -4.271115
  B      -5.820463     -0.003539     -4.116167
  B       0.480925      5.020955     -3.722911
  B       0.481519     -5.024505     -3.713738
12
Coordinates from ORCA-job input E -294.990892921615
  B      -0.013258     -0.009993      7.470472
  B       5.777225     -0.001555      3.257209
  B      -3.334542      4.766778      2.475403
  B      -3.338174     -4.764830      2.434502
  B       3.415536      6.026084     -0.862051
  B      -3.618689      5.210363      0.873665
  B       3.422279     -6.028890     -0.860921
  B      -3.609358     -5.189670      0.904098
  B       6.050775     -0.000691     -4.282430
  B      -5.814485     -0.003881     -4.131975
  B       0.530595      5.022354     -3.644359
  B       0.532096     -5.026069     -3.633612
12
Coordinates from ORCA-job input E -295.000996469220
  B       0.007045     -0.012358      7.447729
  B       5.753304     -0.001926      3.220860
  B      -3.347913      4.760926      2.485294
  B      -3.353240     -4.758469      2.435084
  B       3.372827      6.021266     -0.917854
  B      -3.634373      5.204949      0.872715
  B       3.381549     -6.024941     -0.916439
  B      -3.623006     -5.179452      0.910140
  B       6.068997     -0.000694     -4.292016
  B      -5.805027     -0.004960     -4.150986
  B       0.588863      5.027373     -3.553877
  B       0.590974     -5.031713     -3.540652
12
Coordinates from ORCA-job input E -295.012402797728
  B       0.026782     -0.013771      7.425906
  B       5.729714     -0.001927      3.185084
  B      -3.360290      4.754957      2.493991
  B      -3.368274     -4.752553      2.438531
  B       3.329366      6.016134     -0.973296
  B      -3.648419      5.198625      0.873103
  B       3.339555     -6.020069     -0.971428
  B      -3.636687     -5.170706      0.914137
  B       6.085715     -0.000406     -4.300765
  B      -5.794851     -0.005703     -4.169812
  B       0.647175      5.034577     -3.465283
  B       0.650214     -5.039158     -3.450168
12
Coordinates from ORCA-job input E -295.023439759767
  B       0.040706     -0.012928      7.408710
  B       5.712905     -0.001432      3.154554
  B      -3.371194      4.750518      2.496685
  B      -3.382134     -4.749249      2.445336
  B       3.292999      6.011167     -1.019233
  B      -3.658881      5.191230      0.878298
  B       3.302469     -6.013895     -1.017258
  B      -3.649981     -5.166217      0.915543
  B       6.102471      0.000359     -4.310147
  B      -5.787214     -0.005418     -4.184728
  B       0.696639      5.040992     -3.391893
  B       0.701214     -5.045127     -3.375865
12
Coordinates from ORCA-job input E -295.031445252343
  B       0.049179     -0.011381      7.397795
  B       5.701842     -0.000772      3.134432
  B      -3.378329      4.747384      2.496226
  B      -3.391359     -4.747329      2.451212
  B       3.268667      6.007688     -1.049626
  B      -3.664809      5.184966      0.884134
  B       3.277046     -6.009063     -1.047297
  B      -3.659084     -5.164066      0.915754
  B       6.113869      0.000978     -4.316445
  B      -5.782212     -0.004773     -4.193973
  B       0.729841      5.046338     -3.343995
  B       0.735349     -5.049970     -3.328216
12
Coordinates from ORCA-job input E -295.043689399920
  B       0.061931     -0.011825      7.381484
  B       5.684945     -0.000883      3.104666
  B      -3.389119      4.743140      2.500433
  B      -3.404206     -4.743429      2.454637
  B       3.230960      6.001484     -1.094559
  B      -3.675060      5.178279      0.888457
  B       3.239404     -6.002517     -1.092672
  B      -3.670017     -5.157143      0.920572
  B       6.129624      0.001503     -4.325253
  B      -5.774346     -0.005032     -4.207960
  B       0.779505      5.054462     -3.273785
  B       0.786379     -5.058038     -3.256019
12
Coordinates from ORCA-job input E -295.059043075755
  B       0.078889     -0.013960      7.362580
  B       5.661416     -0.001416      3.070847
  B      -3.400185      4.737541      2.510250
  B      -3.417464     -4.737282      2.456876
  B       3.183774      5.993678     -1.148028
  B      -3.686858      5.172138      0.889359
  B       3.194273     -5.995672     -1.146351
  B      -3.680034     -5.146688      0.927459
  B       6.143661      0.001760     -4.331968
  B      -5.763167     -0.006162     -4.224747
  B       0.838966      5.067843     -3.193304
  B       0.846728     -5.071781     -3.172973
12
Coordinates from ORCA-job input E -295.075670006749
  B       0.095371     -0.015302      7.344980
  B       5.637282     -0.001701      3.037951
  B      -3.410199      4.731689      2.519296
  B      -3.430340     -4.731294      2.461878
  B       3.135411      5.985576     -1.200743
  B      -3.697049      5.165288      0.891406
  B       3.147599     -5.988101     -1.199247
  B      -3.689649     -5.137417      0.932684
  B       6.155942      0.002250     -4.337420
  B      -5.751202     -0.006982     -4.240869
  B       0.899040      5.084708     -3.116159
  B       0.907793     -5.088715     -3.093756
12
Coordinates from ORCA-job input E -295.090610895034
  B       0.106927     -0.014541      7.331697
  B       5.618899     -0.001522      3.010706
  B      -3.418778      4.727032      2.522564
  B      -3.441768     -4.727533      2.469703
  B       3.095626      5.978711     -1.243247
  B      -3.703899      5.157625      0.897426
  B       3.107180     -5.980198     -1.242306
  B      -3.698846     -5.132258      0.935013
  B       6.167077      0.003102     -4.343365
  B      -5.741502     -0.006758     -4.253087
  B       0.949379      5.100503     -3.054416
  B       0.959706     -5.104162     -3.030688
12
Coordinates from ORCA-job input E -295.100985810510
  B       0.113910     -0.013077      7.323490
  B       5.606322     -0.001077      2.992921
  B      -3.424299      4.723582      2.522568
  B      -3.449228     -4.725091      2.476179
  B       3.068950      5.974122     -1.271182
  B      -3.707337      5.151157      0.903762
  B       3.079559     -5.974416     -1.270285
  B      -3.705036     -5.129517      0.935896
  B       6.174232      0.003745     -4.347181
  B      -5.734939     -0.006148     -4.260461
  B       0.983345      5.112651     -3.014722
  B       0.994522     -5.115930     -2.990985
12
Coordinates from ORCA-job input E -295.116329047965
  B       0.124622     -0.013355      7.311223
  B       5.587040     -0.001428      2.966631
  B      -3.432549      4.718888      2.527392
  B      -3.459497     -4.720475      2.481084
  B       3.027844      5.966434     -1.312390
  B      -3.713823      5.144102      0.908880
  B       3.038515     -5.966511     -1.312322
  B      -3.711915     -5.122138      0.941123
  B       6.183523      0.004358     -4.352318
  B      -5.724741     -0.006466     -4.271711
  B       1.034143      5.130977     -2.956520
  B       1.046837     -5.134387     -2.931072
12
Coordinates from ORCA-job input E -295.134694011420
  B       0.139233     -0.015303      7.296788
  B       5.560195     -0.002315      2.936269
  B      -3.440790      4.712780      2.537914
  B      -3.469993     -4.713412      2.485104
  B       2.975342      5.956557     -1.362203
  B      -3.721496      5.137399      0.911045
  B       2.988299     -5.957996     -1.362815
  B      -3.717361     -5.110911      0.948916
  B       6.190735      0.004786     -4.355011
  B      -5.710953     -0.007748     -4.285520
  B       1.096532      5.156593     -2.888976
  B       1.110257     -5.160429     -2.861510
12
Coordinates from ORCA-job input E -295.155066197116
  B       0.152437     -0.010839      7.282540
  B       5.535803     -0.001520      2.900945
  B      -3.451222      4.706231      2.534014
  B      -3.485988     -4.709565      2.505061
  B       2.921872      5.947597     -1.413569
  B      -3.727062      5.124203      0.923733
  B       2.933359     -5.946668     -1.415471
  B      -3.728995     -5.108713      0.944420
  B       6.199039      0.006684     -4.365017
  B      -5.695205     -0.005831     -4.298641
  B       1.166102      5.186881     -2.812027
  B       1.179860     -5.188460     -2.785990
12
Coordinates from ORCA-job input E -295.168761678088
  B       0.160763     -0.006549      7.271170
  B       5.516708     -0.000465      2.874142
  B      -3.460051      4.699806      2.525773
  B      -3.496747     -4.705336      2.514062
  B       2.881013      5.940328     -1.452759
  B      -3.729409      5.109898      0.938742
  B       2.891055     -5.937550     -1.453425
  B      -3.736607     -5.103938      0.945180
  B       6.204732      0.007480     -4.374021
  B      -5.683925     -0.003817     -4.307344
  B       1.219911      5.209149     -2.752309
  B       1.232556     -5.209006     -2.729210
12
Coordinates from ORCA-job input E -295.176174345827
  B       0.166419     -0.003844      7.263397
  B       5.502866      0.000300      2.856506
  B      -3.466164      4.694874      2.519977
  B      -3.503371     -4.701533      2.517754
  B       2.853180      5.935390     -1.478892
  B      -3.730317      5.099265      0.949341
  B       2.862925     -5.931873     -1.477923
  B      -3.740625     -5.098972      0.947419
  B       6.207432      0.007746     -4.379506
  B      -5.676046     -0.002581     -4.312783
  B       1.256249      5.224574     -2.712812
  B       1.267453     -5.223346     -2.692480
12
Coordinates from ORCA-job input E -295.183351249434
  B       0.178495     -0.005010      7.252391
  B       5.476083     -0.000395      2.831963
  B      -3.474467      4.689262      2.527931
  B      -3.510392     -4.694196      2.517266
  B       2.807249      5.926663     -1.517734
  B      -3.734979      5.092057      0.952118
  B       2.821279     -5.926323     -1.514227
  B      -3.741960     -5.087120      0.956316
  B       6.208791      0.007215     -4.382150
  B      -5.662226     -0.003648     -4.320924
  B       1.311857      5.252130     -2.660179
  B       1.320269     -5.250634     -2.642771
12
Coordinates from ORCA-job input E -295.189363607579
  B       0.199995      0.003259      7.235674
  B       5.442997      0.001036      2.808418
  B      -3.481769      4.679311      2.509856
  B      -3.520787     -4.688259      2.536480
  B       2.772478      5.924785     -1.550581
  B      -3.732086      5.070935      0.969069
  B       2.779960     -5.918863     -1.548995
  B      -3.748696     -5.084914      0.944695
  B       6.203826      0.008809     -4.385731
  B      -5.645351      0.000416     -4.328213
  B       1.360182      5.274468     -2.602598
  B       1.369248     -5.270983     -2.588073
12
Coordinates from ORCA-job input E -295.205072013342
  B       0.221656     -0.006501      7.222852
  B       5.398180     -0.004015      2.782325
  B      -3.490342      4.675497      2.546267
  B      -3.525393     -4.676633      2.527424
  B       2.712945      5.913691     -1.594772
  B      -3.742688      5.076283      0.951093
  B       2.724000     -5.913426     -1.596849
  B      -3.743072     -5.063201      0.964785
  B       6.197801      0.007422     -4.379838
  B      -5.623521     -0.005869     -4.338761
  B       1.427397      5.315303     -2.551554
  B       1.443037     -5.318551     -2.532970
12
Coordinates from ORCA-job input E -295.203247324206
  B       0.233441     -0.000320      7.212293
  B       5.372840     -0.001533      2.758006
  B      -3.499467      4.669326      2.539274
  B      -3.534802     -4.672902      2.542328
  B       2.667685      5.905266     -1.633115
  B      -3.742694      5.061499      0.964964
  B       2.685735     -5.907843     -1.627072
  B      -3.748664     -5.061202      0.959307
  B       6.192943      0.007454     -4.387214
  B      -5.606907     -0.002810     -4.346690
  B       1.488426      5.347475     -2.494695
  B       1.491463     -5.344409     -2.487385
12
Coordinates from ORCA-job input E -295.207369877406
  B       0.238438     -0.000578      7.211598
  B       5.372973     -0.002060      2.774591
  B      -3.491628      4.669591      2.533102
  B      -3.528357     -4.673684      2.539282
  B       2.698078      5.914064     -1.609976
  B      -3.738692      5.062711      0.962150
  B       2.707944     -5.911733     -1.610083
  B      -3.746245     -5.063358      0.955220
  B       6.189870      0.008267     -4.376729
  B      -5.613920     -0.002751     -4.341473
  B       1.449794      5.326391     -2.525913
  B       1.461744     -5.326860     -2.511768
12
Coordinates from ORCA-job input E -295.207206653684
  B       0.259830     -0.001787      7.200157
  B       5.344550      0.000356      2.780868
  B      -3.487952      4.665712      2.539472
  B      -3.521977     -4.670209      2.531290
  B       2.685293      5.910780     -1.620537
  B      -3.736822      5.060499      0.956029
  B       2.715215     -5.919507     -1.604037
  B      -3.742650     -5.058530      0.956924
  B       6.180157      0.006710     -4.361547
  B      -5.609015     -0.003231     -4.340831
  B       1.462105      5.333536     -2.519173
  B       1.451266     -5.324328     -2.518615
12
Coordinates from ORCA-job input E -295.207756247033
  B       0.293158     -0.003048      7.181367
  B       5.299876     -0.002143      2.788161
  B      -3.481594      4.660251      2.537841
  B      -3.515943     -4.663741      2.528016
  B       2.688869      5.919008     -1.618552
  B      -3.733347      5.055640      0.951585
  B       2.700250     -5.918288     -1.616588
  B      -3.737763     -5.050143      0.956235
  B       6.163953      0.007456     -4.341232
  B      -5.599957     -0.003993     -4.340456
  B       1.455870      5.332233     -2.520468
  B       1.466627     -5.333231     -2.505911
12
Coordinates from ORCA-job input E -295.208041814995
  B       0.318499     -0.000913      7.167414
  B       5.267762     -0.001078      2.796316
  B      -3.476449      4.655156      2.530100
  B      -3.511348     -4.660354      2.529784
  B       2.690438      5.923428     -1.619417
  B      -3.728207      5.047891      0.953233
  B       2.700806     -5.921406     -1.616823
  B      -3.736141     -5.048211      0.949902
  B       6.152287      0.007774     -4.326696
  B      -5.594800     -0.002684     -4.339515
  B       1.453923      5.331491     -2.519112
  B       1.463231     -5.331095     -2.505184
12
Coordinates from ORCA-job input E -295.208393391041
  B       0.357023      0.000311      7.147218
  B       5.212892      0.000074      2.809613
  B      -3.467516      4.648113      2.524588
  B      -3.501854     -4.654710      2.527345
  B       2.691153      5.929757     -1.622271
  B      -3.721371      5.038953      0.952435
  B       2.702281     -5.927670     -1.617370
  B      -3.731754     -5.042835      0.945484
  B       6.134806      0.007692     -4.302848
  B      -5.587228     -0.001811     -4.337447
  B       1.452681      5.332701     -2.519715
  B       1.458887     -5.330576     -2.507033
12
Coordinates from ORCA-job input E -295.208758643575
  B       0.395223      0.000942      7.128017
  B       5.154448      0.000909      2.822838
  B      -3.458195      4.641211      2.521336
  B      -3.491649     -4.648647      2.524050
  B       2.691735      5.936454     -1.625737
  B      -3.714747      5.030726      0.950942
  B       2.703607     -5.934523     -1.618835
  B      -3.726662     -5.036508      0.942803
  B       6.117696      0.007514     -4.279029
  B      -5.579555     -0.001336     -4.335333
  B       1.452138      5.335124     -2.521453
  B       1.455961     -5.331866     -2.509600
12
Coordinates from ORCA-job input E -295.209357354020
  B       0.453389      0.002280      7.097926
  B       5.067871      0.002142      2.842138
  B      -3.444622      4.630798      2.515279
  B      -3.477098     -4.639768      2.520506
  B       2.692578      5.946363     -1.630698
  B      -3.704828      5.017947      0.949151
  B       2.704239     -5.943822     -1.621746
  B      -3.719686     -5.027594      0.937534
  B       6.091968      0.007446     -4.243417
  B      -5.567851     -0.000398     -4.332618
  B       1.451313      5.338199     -2.522652
  B       1.452727     -5.333593     -2.511403
12
Coordinates from ORCA-job input E -295.210118011232
  B       0.524139      0.004202      7.059098
  B       4.965455      0.003953      2.862185
  B      -3.427941      4.615654      2.505823
  B      -3.459050     -4.626923      2.514398
  B       2.693963      5.958321     -1.635118
  B      -3.691422      4.999769      0.946504
  B       2.705394     -5.954997     -1.623179
  B      -3.710393     -5.014818      0.930016
  B       6.054029      0.007315     -4.197299
  B      -5.551267      0.000928     -4.329133
  B       1.449620      5.340449     -2.521841
  B       1.447475     -5.333853     -2.511455
12
Coordinates from ORCA-job input E -295.210932390336
  B       0.605426      0.007058      7.010653
  B       4.853276      0.006604      2.878182
  B      -3.408472      4.593356      2.491514
  B      -3.437604     -4.608121      2.504592
  B       2.696037      5.972081     -1.637581
  B      -3.673507      4.973636      0.942105
  B       2.707499     -5.967910     -1.621050
  B      -3.698329     -4.996480      0.918808
  B       5.997881      0.007130     -4.138273
  B      -5.527535      0.002864     -4.324634
  B       1.446581      5.340488     -2.516618
  B       1.438748     -5.330708     -2.507698
12
Coordinates from ORCA-job input E -295.212049185868
  B       0.677668      0.008299      6.970646
  B       4.751391      0.007507      2.898481
  B      -3.393004      4.578664      2.488516
  B      -3.420305     -4.594658      2.498823
  B       2.695677      5.982520     -1.642381
  B      -3.662065      4.957951      0.935280
  B       2.708763     -5.979262     -1.622645
  B      -3.688555     -4.982860      0.911959
  B       5.960906      0.006860     -4.091525
  B      -5.510801      0.003397     -4.322640
  B       1.446172      5.343744     -2.516006
  B       1.434153     -5.332163     -2.508508
12
Coordinates from ORCA-job input E -295.213227842674
  B       0.737910      0.009196      6.937787
  B       4.664437      0.007655      2.919294
  B      -3.380499      4.569444      2.486780
  B      -3.406790     -4.585888      2.495223
  B       2.695038      5.990845     -1.647305
  B      -3.654069      4.947765      0.930990
  B       2.707868     -5.987533     -1.626768
  B      -3.681324     -4.973658      0.908029
  B       5.936793      0.006803     -4.056653
  B      -5.499773      0.003617     -4.321489
  B       1.446656      5.347462     -2.516611
  B       1.433754     -5.335708     -2.509277
12
Coordinates from ORCA-job input E -295.214171520005
  B       0.778076      0.009591      6.915643
  B       4.606240      0.007409      2.934370
  B      -3.372301      4.564048      2.485995
  B      -3.397972     -4.580388      2.492160
  B       2.694525      5.996349     -1.650640
  B      -3.649265      4.941786      0.928206
  B       2.706370     -5.992674     -1.630484
  B      -3.676450     -4.967498      0.906543
  B       5.921859      0.006807     -4.034421
  B      -5.493142      0.003541     -4.320836
  B       1.447094      5.350141     -2.517183
  B       1.434966     -5.339112     -2.509352
12
Coordinates from ORCA-job input E -295.215154335636
  B       0.818233      0.010102      6.893334
  B       4.547909      0.007241      2.949900
  B      -3.364080      4.558782      2.484705
  B      -3.389182     -4.575098      2.489278
  B       2.694170      6.001853     -1.653996
  B      -3.644418      4.935734      0.926004
  B       2.705063     -5.997776     -1.634096
  B      -3.671762     -4.961627      0.905035
  B       5.907369      0.006828     -4.012633
  B      -5.486847      0.003552     -4.320258
  B       1.447523      5.352766     -2.517740
  B       1.436024     -5.342356     -2.509533
12
Coordinates from ORCA-job input E -295.216644537132
  B       0.878262      0.011261      6.859196
  B       4.460746      0.007461      2.972949
  B      -3.351426      4.550551      2.481045
  B      -3.375752     -4.567410      2.485636
  B       2.694487      6.010156     -1.658550
  B      -3.636437      4.925794      0.923852
  B       2.704508     -6.005555     -1.638151
  B      -3.665083     -4.953469      0.901756
  B       5.885129      0.006871     -3.979479
  B      -5.477609      0.003954     -4.319194
  B       1.447492      5.355942     -2.518639
  B       1.435685     -5.345558     -2.510420
12
Coordinates from ORCA-job input E -295.218519841099
  B       0.949334      0.013195      6.816531
  B       4.359898      0.008209      2.997339
  B      -3.336004      4.538340      2.473979
  B      -3.359197     -4.556472      2.479843
  B       2.695601      6.020135     -1.662432
  B      -3.625413      4.911071      0.921495
  B       2.705261     -6.015123     -1.640269
  B      -3.656621     -4.942355      0.896491
  B       5.852450      0.006872     -3.937392
  B      -5.464805      0.004811     -4.317466
  B       1.446636      5.358232     -2.517822
  B       1.432859     -5.346915     -2.510297
12
Coordinates from ORCA-job input E -295.220733297016
  B       1.030983      0.016266      6.764120
  B       4.248487      0.009681      3.019793
  B      -3.317833      4.519959      2.462305
  B      -3.339385     -4.540486      2.471059
  B       2.697673      6.031732     -1.664477
  B      -3.610384      4.889328      0.918207
  B       2.707705     -6.026484     -1.638778
  B      -3.645950     -4.926812      0.887987
  B       5.804105      0.006822     -3.884303
  B      -5.446464      0.006309     -4.314895
  B       1.444613      5.358609     -2.513432
  B       1.426450     -5.344924     -2.507586
12
Coordinates from ORCA-job input E -295.223390229751
  B       1.103387      0.017878      6.718567
  B       4.153171      0.009570      3.047434
  B      -3.304219      4.508910      2.460055
  B      -3.324659     -4.529693      2.466540
  B       2.697400      6.040520     -1.668196
  B      -3.602188      4.877034      0.912874
  B       2.707841     -6.035681     -1.641217
  B      -3.638433     -4.915890      0.882773
  B       5.773762      0.006704     -3.842665
  B      -5.434705      0.006618     -4.315402
  B       1.444151      5.361413     -2.512829
  B       1.424490     -5.347382     -2.507934
12
Coordinates from ORCA-job input E -295.226122009224
  B       1.164548      0.018738      6.679394
  B       4.073780      0.009129      3.075563
  B      -3.293621      4.502427      2.459511
  B      -3.313540     -4.522846      2.463641
  B       2.696349      6.047416     -1.672430
  B      -3.597230      4.869539      0.909085
  B       2.706007     -6.042363     -1.645754
  B      -3.633247     -4.908423      0.880048
  B       5.754558      0.006673     -3.810546
  B      -5.427620      0.006566     -4.316732
  B       1.444459      5.364760     -2.513341
  B       1.425557     -5.351616     -2.508439
12
Coordinates from ORCA-job input E -295.228192416510
  B       1.205063      0.018969      6.652604
  B       4.022865      0.008619      3.095992
  B      -3.287099      4.498781      2.459718
  B      -3.306745     -4.518581      2.460939
  B       2.695144      6.051756     -1.675422
  B      -3.594790      4.865374      0.906400
  B       2.703806     -6.046405     -1.649571
  B      -3.629981     -4.903310      0.879348
  B       5.743057      0.006649     -3.790079
  B      -5.423679      0.006277     -4.317989
  B       1.444897      5.367232     -2.513621
  B       1.427461     -5.355362     -2.508318
12
Coordinates from ORCA-job input E -295.231293418599
  B       1.265372      0.019856      6.611581
  B       3.946906      0.008627      3.126429
  B      -3.276803      4.492532      2.457094
  B      -3.296079     -4.512325      2.457525
  B       2.694453      6.058503     -1.679432
  B      -3.589827      4.857461      0.904337
  B       2.702307     -6.052746     -1.653550
  B      -3.625514     -4.896275      0.877020
  B       5.724767      0.006643     -3.758655
  B      -5.417988      0.006429     -4.319459
  B       1.444697      5.370011     -2.514054
  B       1.427708     -5.358717     -2.508835
12
Coordinates from ORCA-job input E -295.235135279179
  B       1.336182      0.021472      6.560805
  B       3.861343      0.009240      3.160894
  B      -3.264464      4.482893      2.450946
  B      -3.283134     -4.503373      2.452182
  B       2.694492      6.066722     -1.682612
  B      -3.582624      4.845315      0.902422
  B       2.701997     -6.060625     -1.655507
  B      -3.620132     -4.886905      0.872803
  B       5.697761      0.006585     -3.719584
  B      -5.410084      0.007046     -4.320875
  B       1.443345      5.371747     -2.512964
  B       1.425318     -5.360118     -2.508511
12
Coordinates from ORCA-job input E -295.239768184885
  B       1.417662      0.024145      6.498633
  B       3.768665      0.010675      3.197117
  B      -3.250074      4.467953      2.440230
  B      -3.267776     -4.490115      2.444188
  B       2.695295      6.076490     -1.683924
  B      -3.572424      4.827056      0.899985
  B       2.703108     -6.070185     -1.653931
  B      -3.613540     -4.874030      0.865475
  B       5.657419      0.006446     -3.671024
  B      -5.398299      0.008298     -4.322126
  B       1.440587      5.371679     -2.508670
  B       1.419378     -5.358412     -2.505952
12
Coordinates from ORCA-job input E -295.244821793036
  B       1.488985      0.025255      6.443136
  B       3.694601      0.010959      3.236908
  B      -3.239953      4.459407      2.438215
  B      -3.257254     -4.481394      2.439808
  B       2.693839      6.083776     -1.686428
  B      -3.568539      4.817141      0.894975
  B       2.701474     -6.077526     -1.655718
  B      -3.609903     -4.865120      0.860586
  B       5.632127      0.006218     -3.631888
  B      -5.391528      0.008433     -4.326314
  B       1.438819      5.373505     -2.507694
  B       1.417330     -5.360653     -2.505588
12
Coordinates from ORCA-job input E -295.249737681344
  B       1.548271      0.025574      6.395348
  B       3.635746      0.011028      3.274328
  B      -3.232519      4.454213      2.437846
  B      -3.249777     -4.475666      2.436629
  B       2.691515      6.089298     -1.689464
  B      -3.567043      4.810917      0.890972
  B       2.698250     -6.082731     -1.659138
  B      -3.607883     -4.858583      0.857896
  B       5.615667      0.006074     -3.600792
  B      -5.387887      0.008240     -4.330836
  B       1.437982      5.375942     -2.507515
  B       1.417680     -5.364304     -2.505274
12
Coordinates from ORCA-job input E -295.253335180842
  B       1.587288      0.025457      6.362611
  B       3.599735      0.010960      3.300793
  B      -3.228223      4.451171      2.438029
  B      -3.245614     -4.472033      2.434002
  B       2.689490      6.092839     -1.691480
  B      -3.566861      4.807354      0.888033
  B       2.694960     -6.085719     -1.662081
  B      -3.606908     -4.854103      0.856808
  B       5.605598      0.006010     -3.580717
  B      -5.385972      0.007903     -4.334370
  B       1.437486      5.377749     -2.507251
  B       1.419021     -5.367589     -2.504377
12
Coordinates from ORCA-job input E -295.258827527642
  B       1.645166      0.025863      6.312710
  B       3.546473      0.011510      3.340542
  B      -3.221490      4.445730      2.435373
  B      -3.238916     -4.466557      2.430396
  B       2.687251      6.098243     -1.694198
  B      -3.565340      4.800265      0.885606
  B       2.691865     -6.090616     -1.664744
  B      -3.605778     -4.847760      0.854193
  B       5.589650      0.005914     -3.550072
  B      -5.383404      0.007970     -4.339251
  B       1.436162      5.379721     -2.506700
  B       1.418362     -5.370284     -2.503855
12
Coordinates from ORCA-job input E -295.265733396717
  B       1.713855      0.026879      6.250401
  B       3.488110      0.012704      3.388201
  B      -3.213627      4.437297      2.429190
  B      -3.230923     -4.458686      2.424909
  B       2.685302      6.105039     -1.695926
  B      -3.562618      4.789429      0.883334
  B       2.689471     -6.096957     -1.665322
  B      -3.604683     -4.839461      0.849716
  B       5.566592      0.005759     -3.512209
  B      -5.379789      0.008470     -4.345013
  B       1.433371      5.380705     -2.504714
  B       1.414939     -5.371177     -2.502566
12
Coordinates from ORCA-job input E -295.274187982151
  B       1.792873      0.028789      6.174373
  B       3.427861      0.014738      3.441978
  B      -3.204675      4.424375      2.418495
  B      -3.221614     -4.447111      2.416945
  B       2.683938      6.113501     -1.695438
  B      -3.558157      4.773455      0.880634
  B       2.688033     -6.104939     -1.662303
  B      -3.603517     -4.828507      0.842187
  B       5.532618      0.005528     -3.466141
  B      -5.373837      0.009550     -4.351561
  B       1.428577      5.379906     -2.499912
  B       1.407900     -5.369285     -2.499257
12
Coordinates from ORCA-job input E -295.282531093603
  B       1.861012      0.029368      6.107128
  B       3.381488      0.015649      3.494377
  B      -3.198914      4.416732      2.415850
  B      -3.215674     -4.439400      2.412428
  B       2.679872      6.119337     -1.696588
  B      -3.558587      4.764697      0.875270
  B       2.684425     -6.111208     -1.662241
  B      -3.603972     -4.820673      0.836843
  B       5.510336      0.005208     -3.428082
  B      -5.370684      0.009724     -4.360016
  B       1.426178      5.381629     -2.497198
  B       1.404521     -5.371064     -2.497770
12
Coordinates from ORCA-job input E -295.289900952606
  B       1.916027      0.029362      6.051169
  B       3.345861      0.016147      3.539632
  B      -3.194861      4.411560      2.414856
  B      -3.211790     -4.433866      2.409103
  B       2.675887      6.123824     -1.698027
  B      -3.560069      4.758710      0.870880
  B       2.679785     -6.115468     -1.663819
  B      -3.604895     -4.814431      0.833598
  B       5.495140      0.005049     -3.397834
  B      -5.369204      0.009576     -4.367819
  B       1.424454      5.383625     -2.495520
  B       1.403664     -5.374089     -2.496218
12
Coordinates from ORCA-job input E -295.295008471866
  B       1.952051      0.029066      6.013199
  B       3.324611      0.016286      3.570708
  B      -3.192666      4.408265      2.414513
  B      -3.209858     -4.430065      2.406042
  B       2.672824      6.126711     -1.698887
  B      -3.561654      4.755033      0.867730
  B       2.675772     -6.117964     -1.665376
  B      -3.605556     -4.809770      0.832314
  B       5.485567      0.004971     -3.378109
  B      -5.368504      0.009247     -4.373368
  B       1.423344      5.385113     -2.494232
  B       1.404069     -5.376893     -2.494534
12
Coordinates from ORCA-job input E -295.302525680438
  B       2.005411      0.029198      5.955651
  B       3.293184      0.017006      3.617277
  B      -3.189088      4.402456      2.411248
  B      -3.206482     -4.424245      2.401877
  B       2.669120      6.131224     -1.699773
  B      -3.562790      4.747855      0.864839
  B       2.671350     -6.122060     -1.666189
  B      -3.606833     -4.803100      0.829430
  B       5.470489      0.004888     -3.348132
  B      -5.367721      0.009291     -4.381264
  B       1.420999      5.386586     -2.492253
  B       1.402362     -5.379100     -2.492710
12
Coordinates from ORCA-job input E -295.311531211985
  B       2.070210      0.029915      5.882581
  B       3.258770      0.018332      3.674469
  B      -3.184788      4.393599      2.404337
  B      -3.202230     -4.415907      2.395870
  B       2.665312      6.137141     -1.699392
  B      -3.563234      4.736997      0.862012
  B       2.667188     -6.127633     -1.664741
  B      -3.608562     -4.794473      0.824587
  B       5.448664      0.004772     -3.310461
  B      -5.366330      0.009774     -4.390716
  B       1.417093      5.387244     -2.488619
  B       1.397908     -5.379761     -2.489927
12
Coordinates from ORCA-job input E -295.323075862955
  B       2.153692      0.029366      5.788797
  B       3.224531      0.018147      3.756178
  B      -3.181896      4.384632      2.402901
  B      -3.201022     -4.403724      2.384769
  B       2.656499      6.143351     -1.699911
  B      -3.570267      4.726250      0.855451
  B       2.657260     -6.134129     -1.666914
  B      -3.610398     -4.779734      0.823808
  B       5.426394      0.004131     -3.264728
  B      -5.365534      0.008547     -4.407700
  B       1.412908      5.390138     -2.485589
  B       1.397833     -5.386975     -2.487061
12
Coordinates from ORCA-job input E -295.330722471648
  B       2.220547      0.027605      5.711555
  B       3.198224      0.016904      3.821803
  B      -3.179680      4.376778      2.404113
  B      -3.200839     -4.392417      2.375091
  B       2.647463      6.148183     -1.700974
  B      -3.576941      4.717403      0.848968
  B       2.644808     -6.137686     -1.672337
  B      -3.611112     -4.764428      0.825875
  B       5.408164      0.003959     -3.227029
  B      -5.363678      0.006567     -4.422978
  B       1.410249      5.393461     -2.482498
  B       1.402794     -5.396330     -2.481589
12
Coordinates from ORCA-job input E -295.334016836734
  B       2.272675      0.026939      5.649812
  B       3.175520      0.017039      3.871432
  B      -3.176739      4.369235      2.402094
  B      -3.198748     -4.384539      2.372580
  B       2.642337      6.153209     -1.701453
  B      -3.579246      4.708681      0.845265
  B       2.636731     -6.140670     -1.675147
  B      -3.613395     -4.754994      0.823129
  B       5.391083      0.004319     -3.196020
  B      -5.361364      0.006139     -4.434686
  B       1.407286      5.395495     -2.479909
  B       1.403858     -5.400851     -2.477098
12
Coordinates from ORCA-job input E -295.334875014170
  B       2.302924      0.026943      5.613598
  B       3.155347      0.017565      3.893214
  B      -3.169782      4.362123      2.398491
  B      -3.191825     -4.378293      2.368158
  B       2.640274      6.155458     -1.701185
  B      -3.574976      4.699833      0.840656
  B       2.634213     -6.142584     -1.674620
  B      -3.609886     -4.746730      0.818790
  B       5.360493      0.004523     -3.169762
  B      -5.353136      0.006192     -4.437480
  B       1.405044      5.393758     -2.476674
  B       1.401312     -5.398788     -2.473186
12
Coordinates from ORCA-job input E -295.337691066327
  B       2.340111      0.026977      5.566864
  B       3.133286      0.018252      3.923506
  B      -3.162400      4.353509      2.393373
  B      -3.184374     -4.370896      2.363003
  B       2.637415      6.158378     -1.700762
  B      -3.570584      4.689191      0.835906
  B       2.630824     -6.145030     -1.673824
  B      -3.606805     -4.737101      0.813815
  B       5.327357      0.004820     -3.138948
  B      -5.345159      0.006345     -4.441826
  B       1.402284      5.392179     -2.472657
  B       1.398045     -5.396624     -2.468449
