12
Optimized coordinates extracted from calculations\B12\compact_3d\d_4.0\mult_1\output.out
B        2.37332968       0.02665724       5.52552299
B        3.11897438       0.01850522       3.95783348
B       -3.16014156       4.34885875       2.39209650
B       -3.18242120      -4.36627690       2.36063076
B        2.63418916       6.16106204      -1.70117156
B       -3.57195603       4.68371831       0.83363991
B        2.62745399      -6.14756406      -1.67432412
B       -3.60814178      -4.73134750       0.81217581
B        5.31644072       0.00490185      -3.11822355
B       -5.34447431       0.00617116      -4.44934084
B        1.40027412       5.39335721      -2.47172506
B        1.39647283      -5.39804331      -2.46711432
