12
Optimized coordinates extracted from calculations\B12\bilayer_3d\d_3.5\mult_1\output.out
B        2.31480507       0.62774874       0.51499542
B        1.09480610       1.68497898       0.27374238
B       -0.36514929       2.41452216       0.24477873
B       -2.01158327       0.12434453      -0.21937234
B       -0.63008134      -2.37175720      -0.03684274
B        0.90099397      -1.81537129       0.06493435
B        1.01784704      -0.04092022      -0.25153842
B       -0.38684453       0.89331219      -0.38956698
B       -1.75244460       1.71687576       0.02768295
B       -1.93070559      -1.50487251      -0.16210607
B       -0.47970970      -0.79362348      -0.48941344
B        2.22806613      -0.93523767       0.42270616
