12
B12 cuboctahedral_fragment; neutral charge=0; multiplicity=5; 3d initial geometry; nominal d=4.5 A; Cuboctahedron-like 12-vertex 3D structure.
B       -3.18198052      -3.18198052       0.00000000
B       -3.18198052       3.18198052       0.00000000
B        3.18198052      -3.18198052       0.00000000
B        3.18198052       3.18198052       0.00000000
B       -3.18198052       0.00000000      -3.18198052
B       -3.18198052       0.00000000       3.18198052
B        3.18198052       0.00000000      -3.18198052
B        3.18198052       0.00000000       3.18198052
B        0.00000000      -3.18198052      -3.18198052
B        0.00000000      -3.18198052       3.18198052
B        0.00000000       3.18198052      -3.18198052
B        0.00000000       3.18198052       3.18198052
