12
B12 random_3d_02; neutral charge=0; multiplicity=5; 3D initial geometry; nominal d=4.0 A; Random 3D B12 cloud with controlled minimum distance 02.
B        3.71868136       2.12873996       4.87269735
B        3.53477460       4.69499886      -1.77224050
B        0.86189864       0.58429738       5.95651076
B        0.94345453      -4.54192183      -1.77774199
B       -3.82460885       0.28610369       5.05752854
B        3.50835011      -2.17470001      -0.56950514
B       -3.33938264      -2.83708714       0.66674891
B       -1.10212061      -4.52436158      -5.20732041
B        7.19376312       3.70905513       1.36637777
B       -2.06717769       1.47796748      -0.98458499
B       -3.80397388       4.72220374      -6.59998600
B       -5.62365870      -3.52529568      -1.00848428
