12
Coordinates from ORCA-job input E -297.203536483044
  B           2.73145314757459      1.08140853409139      0.00700988032020
  B           2.44902107794923      2.79851179361676     -0.01980977234880
  B          -0.11361546175405      0.85551958426075     -0.00027065626346
  B          -2.73150366973038     -1.08146285140115     -0.01193105276576
  B          -2.44861934575405     -2.79882716740415      0.00702922400567
  B           0.11322275169931     -0.85495602270488      0.01919719937869
  B           3.91045966998233      2.28565130983070     -0.00943165987013
  B           1.13995696863416      1.83467788526033     -0.00580144225590
  B          -1.43846205946110     -0.16444633151326     -0.00436952036183
  B          -3.91025108349400     -2.28607931596399     -0.01961033033797
  B          -1.13995619327709     -1.83445607341631      0.01775623816967
  B           1.43829419763106      0.16445865534382      0.02023189232962
