12
Coordinates from ORCA-job input E -295.293356817596
  B       4.000000     -0.000000      1.240000
  B       2.000000      3.464102      1.240000
  B      -2.000000      3.464102      1.240000
  B      -4.000000      0.000000      1.240000
  B      -2.000000     -3.464102      1.240000
  B       2.000000     -3.464102      1.240000
  B       3.256256      1.880000     -1.240000
  B       0.000000      3.760000     -1.240000
  B      -3.256256      1.880000     -1.240000
  B      -3.256256     -1.880000     -1.240000
  B      -0.000000     -3.760000     -1.240000
  B       3.256256     -1.880000     -1.240000
12
Coordinates from ORCA-job input E -295.309838439483
  B       3.990829      0.000561      1.215350
  B       1.994321      3.453267      1.216150
  B      -1.994259      3.453151      1.215432
  B      -3.990288      0.000230      1.215803
  B      -1.995120     -3.453421      1.215341
  B       1.994481     -3.452729      1.214759
  B       3.245757      1.876547     -1.216471
  B      -0.000075      3.748420     -1.214193
  B      -3.245413      1.875977     -1.216127
  B      -3.245472     -1.875863     -1.216613
  B      -0.000528     -3.750101     -1.213608
  B       3.245766     -1.876040     -1.215823
12
Coordinates from ORCA-job input E -295.326790866672
  B       3.981445      0.001146      1.190550
  B       1.988563      3.442330      1.192426
  B      -1.988410      3.442063      1.190958
  B      -3.980345      0.000469      1.191473
  B      -1.990178     -3.442641      1.190767
  B       1.988871     -3.441198      1.189544
  B       3.235244      1.873122     -1.192982
  B      -0.000155      3.736813     -1.188376
  B      -3.234530      1.871956     -1.192289
  B      -3.234669     -1.871745     -1.193279
  B      -0.001090     -3.740226     -1.187148
  B       3.235254     -1.872087     -1.191645
12
Coordinates from ORCA-job input E -295.353081252858
  B       3.965663      0.002005      1.153521
  B       1.979143      3.424761      1.157303
  B      -1.978843      3.424245      1.154702
  B      -3.963738      0.000842      1.155149
  B      -1.981968     -3.425308      1.154353
  B       1.979694     -3.422722      1.152136
  B       3.218483      1.867466     -1.158090
  B      -0.000299      3.718385     -1.150032
  B      -3.217215      1.865428     -1.156895
  B      -3.217491     -1.865078     -1.158646
  B      -0.001942     -3.724351     -1.147776
  B       3.218513     -1.865674     -1.155725
12
Coordinates from ORCA-job input E -295.394455560459
  B       3.938231      0.003258      1.098564
  B       1.963298      3.395773      1.105703
  B      -1.962747      3.394824      1.101382
  B      -3.935106      0.001437      1.101244
  B      -1.967890     -3.396674      1.100785
  B       1.964240     -3.392311      1.096977
  B       3.191155      1.857759     -1.106603
  B      -0.000561      3.688361     -1.093487
  B      -3.189044      1.854457     -1.104706
  B      -3.189567     -1.853924     -1.107600
  B      -0.003247     -3.698060     -1.089548
  B       3.191237     -1.854899     -1.102711
12
Coordinates from ORCA-job input E -295.439937218594
  B       3.907608      0.004625      1.041850
  B       1.945972      3.364135      1.053160
  B      -1.945019      3.362577      1.046900
  B      -3.903209      0.002115      1.045667
  B      -1.952416     -3.365440      1.046033
  B       1.947244     -3.358891      1.040240
  B       3.162028      1.847119     -1.053848
  B      -0.000873      3.655918     -1.035542
  B      -3.158901      1.842420     -1.051259
  B      -3.159781     -1.841817     -1.055380
  B      -0.004753     -3.669645     -1.029557
  B       3.162100     -1.843116     -1.048263
12
Coordinates from ORCA-job input E -295.488167798134
  B       3.874517      0.006038      0.985819
  B       1.927681      3.330629      1.001772
  B      -1.926167      3.328295      0.993408
  B      -3.868840      0.002859      0.990800
  B      -1.935949     -3.332387      0.992278
  B       1.929178     -3.323247      0.984126
  B       3.131969      1.835673     -1.001915
  B      -0.001232      3.621846     -0.978659
  B      -3.127673      1.829508     -0.998697
  B      -3.129009     -1.828986     -1.004063
  B      -0.006409     -3.639708     -0.970306
  B       3.131934     -1.830522     -0.994563
12
Coordinates from ORCA-job input E -295.539352467950
  B       3.838480      0.007451      0.930929
  B       1.908303      3.294880      0.951784
  B      -1.906069      3.291615      0.941161
  B      -3.831563      0.003671      0.937069
  B      -1.918298     -3.297151      0.939795
  B       1.909905     -3.284989      0.928914
  B       3.100647      1.823110     -0.951029
  B      -0.001650      3.585753     -0.923303
  B      -3.095035      1.815452     -0.947275
  B      -3.096905     -1.815179     -0.953876
  B      -0.008188     -3.607755     -0.912272
  B       3.100374     -1.816859     -0.941898
12
Coordinates from ORCA-job input E -295.593819579630
  B       3.799118      0.008809      0.877649
  B       1.887795      3.256644      0.903427
  B      -1.884684      3.252308      0.890387
  B      -3.791049      0.004553      0.884906
  B      -1.899335     -3.259492      0.888833
  B       1.889361     -3.243863      0.874871
  B       3.067752      1.809152     -0.901404
  B      -0.002141      3.547367     -0.869957
  B      -3.060683      1.800028     -0.897221
  B      -3.063139     -1.800188     -0.905019
  B      -0.010052     -3.573399     -0.855942
  B       3.067056     -1.801918     -0.890531
12
Coordinates from ORCA-job input E -295.651982288477
  B       3.756203      0.010056      0.826484
  B       1.866170      3.215779      0.856883
  B      -1.862028      3.210240      0.841260
  B      -3.747123      0.005505      0.834777
  B      -1.878966     -3.219267      0.839581
  B       1.867523     -3.199717      0.822218
  B       3.033032      1.793586     -0.853265
  B      -0.002725      3.506524     -0.819032
  B      -3.024366      1.783080     -0.848749
  B      -3.027426     -1.783872     -0.857688
  B      -0.011953     -3.536351     -0.801740
  B       3.031660     -1.785563     -0.840728
12
Coordinates from ORCA-job input E -295.714244049617
  B       3.709711      0.011136      0.777932
  B       1.843442      3.172213      0.812266
  B      -1.838133      3.165338      0.793898
  B      -3.699806      0.006522      0.787142
  B      -1.857099     -3.176399      0.792167
  B       1.844351     -3.152489      0.771153
  B       2.996299      1.776296     -0.806847
  B      -0.003420      3.463143     -0.770821
  B      -2.985895      1.764545     -0.802069
  B      -2.989543     -1.766165     -0.812082
  B      -0.013839     -3.496405     -0.749988
  B       2.993933     -1.767735     -0.792752
12
Coordinates from ORCA-job input E -295.780917480708
  B       3.659871      0.012001      0.732379
  B       1.819620      3.125962      0.769631
  B      -1.813035      3.117606      0.748384
  B      -3.649366      0.007600      0.742369
  B      -1.833614     -3.130909      0.746658
  B       1.819750     -3.102256      0.721852
  B       2.957474      1.757268     -0.762370
  B      -0.004236      3.417209     -0.725456
  B      -2.945186      1.744448     -0.757369
  B      -2.949372     -1.747066     -0.768386
  B      -0.015661     -3.453421     -0.700829
  B       2.953755     -1.748442     -0.746863
12
Coordinates from ORCA-job input E -295.852034147028
  B       3.607105      0.012635      0.689955
  B       1.794646      3.077163      0.728967
  B      -1.786714      3.067196      0.704819
  B      -3.596237      0.008728      0.700591
  B      -1.808283     -3.082970      0.703061
  B       1.793490     -3.049360      0.674567
  B       2.916633      1.736599     -0.720052
  B      -0.005181      3.368792     -0.682791
  B      -2.902357      1.722909     -0.714844
  B      -2.906978     -1.726631     -0.726812
  B      -0.017397     -3.407327     -0.654108
  B       2.911272     -1.727734     -0.703352
12
Coordinates from ORCA-job input E -295.927314182731
  B       3.551816      0.013053      0.650460
  B       1.768334      3.026126      0.690223
  B      -1.759038      3.014476      0.663387
  B      -3.540815      0.009888      0.661633
  B      -1.780731     -3.032957      0.661405
  B       1.765130     -2.994493      0.629669
  B       2.873988      1.714412     -0.680101
  B      -0.006232      3.318019     -0.642404
  B      -2.857719      1.700040     -0.674692
  B      -2.862575     -1.704928     -0.687625
  B      -0.019050     -3.357993     -0.609399
  B       2.866891     -1.705642     -0.662556
12
Coordinates from ORCA-job input E -296.007425576151
  B       3.494229      0.013010      0.613697
  B       1.740321      2.973511      0.653463
  B      -1.729726      2.960113      0.624206
  B      -3.483370      0.010989      0.625375
  B      -1.750328     -2.981417      0.621838
  B       1.734215     -2.938168      0.587212
  B       2.829819      1.690761     -0.642885
  B      -0.007454      3.265030     -0.603714
  B      -2.811626      1.676107     -0.637205
  B      -2.816251     -1.682271     -0.651181
  B      -0.020483     -3.305040     -0.566270
  B       2.820653     -1.682626     -0.624537
12
Coordinates from ORCA-job input E -296.095120801266
  B       3.434929      0.012331      0.580147
  B       1.709712      2.920213      0.618290
  B      -1.699147      2.904162      0.587110
  B      -3.424308      0.012151      0.592443
  B      -1.716401     -2.928940      0.583724
  B       1.701664     -2.880398      0.547318
  B       2.784280      1.665622     -0.608805
  B      -0.008369      3.209553     -0.566642
  B      -2.763957      1.651921     -0.602098
  B      -2.767740     -1.658862     -0.617678
  B      -0.023021     -3.248420     -0.525028
  B       2.772359     -1.659334     -0.588780
12
Coordinates from ORCA-job input E -296.190451632717
  B       3.375333      0.012723      0.548441
  B       1.677755      2.866222      0.583832
  B      -1.668297      2.846169      0.551915
  B      -3.365203      0.013760      0.562928
  B      -1.682539     -2.876576      0.547573
  B       1.666618     -2.823484      0.509581
  B       2.738749      1.639435     -0.576146
  B      -0.008405      3.151980     -0.531712
  B      -2.715090      1.626469     -0.569134
  B      -2.717782     -1.633846     -0.586095
  B      -0.025542     -3.189248     -0.486412
  B       2.724403     -1.633604     -0.554771
12
Coordinates from ORCA-job input E -296.285575830035
  B       3.309556      0.013202      0.512765
  B       1.644648      2.811697      0.549978
  B      -1.637233      2.790878      0.522823
  B      -3.302824      0.017856      0.532600
  B      -1.649916     -2.825594      0.515818
  B       1.631993     -2.771978      0.476384
  B       2.688947      1.614865     -0.541703
  B      -0.007159      3.095769     -0.499325
  B      -2.665724      1.599031     -0.540334
  B      -2.664496     -1.605338     -0.555167
  B      -0.024960     -3.132794     -0.451843
  B       2.677168     -1.607594     -0.521994
12
Coordinates from ORCA-job input E -296.391889306552
  B       3.249790      0.013917      0.466948
  B       1.616143      2.763741      0.512632
  B      -1.608219      2.743619      0.491187
  B      -3.246646      0.019883      0.493526
  B      -1.621603     -2.780779      0.478915
  B       1.598398     -2.725113      0.437405
  B       2.647008      1.593122     -0.503042
  B      -0.005794      3.045174     -0.458852
  B      -2.623140      1.571816     -0.508505
  B      -2.617270     -1.580144     -0.519471
  B      -0.025958     -3.082814     -0.407510
  B       2.637291     -1.582422     -0.483233
12
Coordinates from ORCA-job input E -296.496248189799
  B       3.192572      0.015202      0.423585
  B       1.591384      2.720889      0.477845
  B      -1.576857      2.700959      0.457300
  B      -3.190353      0.018219      0.451472
  B      -1.595212     -2.740634      0.444741
  B       1.565055     -2.681401      0.402286
  B       2.607906      1.572592     -0.466347
  B      -0.006660      2.999456     -0.418487
  B      -2.583038      1.546572     -0.473943
  B      -2.574542     -1.558628     -0.484356
  B      -0.028831     -3.036510     -0.366038
  B       2.598576     -1.556715     -0.448058
12
Coordinates from ORCA-job input E -296.590224004239
  B       3.134521      0.020685      0.382448
  B       1.562397      2.681741      0.444964
  B      -1.542026      2.656943      0.424663
  B      -3.130634      0.012928      0.408209
  B      -1.571948     -2.704142      0.414773
  B       1.530975     -2.640621      0.371905
  B       2.567603      1.551760     -0.432400
  B      -0.001252      2.954211     -0.379314
  B      -2.540087      1.521310     -0.439088
  B      -2.536339     -1.535656     -0.451041
  B      -0.033215     -2.992538     -0.327919
  B       2.560006     -1.526622     -0.417201
12
Coordinates from ORCA-job input E -296.670592570821
  B       3.073840      0.028149      0.343284
  B       1.532177      2.642836      0.414635
  B      -1.505392      2.612184      0.395246
  B      -3.067690      0.004479      0.366031
  B      -1.549665     -2.666850      0.388037
  B       1.495097     -2.599466      0.344799
  B       2.526554      1.529094     -0.400813
  B       0.007222      2.907961     -0.342598
  B      -2.495193      1.491476     -0.407022
  B      -2.498052     -1.509799     -0.419104
  B      -0.038994     -2.947180     -0.293167
  B       2.520096     -1.492884     -0.389328
12
Coordinates from ORCA-job input E -296.735007255153
  B       3.015198      0.037209      0.305630
  B       1.505208      2.607872      0.386351
  B      -1.469393      2.570253      0.367600
  B      -3.006547     -0.007622      0.324876
  B      -1.532435     -2.632761      0.363591
  B       1.460999     -2.560410      0.319249
  B       2.488251      1.508091     -0.370526
  B       0.017865      2.865544     -0.308236
  B      -2.451675      1.460446     -0.376709
  B      -2.463478     -1.484910     -0.387746
  B      -0.045839     -2.904999     -0.261182
  B       2.481845     -1.458713     -0.362897
12
Coordinates from ORCA-job input E -296.782455578845
  B       2.965918      0.046308      0.269452
  B       1.489310      2.583177      0.360084
  B      -1.438749      2.537016      0.340383
  B      -2.954606     -0.022035      0.285016
  B      -1.524836     -2.608580      0.340252
  B       1.433288     -2.527968      0.293950
  B       2.458765      1.494486     -0.341008
  B       0.028434      2.834799     -0.276595
  B      -2.415553      1.432330     -0.346759
  B      -2.437672     -1.467732     -0.356881
  B      -0.054100     -2.872702     -0.231383
  B       2.449802     -1.429099     -0.336510
12
Coordinates from ORCA-job input E -296.815453838696
  B       2.937372      0.053486      0.235847
  B       1.489928      2.582135      0.336829
  B      -1.421926      2.523813      0.313966
  B      -2.924306     -0.033544      0.248567
  B      -1.529393     -2.608343      0.318042
  B       1.417288     -2.512896      0.269056
  B       2.448564      1.494124     -0.314029
  B       0.038060      2.829238     -0.248326
  B      -2.396354      1.416536     -0.316880
  B      -2.428069     -1.468374     -0.329226
  B      -0.062663     -2.862879     -0.203416
  B       2.431498     -1.413297     -0.310429
12
Coordinates from ORCA-job input E -296.839813041916
  B       2.928555      0.059758      0.206495
  B       1.502617      2.605941      0.317600
  B      -1.415475      2.532438      0.290311
  B      -2.915147     -0.043918      0.217027
  B      -1.542413     -2.634869      0.299516
  B       1.409802     -2.518406      0.246523
  B       2.456149      1.506656     -0.291480
  B       0.046960      2.848765     -0.223436
  B      -2.391765      1.414692     -0.290325
  B      -2.436025     -1.483112     -0.306864
  B      -0.069582     -2.876959     -0.177925
  B       2.426323     -1.410986     -0.287441
12
Coordinates from ORCA-job input E -296.859481054864
  B       2.926125      0.066571      0.181540
  B       1.523682      2.638890      0.299901
  B      -1.414259      2.547297      0.268829
  B      -2.911863     -0.053094      0.190703
  B      -1.564703     -2.667773      0.280967
  B       1.408758     -2.528078      0.226312
  B       2.470646      1.525815     -0.271256
  B       0.056382      2.876701     -0.202406
  B      -2.391300      1.415051     -0.265592
  B      -2.447708     -1.509722     -0.286271
  B      -0.079838     -2.897511     -0.156901
  B       2.424079     -1.414147     -0.265824
12
Coordinates from ORCA-job input E -296.874869946988
  B       2.918837      0.074119      0.155987
  B       1.536765      2.679430      0.285329
  B      -1.409385      2.565407      0.249788
  B      -2.904886     -0.070648      0.162634
  B      -1.569969     -2.717804      0.269197
  B       1.395155     -2.548352      0.208542
  B       2.483645      1.541783     -0.254380
  B       0.066600      2.909037     -0.180497
  B      -2.382766      1.419458     -0.244899
  B      -2.467865     -1.513900     -0.270420
  B      -0.085124     -2.927012     -0.133174
  B       2.418991     -1.411518     -0.248108
12
Coordinates from ORCA-job input E -296.888486034094
  B       2.909883      0.083252      0.138040
  B       1.563690      2.712603      0.268166
  B      -1.401644      2.582900      0.231258
  B      -2.895252     -0.068861      0.145216
  B      -1.608741     -2.745227      0.249125
  B       1.395480     -2.555801      0.191488
  B       2.494929      1.565975     -0.236848
  B       0.072127      2.936280     -0.164728
  B      -2.378374      1.413829     -0.222267
  B      -2.469865     -1.564297     -0.251614
  B      -0.091185     -2.944274     -0.120188
  B       2.408951     -1.416379     -0.227648
12
Coordinates from ORCA-job input E -296.898494223476
  B       2.899714      0.091725      0.121355
  B       1.582271      2.753064      0.250356
  B      -1.412212      2.590333      0.214903
  B      -2.883112     -0.087358      0.127283
  B      -1.616542     -2.790625      0.230735
  B       1.407576     -2.556597      0.177150
  B       2.506300      1.586862     -0.222139
  B       0.093195      2.964934     -0.150349
  B      -2.364267      1.422389     -0.200202
  B      -2.481227     -1.580624     -0.236385
  B      -0.127598     -2.967657     -0.105746
  B       2.395901     -1.426445     -0.206962
12
Coordinates from ORCA-job input E -296.908945436559
  B       2.887250      0.100447      0.101977
  B       1.603998      2.793506      0.237530
  B      -1.397893      2.609057      0.199367
  B      -2.867360     -0.109403      0.106440
  B      -1.641447     -2.834108      0.219799
  B       1.373868     -2.588469      0.164135
  B       2.517989      1.607456     -0.208366
  B       0.095532      2.995279     -0.133746
  B      -2.347380      1.414694     -0.183747
  B      -2.499816     -1.588466     -0.221193
  B      -0.114137     -2.994793     -0.089021
  B       2.389396     -1.405201     -0.193173
12
Coordinates from ORCA-job input E -296.916149689835
  B       2.858987      0.123023      0.085904
  B       1.606961      2.836697      0.221700
  B      -1.372536      2.636906      0.186252
  B      -2.840563     -0.102490      0.090425
  B      -1.645397     -2.878260      0.201996
  B       1.365817     -2.597742      0.151117
  B       2.523144      1.608819     -0.196211
  B       0.099662      3.026937     -0.116643
  B      -2.330542      1.399703     -0.165361
  B      -2.493196     -1.617554     -0.209018
  B      -0.125463     -3.017107     -0.075594
  B       2.353126     -1.418931     -0.174567
12
Coordinates from ORCA-job input E -296.923888927259
  B       2.834405      0.115093      0.077856
  B       1.633687      2.860753      0.199040
  B      -1.383277      2.633640      0.172129
  B      -2.814319     -0.116555      0.082104
  B      -1.669106     -2.901019      0.179753
  B       1.364824     -2.600671      0.140386
  B       2.515726      1.650815     -0.183689
  B       0.116325      3.041095     -0.108588
  B      -2.300730      1.410340     -0.142737
  B      -2.492235     -1.647885     -0.193909
  B      -0.139683     -3.029697     -0.069537
  B       2.334383     -1.415907     -0.152808
12
Coordinates from ORCA-job input E -296.929937336388
  B       2.818546      0.138389      0.063789
  B       1.656077      2.894939      0.183139
  B      -1.380526      2.639431      0.158898
  B      -2.793068     -0.144666      0.069781
  B      -1.699265     -2.929570      0.161056
  B       1.360277     -2.604869      0.131121
  B       2.536512      1.646196     -0.171897
  B       0.122569      3.061092     -0.097057
  B      -2.279602      1.394679     -0.124451
  B      -2.506156     -1.658219     -0.178505
  B      -0.156720     -3.044198     -0.061336
  B       2.321355     -1.393205     -0.134538
12
Coordinates from ORCA-job input E -296.934007683152
  B       2.778936      0.145990      0.055785
  B       1.665622      2.930598      0.160948
  B      -1.348747      2.672584      0.150832
  B      -2.758931     -0.145876      0.058324
  B      -1.690105     -2.985192      0.143235
  B       1.335144     -2.633236      0.122495
  B       2.523120      1.684626     -0.163512
  B       0.128748      3.091723     -0.084611
  B      -2.251193      1.379466     -0.106501
  B      -2.505016     -1.663565     -0.170763
  B      -0.158077     -3.078193     -0.051131
  B       2.280498     -1.398924     -0.115100
12
Coordinates from ORCA-job input E -296.936413496672
  B       2.744847      0.157770      0.048157
  B       1.650037      2.972781      0.140606
  B      -1.356649      2.679701      0.141250
  B      -2.722011     -0.141282      0.052658
  B      -1.696610     -3.016389      0.121942
  B       1.312366     -2.657584      0.115482
  B       2.522423      1.685580     -0.158289
  B       0.155562      3.117162     -0.074385
  B      -2.212959      1.401405     -0.085607
  B      -2.494404     -1.695606     -0.161511
  B      -0.144030     -3.100021     -0.045004
  B       2.241428     -1.403519     -0.095299
12
Coordinates from ORCA-job input E -296.940478572058
  B       2.737951      0.165855      0.043320
  B       1.691280      2.970383      0.128148
  B      -1.367814      2.671068      0.130939
  B      -2.705840     -0.168538      0.051072
  B      -1.724725     -3.003208      0.104990
  B       1.336183     -2.636477      0.110875
  B       2.545546      1.682746     -0.149616
  B       0.120433      3.113356     -0.072250
  B      -2.193235      1.396928     -0.071416
  B      -2.502436     -1.708839     -0.149731
  B      -0.174505     -3.096643     -0.046882
  B       2.237163     -1.386631     -0.079448
12
Coordinates from ORCA-job input E -296.942146645994
  B       2.720959      0.165106      0.041642
  B       1.696933      2.975331      0.111738
  B      -1.350739      2.686339      0.133454
  B      -2.699413     -0.185937      0.046116
  B      -1.739516     -3.013019      0.092998
  B       1.340773     -2.634849      0.110962
  B       2.543529      1.709893     -0.148654
  B       0.161663      3.127931     -0.067490
  B      -2.198449      1.346184     -0.061932
  B      -2.519497     -1.707636     -0.146693
  B      -0.188580     -3.107435     -0.046060
  B       2.232334     -1.361907     -0.066080
12
Coordinates from ORCA-job input E -296.945261149728
  B       2.697223      0.183749      0.038811
  B       1.690809      2.988718      0.101137
  B      -1.343933      2.700398      0.127837
  B      -2.672048     -0.171363      0.043170
  B      -1.714982     -3.049056      0.083805
  B       1.312487     -2.666696      0.106431
  B       2.541511      1.721326     -0.144960
  B       0.145912      3.141314     -0.062553
  B      -2.166092      1.372267     -0.051381
  B      -2.515075     -1.706531     -0.144573
  B      -0.171019     -3.134158     -0.040438
  B       2.195207     -1.379967     -0.057285
12
Coordinates from ORCA-job input E -296.946944727374
  B       2.688723      0.173653      0.037056
  B       1.680013      2.999407      0.093689
  B      -1.348034      2.699484      0.124376
  B      -2.657540     -0.180218      0.042557
  B      -1.722800     -3.036249      0.074411
  B       1.316404     -2.662446      0.105256
  B       2.552790      1.713339     -0.145139
  B       0.139233      3.148086     -0.059037
  B      -2.149345      1.378279     -0.043651
  B      -2.514877     -1.718518     -0.140271
  B      -0.170507     -3.135270     -0.041374
  B       2.185940     -1.379547     -0.047873
12
Coordinates from ORCA-job input E -296.948214863551
  B       2.680287      0.191394      0.035631
  B       1.695318      2.983895      0.083412
  B      -1.358100      2.694790      0.123459
  B      -2.652100     -0.180859      0.042148
  B      -1.724947     -3.030963      0.065093
  B       1.317773     -2.659007      0.104733
  B       2.565256      1.716504     -0.141698
  B       0.148346      3.148618     -0.058804
  B      -2.148170      1.368284     -0.035076
  B      -2.526119     -1.727828     -0.137815
  B      -0.176109     -3.142868     -0.041884
  B       2.178564     -1.361960     -0.039198
12
Coordinates from ORCA-job input E -296.950465440833
  B       2.661798      0.191977      0.034151
  B       1.690814      2.979030      0.068407
  B      -1.352322      2.709437      0.121141
  B      -2.636862     -0.189340      0.039317
  B      -1.721269     -3.029971      0.052289
  B       1.323475     -2.665058      0.102895
  B       2.577745      1.731117     -0.139190
  B       0.143918      3.163230     -0.054623
  B      -2.132264      1.360792     -0.023841
  B      -2.546129     -1.725252     -0.133464
  B      -0.168375     -3.162244     -0.041429
  B       2.159472     -1.363718     -0.025654
12
Coordinates from ORCA-job input E -296.952144021481
  B       2.638131      0.185748      0.030240
  B       1.669134      2.977716      0.048293
  B      -1.347772      2.727806      0.117769
  B      -2.601815     -0.190584      0.035709
  B      -1.695718     -3.022196      0.032616
  B       1.307776     -2.689323      0.102131
  B       2.611528      1.748605     -0.136946
  B       0.125213      3.188815     -0.046742
  B      -2.100636      1.359860     -0.008385
  B      -2.563573     -1.739198     -0.127919
  B      -0.177463     -3.196976     -0.038003
  B       2.135196     -1.350273     -0.008762
12
Coordinates from ORCA-job input E -296.955538449057
  B       2.620473      0.205043      0.026541
  B       1.660466      2.953497      0.031531
  B      -1.361192      2.727559      0.113281
  B      -2.587522     -0.202549      0.031607
  B      -1.692373     -2.996996      0.017812
  B       1.315045     -2.686811      0.097766
  B       2.648773      1.750729     -0.129239
  B       0.123804      3.199505     -0.041435
  B      -2.082769      1.357591      0.002919
  B      -2.600715     -1.736690     -0.118755
  B      -0.149428     -3.216323     -0.035492
  B       2.105437     -1.354557      0.003464
12
Coordinates from ORCA-job input E -296.957348942805
  B       2.590304      0.218307      0.021378
  B       1.646620      2.900982      0.014827
  B      -1.356534      2.738677      0.107964
  B      -2.573826     -0.204412      0.027111
  B      -1.675303     -2.970519      0.001934
  B       1.328857     -2.675264      0.093276
  B       2.679402      1.751485     -0.118471
  B       0.119890      3.208542     -0.033444
  B      -2.060527      1.360138      0.011241
  B      -2.651743     -1.753171     -0.108381
  B      -0.130032     -3.244055     -0.030365
  B       2.082893     -1.330711      0.012931
12
Coordinates from ORCA-job input E -296.958650010781
  B       2.580763      0.233968      0.016268
  B       1.639767      2.862317     -0.000103
  B      -1.375253      2.727052      0.101727
  B      -2.547435     -0.227987      0.021341
  B      -1.649835     -2.903723     -0.010134
  B       1.309961     -2.679310      0.087089
  B       2.741278      1.773034     -0.106977
  B       0.107409      3.224348     -0.024230
  B      -2.048150      1.329438      0.015793
  B      -2.678984     -1.758502     -0.094972
  B      -0.134444     -3.253028     -0.023110
  B       2.054924     -1.327607      0.017309
12
Coordinates from ORCA-job input E -296.959050991373
  B       2.574710      0.250117      0.012034
  B       1.614699      2.832586     -0.007373
  B      -1.371506      2.710666      0.093062
  B      -2.537830     -0.221085      0.017006
  B      -1.649400     -2.881967     -0.017707
  B       1.326002     -2.683232      0.080568
  B       2.772139      1.787212     -0.096407
  B       0.099914      3.209970     -0.016385
  B      -2.028734      1.326066      0.016794
  B      -2.723390     -1.749901     -0.083789
  B      -0.131443     -3.269915     -0.016216
  B       2.054838     -1.310517      0.018414
12
Coordinates from ORCA-job input E -296.959359696649
  B       2.559630      0.259757      0.008447
  B       1.624333      2.805601     -0.008725
  B      -1.358230      2.724692      0.088478
  B      -2.551450     -0.248624      0.015091
  B      -1.634833     -2.881397     -0.019687
  B       1.314047     -2.651485      0.075400
  B       2.781854      1.774274     -0.089689
  B       0.119588      3.202551     -0.009961
  B      -2.027343      1.329802      0.014048
  B      -2.745473     -1.782183     -0.078343
  B      -0.121855     -3.246030     -0.010694
  B       2.039731     -1.286956      0.015635
12
Coordinates from ORCA-job input E -296.959956303716
  B       2.577170      0.255962      0.006900
  B       1.638045      2.798909     -0.007949
  B      -1.369737      2.699820      0.087869
  B      -2.563113     -0.240419      0.013596
  B      -1.641935     -2.863912     -0.018298
  B       1.314000     -2.634015      0.074515
  B       2.801450      1.777085     -0.089883
  B       0.114245      3.182753     -0.005497
  B      -2.048354      1.310602      0.010676
  B      -2.754755     -1.778993     -0.078049
  B      -0.121566     -3.221869     -0.006530
  B       2.054549     -1.285923      0.012647
12
Coordinates from ORCA-job input E -296.960021340138
  B       2.618715      0.295778      0.004747
  B       1.654946      2.809169     -0.005937
  B      -1.352079      2.651886      0.085670
  B      -2.584152     -0.262524      0.011094
  B      -1.687607     -2.848426     -0.016330
  B       1.306520     -2.624629      0.073433
  B       2.831716      1.823886     -0.089381
  B       0.123281      3.138599      0.001487
  B      -2.059741      1.279573      0.003838
  B      -2.776781     -1.787737     -0.076143
  B      -0.160831     -3.196817      0.000449
  B       2.086012     -1.278757      0.007072
12
Coordinates from ORCA-job input E -296.961572436622
  B       2.637298      0.299612      0.001820
  B       1.670130      2.796034     -0.005735
  B      -1.357490      2.629888      0.079531
  B      -2.616466     -0.274066      0.008970
  B      -1.687821     -2.844861     -0.016042
  B       1.306581     -2.593303      0.067427
  B       2.877325      1.827778     -0.082662
  B       0.132109      3.111354      0.007835
  B      -2.081629      1.268331     -0.000749
  B      -2.821260     -1.799667     -0.069134
  B      -0.159024     -3.161560      0.005761
  B       2.100249     -1.259540      0.002977
12
Coordinates from ORCA-job input E -296.963068385235
  B       2.670045      0.316696     -0.000849
  B       1.694645      2.768934     -0.002341
  B      -1.342004      2.578475      0.075226
  B      -2.669361     -0.295777      0.007157
  B      -1.699910     -2.831938     -0.012819
  B       1.296041     -2.526681      0.062613
  B       2.928866      1.835580     -0.077613
  B       0.151452      3.043134      0.014575
  B      -2.114454      1.243455     -0.009718
  B      -2.879538     -1.822457     -0.063531
  B      -0.160763     -3.087020      0.011328
  B       2.124980     -1.222402     -0.004028
12
Coordinates from ORCA-job input E -296.964723115976
  B       2.712429      0.346569     -0.002772
  B       1.726694      2.747973      0.000864
  B      -1.322417      2.517425      0.071354
  B      -2.725257     -0.326418      0.005667
  B      -1.724263     -2.818718     -0.009453
  B       1.282231     -2.458769      0.058167
  B       2.992729      1.859165     -0.073032
  B       0.176417      2.972897      0.020158
  B      -2.147413      1.210367     -0.018306
  B      -2.945603     -1.853209     -0.057904
  B      -0.176269     -3.014100      0.015619
  B       2.150722     -1.183183     -0.010361
12
Coordinates from ORCA-job input E -296.967741216688
  B       2.765101      0.390406     -0.005657
  B       1.768840      2.706284      0.005018
  B      -1.295634      2.419903      0.064474
  B      -2.793584     -0.369847      0.003103
  B      -1.755894     -2.785882     -0.004866
  B       1.260062     -2.358721      0.050609
  B       3.083304      1.893529     -0.063919
  B       0.210160      2.867052      0.027517
  B      -2.188465      1.157790     -0.030750
  B      -3.035827     -1.891803     -0.046868
  B      -0.200226     -2.906443      0.020960
  B       2.182163     -1.122268     -0.019620
12
Coordinates from ORCA-job input E -296.974005331303
  B       2.827489      0.457187     -0.009357
  B       1.825788      2.632463      0.010538
  B      -1.255431      2.277132      0.053106
  B      -2.876209     -0.433973     -0.000432
  B      -1.797344     -2.724844      0.001114
  B       1.225686     -2.212014      0.038390
  B       3.208700      1.942909     -0.047187
  B       0.259005      2.712828      0.035582
  B      -2.237063      1.079398     -0.048199
  B      -3.160667     -1.948043     -0.027045
  B      -0.235810     -2.751880      0.026168
  B       2.215857     -1.031163     -0.032678
12
Coordinates from ORCA-job input E -296.983656699589
  B       2.873436      0.529929     -0.011795
  B       1.880125      2.546063      0.014888
  B      -1.210949      2.130408      0.042993
  B      -2.936691     -0.500510     -0.002875
  B      -1.840227     -2.649963      0.005861
  B       1.185280     -2.066284      0.027856
  B       3.319853      1.993537     -0.031171
  B       0.309129      2.558297      0.039902
  B      -2.263867      0.993109     -0.062348
  B      -3.271559     -2.000705     -0.008345
  B      -0.275679     -2.600651      0.028384
  B       2.231148     -0.933229     -0.043350
12
Coordinates from ORCA-job input E -296.996677103432
  B       2.908278      0.607285     -0.013233
  B       1.936582      2.456079      0.018683
  B      -1.161147      1.983175      0.034204
  B      -2.982529     -0.569737     -0.004421
  B      -1.886758     -2.570322      0.010067
  B       1.138478     -1.920487      0.018831
  B       3.418608      2.044857     -0.016493
  B       0.364282      2.405139      0.041492
  B      -2.274283      0.899717     -0.073899
  B      -3.371841     -2.053975      0.008392
  B      -0.322024     -2.451724      0.028654
  B       2.232352     -0.830007     -0.052277
12
Coordinates from ORCA-job input E -297.011384406017
  B       2.936727      0.683711     -0.013505
  B       1.996803      2.367916      0.022050
  B      -1.107358      1.832688      0.026322
  B      -3.018139     -0.642627     -0.005020
  B      -1.939599     -2.486974      0.014144
  B       1.085798     -1.771943      0.010692
  B       3.506006      2.094074     -0.002583
  B       0.422129      2.250705      0.040789
  B      -2.273423      0.797956     -0.083493
  B      -3.460718     -2.105368      0.023549
  B      -0.374982     -2.298491      0.027385
  B       2.226756     -0.721649     -0.060331
12
Coordinates from ORCA-job input E -297.024544242018
  B       2.950513      0.777182     -0.009312
  B       2.070572      2.325142      0.015332
  B      -1.027810      1.697359      0.026793
  B      -3.014990     -0.711352     -0.001114
  B      -2.037361     -2.435424      0.008897
  B       1.011765     -1.662933      0.012907
  B       3.573562      2.157524     -0.004724
  B       0.488654      2.129057      0.034629
  B      -2.205631      0.658741     -0.072571
  B      -3.520645     -2.144935      0.018639
  B      -0.460410     -2.186545      0.023991
  B       2.171782     -0.603818     -0.053467
12
Coordinates from ORCA-job input E -297.027813790286
  B       2.976239      0.830413     -0.005587
  B       2.115829      2.309170      0.014149
  B      -0.957942      1.570893      0.021288
  B      -3.028126     -0.787124      0.000324
  B      -2.097203     -2.377696      0.012438
  B       0.952081     -1.545935      0.006899
  B       3.653729      2.215582      0.003570
  B       0.551402      2.034809      0.029346
  B      -2.161811      0.552466     -0.069338
  B      -3.613962     -2.205030      0.022145
  B      -0.534454     -2.073686      0.021722
  B       2.144219     -0.523862     -0.056958
12
Coordinates from ORCA-job input E -297.031518387248
  B       2.983376      0.829362      0.003488
  B       2.134634      2.411764      0.003226
  B      -0.916556      1.557304      0.022292
  B      -3.004061     -0.808934      0.006360
  B      -2.147445     -2.416807      0.007157
  B       0.918259     -1.560861      0.008003
  B       3.656232      2.227627     -0.000758
  B       0.581692      2.071759      0.021583
  B      -2.090060      0.503160     -0.050689
  B      -3.625427     -2.206518      0.010937
  B      -0.592890     -2.083904      0.017107
  B       2.102246     -0.523952     -0.048705
12
Coordinates from ORCA-job input E -297.033806467010
  B       2.968864      0.827233      0.010302
  B       2.143571      2.463953     -0.005621
  B      -0.878912      1.526413      0.021200
  B      -2.980096     -0.815518      0.009772
  B      -2.149558     -2.437574      0.003671
  B       0.890578     -1.545932      0.005619
  B       3.631732      2.213572      0.000806
  B       0.606631      2.079536      0.015985
  B      -2.034999      0.473785     -0.039868
  B      -3.647986     -2.202696      0.008611
  B      -0.614770     -2.073486      0.012812
  B       2.064945     -0.509286     -0.043292
12
Coordinates from ORCA-job input E -297.035673125906
  B       2.936982      0.835005      0.018569
  B       2.163217      2.532826     -0.019854
  B      -0.807129      1.478251      0.019246
  B      -2.946974     -0.840461      0.016206
  B      -2.177585     -2.485758     -0.007288
  B       0.828087     -1.510926      0.003624
  B       3.640014      2.208190      0.002765
  B       0.655364      2.082590      0.007782
  B      -1.953301      0.420006     -0.024101
  B      -3.671116     -2.205251      0.008746
  B      -0.659561     -2.052830      0.004204
  B       1.992001     -0.461641     -0.029899
12
Coordinates from ORCA-job input E -297.040977632675
  B       2.870337      0.860209      0.026881
  B       2.202965      2.632533     -0.040175
  B      -0.704289      1.430402      0.015564
  B      -2.880341     -0.866741      0.024176
  B      -2.219313     -2.579215     -0.025368
  B       0.739245     -1.473258      0.000974
  B       3.652556      2.193349      0.010106
  B       0.725354      2.107618     -0.002277
  B      -1.834305      0.355499     -0.005426
  B      -3.692311     -2.203156      0.015051
  B      -0.729433     -2.058100     -0.007848
  B       1.869534     -0.399142     -0.011656
12
Coordinates from ORCA-job input E -297.072093539062
  B       2.854234      0.913929      0.029025
  B       2.267021      2.701435     -0.044034
  B      -0.607078      1.342683      0.003277
  B      -2.794143     -0.933598      0.029563
  B      -2.274855     -2.580288     -0.030411
  B       0.608359     -1.393503     -0.006728
  B       3.713269      2.236027      0.009852
  B       0.799452      2.016656     -0.015076
  B      -1.792889      0.236099      0.018142
  B      -3.779829     -2.231337      0.014983
  B      -0.806031     -2.026943     -0.022680
  B       1.812489     -0.281160      0.014087
12
Coordinates from ORCA-job input E -293.275312888302
  B       2.532498      1.225142      0.077203
  B       2.305963      2.557205     -0.122200
  B       0.174609      0.414304     -0.005343
  B      -2.635872     -1.218180      0.105988
  B      -2.293814     -2.653080     -0.160774
  B      -0.155406     -0.278994      0.014490
  B       3.829834      2.274147      0.032431
  B       1.565660      1.322154     -0.051747
  B      -1.168508     -0.378755      0.046163
  B      -3.733503     -2.476242      0.036940
  B      -1.541874     -1.301168     -0.010341
  B       1.120412      0.513468      0.037189
12
Coordinates from ORCA-job input E -293.924111901842
  B       2.589408      1.253233      0.080237
  B       2.361859      2.597328     -0.124964
  B       0.176947      0.449389     -0.008679
  B      -2.685524     -1.247715      0.109592
  B      -2.332627     -2.689792     -0.164251
  B      -0.175550     -0.314010      0.013429
  B       3.886594      2.299004      0.037269
  B       1.590037      1.370636     -0.056284
  B      -1.197064     -0.388917      0.046699
  B      -3.778425     -2.510576      0.040942
  B      -1.577132     -1.342077     -0.011356
  B       1.141477      0.523498      0.037366
12
Coordinates from ORCA-job input E -294.466980836252
  B       2.649845      1.279546      0.083477
  B       2.420577      2.637681     -0.129147
  B       0.170104      0.480939     -0.011203
  B      -2.742122     -1.278896      0.113791
  B      -2.367196     -2.726896     -0.169115
  B      -0.189037     -0.340009      0.013149
  B       3.946162      2.322232      0.041324
  B       1.612992      1.420104     -0.061236
  B      -1.234354     -0.393882      0.048216
  B      -3.822255     -2.552818      0.043675
  B      -1.612540     -1.379779     -0.011543
  B       1.167824      0.531777      0.038611
12
Coordinates from ORCA-job input E -295.134334564328
  B       2.732027      1.313464      0.088250
  B       2.503859      2.695411     -0.136317
  B       0.157817      0.529540     -0.014887
  B      -2.823938     -1.322329      0.120439
  B      -2.413735     -2.779728     -0.177211
  B      -0.202571     -0.377405      0.013078
  B       4.028522      2.351063      0.047760
  B       1.643610      1.494027     -0.068936
  B      -1.288470     -0.395166      0.050917
  B      -3.883440     -2.613733      0.047677
  B      -1.659677     -1.434146     -0.011687
  B       1.205996      0.539001      0.040918
12
Coordinates from ORCA-job input E -295.867205451801
  B       2.841347      1.349406      0.095928
  B       2.611528      2.770087     -0.149260
  B       0.128093      0.597257     -0.019530
  B      -2.939133     -1.377272      0.130618
  B      -2.468025     -2.848267     -0.191447
  B      -0.204391     -0.424181      0.014530
  B       4.133462      2.385562      0.056188
  B       1.673353      1.595235     -0.080568
  B      -1.370101     -0.382210      0.056038
  B      -3.961300     -2.698319      0.052238
  B      -1.712512     -1.504600     -0.011133
  B       1.267678      0.537301      0.046399
12
Coordinates from ORCA-job input E -296.378184580479
  B       2.918629      1.369414      0.103324
  B       2.703446      2.837762     -0.162357
  B       0.105462      0.677614     -0.025353
  B      -3.029927     -1.417981      0.140793
  B      -2.515272     -2.909979     -0.205615
  B      -0.197998     -0.485192      0.015601
  B       4.212808      2.403635      0.067498
  B       1.688173      1.698416     -0.092351
  B      -1.428720     -0.354480      0.060308
  B      -4.028093     -2.759028      0.060198
  B      -1.740924     -1.579839     -0.013256
  B       1.312417      0.519657      0.051210
12
Coordinates from ORCA-job input E -296.701882690678
  B       2.997159      1.373051      0.112683
  B       2.760662      2.878880     -0.176260
  B       0.059866      0.733738     -0.029126
  B      -3.112536     -1.442964      0.148917
  B      -2.544267     -2.947963     -0.220459
  B      -0.166086     -0.527670      0.019549
  B       4.267073      2.428107      0.072317
  B       1.667695      1.765185     -0.102230
  B      -1.499591     -0.320454      0.064990
  B      -4.076012     -2.807094      0.063659
  B      -1.737060     -1.624320     -0.013914
  B       1.383098      0.491505      0.059874
12
Coordinates from ORCA-job input E -296.906567711182
  B       2.988565      1.351362      0.117657
  B       2.777143      2.910762     -0.185645
  B       0.029797      0.793930     -0.034273
  B      -3.117566     -1.426706      0.155446
  B      -2.546802     -2.967473     -0.229383
  B      -0.132526     -0.609265      0.017985
  B       4.264872      2.415631      0.086233
  B       1.639511      1.829431     -0.110361
  B      -1.507626     -0.259820      0.066649
  B      -4.077486     -2.774280      0.076913
  B      -1.703209     -1.695072     -0.023055
  B       1.385327      0.431499      0.061833
12
Coordinates from ORCA-job input E -297.024479364431
  B       2.994269      1.309690      0.125334
  B       2.729209      2.895903     -0.193642
  B      -0.038084      0.811359     -0.035738
  B      -3.118360     -1.384689      0.157849
  B      -2.522233     -2.939378     -0.236410
  B      -0.060391     -0.664296      0.021357
  B       4.227943      2.411973      0.088033
  B       1.547300      1.825934     -0.114639
  B      -1.522548     -0.220682      0.066548
  B      -4.049997     -2.715135      0.079840
  B      -1.611802     -1.696798     -0.027139
  B       1.424694      0.366120      0.068607
12
Coordinates from ORCA-job input E -297.104342038551
  B       2.903508      1.231488      0.130358
  B       2.650496      2.870113     -0.197885
  B      -0.072303      0.832876     -0.035886
  B      -3.016557     -1.301641      0.155287
  B      -2.484127     -2.905133     -0.233049
  B      -0.007198     -0.729652      0.015716
  B       4.124970      2.365233      0.099149
  B       1.445573      1.836586     -0.117313
  B      -1.463661     -0.152761      0.062461
  B      -3.978742     -2.593766      0.093266
  B      -1.495904     -1.725199     -0.040821
  B       1.393944      0.271854      0.068718
12
Coordinates from ORCA-job input E -295.788181620873
  B       2.233435      0.606009      0.136282
  B       1.872041      2.412742     -0.186895
  B      -0.355841      0.907909     -0.040794
  B      -2.235107     -0.720997      0.101973
  B      -1.995063     -2.490891     -0.227722
  B       0.451424     -0.826911      0.020169
  B       3.321824      1.919649      0.124630
  B       0.664903      1.563149     -0.105509
  B      -1.096769      0.281487      0.011635
  B      -3.459639     -1.935773      0.166046
  B      -0.625402     -1.464814     -0.061565
  B       1.224194     -0.251559      0.061750
12
Coordinates from ORCA-job input E -296.578156935530
  B       2.348560      0.695811      0.139644
  B       1.993761      2.497009     -0.188951
  B      -0.316918      0.933930     -0.042787
  B      -2.344987     -0.803366      0.104726
  B      -2.097486     -2.567479     -0.228936
  B       0.392096     -0.860437      0.017262
  B       3.441868      2.002410      0.125861
  B       0.770156      1.633411     -0.109342
  B      -1.193098      0.206505      0.016618
  B      -3.563388     -2.020403      0.166429
  B      -0.735261     -1.532566     -0.064978
  B       1.304697     -0.184827      0.064452
12
Coordinates from ORCA-job input E -296.923023559022
  B       2.477097      0.804101      0.140743
  B       2.132312      2.591550     -0.188049
  B      -0.313115      0.936125     -0.042637
  B      -2.453855     -0.888054      0.104508
  B      -2.209778     -2.640740     -0.224490
  B       0.361511     -0.885680      0.016771
  B       3.579292      2.094548      0.127355
  B       0.876574      1.709430     -0.111375
  B      -1.274785      0.130674      0.018729
  B      -3.667368     -2.100240      0.164466
  B      -0.861134     -1.619257     -0.068648
  B       1.353247     -0.132456      0.062625
12
Coordinates from ORCA-job input E -297.087471063892
  B       2.567543      0.880358      0.139419
  B       2.216595      2.646921     -0.184718
  B      -0.290753      0.954225     -0.043555
  B      -2.534748     -0.942904      0.103399
  B      -2.286106     -2.675913     -0.217008
  B       0.327009     -0.925541      0.015372
  B       3.660858      2.162642      0.126276
  B       0.948376      1.755056     -0.110874
  B      -1.356297      0.076466      0.020018
  B      -3.729950     -2.154628      0.159462
  B      -0.953416     -1.687835     -0.070955
  B       1.430888     -0.088847      0.063164
12
Coordinates from ORCA-job input E -297.148164286808
  B       2.653383      0.959314      0.135618
  B       2.319087      2.704293     -0.179645
  B      -0.278987      0.966770     -0.043824
  B      -2.624554     -1.007874      0.101746
  B      -2.345278     -2.713001     -0.205115
  B       0.288113     -0.939999      0.014149
  B       3.763967      2.211435      0.125750
  B       1.018455      1.803179     -0.108817
  B      -1.416903      0.022599      0.018885
  B      -3.788732     -2.223902      0.152799
  B      -1.039909     -1.742920     -0.070270
  B       1.451357     -0.039893      0.058723
12
Coordinates from ORCA-job input E -297.164491463171
  B       2.676550      1.001219      0.122465
  B       2.349276      2.711173     -0.162410
  B      -0.276197      0.984090     -0.042498
  B      -2.650650     -1.027983      0.091323
  B      -2.370011     -2.712806     -0.183013
  B       0.281421     -0.965818      0.014693
  B       3.790901      2.235034      0.116113
  B       1.067114      1.818982     -0.097460
  B      -1.479173     -0.004131      0.012357
  B      -3.803368     -2.239748      0.140385
  B      -1.084241     -1.789092     -0.065901
  B       1.498378     -0.010919      0.053948
12
Coordinates from ORCA-job input E -297.171339481000
  B       2.723823      1.052711      0.108178
  B       2.411379      2.754638     -0.139500
  B      -0.258379      0.973448     -0.040993
  B      -2.715182     -1.061156      0.076661
  B      -2.401508     -2.744696     -0.162036
  B       0.251505     -0.976458      0.016180
  B       3.861520      2.260424      0.102771
  B       1.092638      1.835487     -0.083450
  B      -1.477415     -0.030812      0.001003
  B      -3.854151     -2.273929      0.132054
  B      -1.115524     -1.822327     -0.056186
  B       1.481294      0.032670      0.045317
12
Coordinates from ORCA-job input E -297.169557236828
  B       2.808320      1.157560      0.109148
  B       2.528514      2.843580     -0.145122
  B      -0.201742      0.935754     -0.041005
  B      -2.839641     -1.136506      0.082129
  B      -2.457317     -2.813111     -0.161109
  B       0.171995     -0.963546      0.008099
  B       4.009149      2.309140      0.115019
  B       1.167716      1.864048     -0.089442
  B      -1.479121     -0.092129      0.007072
  B      -3.961472     -2.351907      0.137876
  B      -1.196670     -1.878254     -0.065709
  B       1.450268      0.125371      0.043045
12
Coordinates from ORCA-job input E -297.181164832031
  B       2.769325      1.121388      0.091256
  B       2.489472      2.809817     -0.115894
  B      -0.202446      0.939244     -0.035135
  B      -2.805344     -1.111532      0.067213
  B      -2.435080     -2.787387     -0.131138
  B       0.185744     -0.947843      0.014866
  B       3.959341      2.287854      0.083094
  B       1.156672      1.844870     -0.069857
  B      -1.482809     -0.081795     -0.001275
  B      -3.917101     -2.337461      0.104276
  B      -1.169933     -1.846266     -0.045177
  B       1.452159      0.109110      0.037770
12
Coordinates from ORCA-job input E -297.194328074420
  B       2.718640      1.076965      0.072365
  B       2.463394      2.772521     -0.084024
  B      -0.182425      0.939026     -0.026581
  B      -2.766723     -1.085229      0.049764
  B      -2.415153     -2.766813     -0.089938
  B       0.170519     -0.908663      0.017585
  B       3.908131      2.251725      0.047527
  B       1.140776      1.824066     -0.046371
  B      -1.463052     -0.102981     -0.008684
  B      -3.864373     -2.327643      0.063049
  B      -1.135893     -1.800882     -0.024414
  B       1.426160      0.127909      0.029722
12
Coordinates from ORCA-job input E -297.151390344591
  B       2.658418      1.037980     -0.007277
  B       2.492696      2.759110      0.044397
  B      -0.061432      0.876278      0.019802
  B      -2.672084     -1.077877     -0.077063
  B      -2.434677     -2.794145      0.084893
  B       0.003950     -0.787462      0.013619
  B       3.884918      2.221807     -0.087423
  B       1.125789      1.830696      0.055423
  B      -1.349484     -0.255546     -0.035535
  B      -3.856771     -2.311270     -0.053704
  B      -1.139476     -1.754755      0.038757
  B       1.348154      0.255185      0.004112
12
Coordinates from ORCA-job input E -297.132414402734
  B       2.827180      1.178168      0.004590
  B       2.539014      2.849616      0.057158
  B      -0.243432      0.910132     -0.039414
  B      -2.799619     -1.154011     -0.059551
  B      -2.465793     -2.896115      0.043320
  B       0.245063     -0.919856      0.012472
  B       4.077466      2.319221     -0.022072
  B       1.196993      1.930117      0.000655
  B      -1.741298     -0.021012     -0.058673
  B      -4.051741     -2.322590      0.041568
  B      -1.168195     -2.008807      0.009645
  B       1.584362      0.135137      0.010302
12
Coordinates from ORCA-job input E -297.161628527387
  B       2.778450      1.115385      0.011455
  B       2.482175      2.811673      0.047282
  B      -0.230399      0.893892     -0.043022
  B      -2.747146     -1.126348     -0.045652
  B      -2.432359     -2.855762      0.040988
  B       0.242569     -0.895306      0.002892
  B       3.993362      2.286200     -0.013645
  B       1.157430      1.893359     -0.001419
  B      -1.669559      0.005432     -0.054158
  B      -3.981613     -2.302127      0.037413
  B      -1.133695     -1.936121      0.010564
  B       1.540785      0.109723      0.007302
12
Coordinates from ORCA-job input E -297.138859734086
  B       2.623085      0.957594      0.005470
  B       2.289774      2.704334      0.020729
  B      -0.136094      0.805108     -0.015448
  B      -2.577010     -1.060171     -0.007743
  B      -2.315547     -2.707634      0.018232
  B       0.146983     -0.820124      0.036520
  B       3.741714      2.205931     -0.064799
  B       1.055150      1.721903      0.013522
  B      -1.375708      0.060893     -0.017613
  B      -3.741124     -2.228501     -0.052479
  B      -1.069745     -1.670948      0.037654
  B       1.358520      0.031616      0.025955
12
Coordinates from ORCA-job input E -297.186863653914
  B       2.687907      1.028719      0.001455
  B       2.389850      2.763524      0.020217
  B      -0.126150      0.832684     -0.014273
  B      -2.669128     -1.105522     -0.000807
  B      -2.374845     -2.764653      0.021623
  B       0.143841     -0.834920      0.043632
  B       3.851404      2.244429     -0.068017
  B       1.125896      1.788147      0.012582
  B      -1.481257      0.001529     -0.013945
  B      -3.834173     -2.299609     -0.063765
  B      -1.133088     -1.739998      0.030599
  B       1.419743      0.085671      0.030699
12
Coordinates from ORCA-job input E -297.197295339949
  B       2.708893      1.061395      0.005571
  B       2.430967      2.788204      0.010825
  B      -0.113027      0.835787     -0.008618
  B      -2.685269     -1.113138      0.004396
  B      -2.420726     -2.792511      0.016234
  B       0.130815     -0.850223      0.050696
  B       3.886905      2.269521     -0.076370
  B       1.141553      1.810646      0.011899
  B      -1.484436     -0.061839     -0.006847
  B      -3.886101     -2.295424     -0.073080
  B      -1.141963     -1.783916      0.024874
  B       1.432389      0.131499      0.040420
12
Coordinates from ORCA-job input E -297.195966559793
  B       2.782948      1.117791      0.011066
  B       2.537093      2.829139     -0.025104
  B      -0.103383      0.883205      0.020006
  B      -2.764038     -1.131879      0.033114
  B      -2.498270     -2.847298      0.000392
  B       0.063544     -0.852396      0.065478
  B       3.991006      2.296107     -0.074509
  B       1.168235      1.890450     -0.009233
  B      -1.466421     -0.216989      0.029784
  B      -3.967824     -2.352233     -0.110188
  B      -1.183220     -1.847922      0.009255
  B       1.440330      0.232023      0.049939
12
Coordinates from ORCA-job input E -297.200515403446
  B       2.760394      1.101092      0.016227
  B       2.492955      2.810250     -0.035344
  B      -0.109353      0.876496      0.017215
  B      -2.739193     -1.107276      0.035053
  B      -2.483726     -2.823791     -0.006929
  B       0.090161     -0.860661      0.059834
  B       3.947724      2.295031     -0.058060
  B       1.153963      1.866665     -0.016104
  B      -1.454881     -0.196001      0.031716
  B      -3.947341     -2.316423     -0.098045
  B      -1.160412     -1.849362      0.007564
  B       1.449709      0.203980      0.046874
12
Coordinates from ORCA-job input E -297.202955320227
  B       2.732762      1.081499      0.009181
  B       2.434203      2.794772     -0.037552
  B      -0.104685      0.849842      0.024516
  B      -2.729566     -1.078948      0.024830
  B      -2.458195     -2.787645     -0.003896
  B       0.123446     -0.862818      0.064917
  B       3.897231      2.289648     -0.061879
  B       1.136228      1.830965     -0.007230
  B      -1.423693     -0.169181      0.031367
  B      -3.914281     -2.276920     -0.105908
  B      -1.135006     -1.837484      0.018183
  B       1.441554      0.166269      0.043472
12
Coordinates from ORCA-job input E -297.203104643803
  B       2.733895      1.075650      0.016195
  B       2.450876      2.793349     -0.041509
  B      -0.118495      0.866650      0.016919
  B      -2.735061     -1.080217      0.025090
  B      -2.446562     -2.791073     -0.013294
  B       0.112644     -0.854051      0.055899
  B       3.907523      2.277928     -0.043088
  B       1.139290      1.838836     -0.016874
  B      -1.437888     -0.160447      0.028951
  B      -3.903746     -2.303926     -0.077086
  B      -1.139923     -1.827493      0.006654
  B       1.437448      0.164795      0.042143
12
Coordinates from ORCA-job input E -297.203145790370
  B       2.735483      1.078759      0.008799
  B       2.450508      2.800263     -0.038854
  B      -0.119258      0.861553      0.016577
  B      -2.724305     -1.086582      0.031367
  B      -2.450418     -2.800320     -0.008821
  B       0.113272     -0.857421      0.053580
  B       3.910115      2.284440     -0.039100
  B       1.137877      1.838854     -0.016916
  B      -1.441066     -0.160354      0.030395
  B      -3.913033     -2.284681     -0.091722
  B      -1.138451     -1.836235      0.020630
  B       1.439277      0.161723      0.034064
12
Coordinates from ORCA-job input E -297.203258728843
  B       2.733630      1.080069      0.004213
  B       2.451431      2.798509     -0.038268
  B      -0.113470      0.856790      0.025186
  B      -2.736200     -1.076873      0.017282
  B      -2.445970     -2.796919     -0.000860
  B       0.110282     -0.852670      0.051184
  B       3.911747      2.284188     -0.039940
  B       1.142614      1.830110     -0.011515
  B      -1.441452     -0.161223      0.031218
  B      -3.904905     -2.299567     -0.090866
  B      -1.143654     -1.828463      0.021825
  B       1.435947      0.166048      0.030541
12
Coordinates from ORCA-job input E -297.203339516474
  B       2.732839      1.080513      0.004897
  B       2.448000      2.799737     -0.040340
  B      -0.114101      0.855723      0.024344
  B      -2.730345     -1.079116      0.017006
  B      -2.447947     -2.797867     -0.002903
  B       0.112939     -0.855882      0.048830
  B       3.909213      2.287124     -0.034260
  B       1.141406      1.830521     -0.013710
  B      -1.439489     -0.161213      0.030884
  B      -3.908636     -2.289800     -0.086350
  B      -1.142139     -1.831607      0.022939
  B       1.438258      0.161868      0.028663
12
Coordinates from ORCA-job input E -297.203399988092
  B       2.730909      1.080591      0.007030
  B       2.447142      2.798976     -0.043588
  B      -0.114851      0.856840      0.022670
  B      -2.729077     -1.080317      0.014550
  B      -2.447132     -2.797973     -0.007726
  B       0.113779     -0.856399      0.044940
  B       3.908244      2.286860     -0.024944
  B       1.141540      1.830961     -0.017302
  B      -1.439001     -0.160400      0.029695
  B      -3.909001     -2.287209     -0.073755
  B      -1.141282     -1.832021      0.021466
  B       1.438732      0.160092      0.026963
12
Coordinates from ORCA-job input E -297.203453178610
  B       2.729467      1.081735      0.006949
  B       2.448294      2.799069     -0.043924
  B      -0.115231      0.858294      0.021663
  B      -2.728309     -1.083239      0.006410
  B      -2.447115     -2.800527     -0.011493
  B       0.112487     -0.854834      0.041077
  B       3.910245      2.286030     -0.015663
  B       1.142547      1.831740     -0.020075
  B      -1.439157     -0.161541      0.026981
  B      -3.910676     -2.284597     -0.057629
  B      -1.140774     -1.833749      0.021539
  B       1.438222      0.161621      0.024165
12
Coordinates from ORCA-job input E -297.203443391975
  B       2.727836      1.080274      0.009850
  B       2.451226      2.795532     -0.047288
  B      -0.115323      0.861065      0.019815
  B      -2.736358     -1.080418      0.003003
  B      -2.442558     -2.797634     -0.020217
  B       0.110502     -0.851457      0.038728
  B       3.911966      2.280588     -0.007076
  B       1.142585      1.834125     -0.024510
  B      -1.441340     -0.160337      0.025378
  B      -3.903591     -2.296387     -0.040677
  B      -1.142228     -1.828511      0.018349
  B       1.437285      0.163161      0.024644
12
Coordinates from ORCA-job input E -297.203481372023
  B       2.729238      1.081813      0.008011
  B       2.449348      2.797690     -0.043276
  B      -0.115018      0.858807      0.020513
  B      -2.730300     -1.083519     -0.000776
  B      -2.447045     -2.800299     -0.015926
  B       0.111887     -0.853050      0.039566
  B       3.911540      2.284005     -0.011124
  B       1.141355      1.833347     -0.022148
  B      -1.438972     -0.163653      0.024004
  B      -3.909535     -2.285342     -0.043003
  B      -1.139946     -1.834305      0.019758
  B       1.437448      0.164503      0.024401
12
Coordinates from ORCA-job input E -297.203488530499
  B       2.730051      1.081073      0.007103
  B       2.449882      2.797952     -0.041088
  B      -0.115173      0.858720      0.020762
  B      -2.731010     -1.082730     -0.000433
  B      -2.446699     -2.800039     -0.013388
  B       0.111564     -0.852674      0.040429
  B       3.911777      2.283527     -0.014628
  B       1.141103      1.833762     -0.020636
  B      -1.439386     -0.163274      0.023801
  B      -3.908849     -2.287471     -0.047132
  B      -1.140275     -1.833449      0.020481
  B       1.437014      0.164602      0.024729
12
Coordinates from ORCA-job input E -297.203494741508
  B       2.730667      1.080477      0.006862
  B       2.450209      2.797649     -0.038677
  B      -0.115298      0.858496      0.020380
  B      -2.731641     -1.081974     -0.002372
  B      -2.446631     -2.799473     -0.011350
  B       0.111770     -0.852493      0.039761
  B       3.911644      2.282986     -0.016164
  B       1.140372      1.834409     -0.019648
  B      -1.439446     -0.163573      0.022401
  B      -3.908236     -2.288527     -0.046434
  B      -1.139972     -1.833241      0.020481
  B       1.436561      0.165264      0.024761
12
Coordinates from ORCA-job input E -297.203500703948
  B       2.731290      1.079906      0.006435
  B       2.450328      2.797391     -0.034889
  B      -0.115462      0.858227      0.019423
  B      -2.731678     -1.081767     -0.005978
  B      -2.446837     -2.799061     -0.007930
  B       0.112192     -0.852501      0.037763
  B       3.911230      2.282592     -0.017198
  B       1.139603      1.835202     -0.018229
  B      -1.439287     -0.164035      0.019790
  B      -3.908161     -2.288480     -0.043932
  B      -1.139348     -1.833442      0.020591
  B       1.436129      0.165967      0.024152
12
Coordinates from ORCA-job input E -297.203505528131
  B       2.731598      1.079649      0.006087
  B       2.450309      2.797147     -0.031108
  B      -0.115587      0.858161      0.017897
  B      -2.731378     -1.082011     -0.009761
  B      -2.447066     -2.798850     -0.004284
  B       0.112579     -0.852753      0.034713
  B       3.910766      2.282431     -0.016898
  B       1.139210      1.835749     -0.016878
  B      -1.439177     -0.164203      0.016677
  B      -3.908373     -2.287976     -0.040104
  B      -1.138908     -1.833730      0.020663
  B       1.436028      0.166387      0.022995
12
Coordinates from ORCA-job input E -297.203510202570
  B       2.731552      1.079681      0.005719
  B       2.450308      2.797009     -0.027621
  B      -0.115602      0.858291      0.015828
  B      -2.730998     -1.082504     -0.012567
  B      -2.447132     -2.798819     -0.000578
  B       0.112717     -0.853104      0.031144
  B       3.910452      2.282403     -0.015794
  B       1.139265      1.835914     -0.015471
  B      -1.439292     -0.163880      0.013431
  B      -3.908606     -2.287633     -0.036478
  B      -1.138825     -1.833801      0.020877
  B       1.436160      0.166441      0.021510
12
Coordinates from ORCA-job input E -297.203515896442
  B       2.731251      1.080047      0.005146
  B       2.450353      2.797064     -0.023900
  B      -0.115396      0.858458      0.012903
  B      -2.730798     -1.082989     -0.014591
  B      -2.447058     -2.798876      0.003749
  B       0.112586     -0.853596      0.026778
  B       3.910397      2.282564     -0.014123
  B       1.139678      1.835736     -0.013498
  B      -1.439618     -0.163126      0.009528
  B      -3.908768     -2.287773     -0.033035
  B      -1.139242     -1.833556      0.021405
  B       1.436616      0.166046      0.019639
12
Coordinates from ORCA-job input E -297.203521292799
  B       2.730844      1.080761      0.004809
  B       2.450193      2.797391     -0.021944
  B      -0.114840      0.858218      0.010193
  B      -2.730812     -1.083089     -0.014547
  B      -2.447182     -2.798927      0.006309
  B       0.112442     -0.854232      0.023704
  B       3.910532      2.283186     -0.012615
  B       1.140096      1.835195     -0.011716
  B      -1.439772     -0.162566      0.006547
  B      -3.909001     -2.287808     -0.031104
  B      -1.139837     -1.833381      0.021850
  B       1.437337      0.165252      0.018515
12
Coordinates from ORCA-job input E -297.203526735309
  B       2.730575      1.081657      0.004526
  B       2.449681      2.798069     -0.020882
  B      -0.113887      0.857256      0.007629
  B      -2.730986     -1.082729     -0.013695
  B      -2.447746     -2.798913      0.007503
  B       0.112473     -0.854985      0.021990
  B       3.910722      2.284311     -0.011785
  B       1.140242      1.834586     -0.009756
  B      -1.439486     -0.162612      0.003820
  B      -3.909478     -2.287334     -0.029731
  B      -1.140374     -1.833527      0.022124
  B       1.438264      0.164221      0.018257
12
Coordinates from ORCA-job input E -297.203531372220
  B       2.730516      1.082271      0.004844
  B       2.449329      2.798532     -0.020769
  B      -0.113134      0.856202      0.005029
  B      -2.731338     -1.082033     -0.012050
  B      -2.448364     -2.798819      0.007108
  B       0.112625     -0.855384      0.021351
  B       3.910867      2.285215     -0.011246
  B       1.140046      1.834286     -0.008197
  B      -1.439043     -0.163153      0.001424
  B      -3.909855     -2.286817     -0.028026
  B      -1.140418     -1.834006      0.021618
  B       1.438771      0.163705      0.018914
12
Coordinates from ORCA-job input E -297.203534089171
  B       2.730725      1.082336      0.005425
  B       2.449234      2.798737     -0.020576
  B      -0.112957      0.855518      0.002624
  B      -2.731611     -1.081509     -0.011030
  B      -2.448744     -2.798764      0.006485
  B       0.112771     -0.855307      0.020997
  B       3.910956      2.285592     -0.010909
  B       1.139731      1.834479     -0.006905
  B      -1.438639     -0.163889     -0.000932
  B      -3.910086     -2.286435     -0.025572
  B      -1.140177     -1.834467      0.020606
  B       1.438798      0.163707      0.019786
12
Coordinates from ORCA-job input E -297.203535277367
  B       2.730992      1.082044      0.005955
  B       2.449248      2.798642     -0.020164
  B      -0.113248      0.855439      0.001163
  B      -2.731633     -1.081335     -0.011170
  B      -2.448756     -2.798755      0.006644
  B       0.112899     -0.855065      0.020263
  B       3.910851      2.285591     -0.010401
  B       1.139658      1.834662     -0.006184
  B      -1.438500     -0.164315     -0.002596
  B      -3.910136     -2.286270     -0.023205
  B      -1.139958     -1.834646      0.019626
  B       1.438583      0.164006      0.020069
12
Coordinates from ORCA-job input E -297.203536031984
  B       2.731270      1.081723      0.006542
  B       2.449075      2.798578     -0.019899
  B      -0.113456      0.855351      0.000168
  B      -2.731564     -1.081342     -0.011612
  B      -2.448757     -2.798739      0.006864
  B       0.113181     -0.855038      0.019574
  B       3.910588      2.285699     -0.009818
  B       1.139745      1.834708     -0.005810
  B      -1.438384     -0.164547     -0.003829
  B      -3.910263     -2.285973     -0.020954
  B      -1.139868     -1.834661      0.018577
  B       1.438433      0.164241      0.020197
12
Coordinates from ORCA-job input E -297.203536483044
  B       2.731453      1.081409      0.007010
  B       2.449021      2.798512     -0.019810
  B      -0.113615      0.855520     -0.000271
  B      -2.731504     -1.081463     -0.011931
  B      -2.448619     -2.798827      0.007029
  B       0.113223     -0.854956      0.019197
  B       3.910460      2.285651     -0.009432
  B       1.139957      1.834678     -0.005801
  B      -1.438462     -0.164446     -0.004370
  B      -3.910251     -2.286079     -0.019610
  B      -1.139956     -1.834456      0.017756
  B       1.438294      0.164459      0.020232
