12
Optimized coordinates extracted from calculations\B12\bilayer_3d\d_4.0\mult_5\output.out
B        2.73145315       1.08140853       0.00700988
B        2.44902108       2.79851179      -0.01980977
B       -0.11361546       0.85551958      -0.00027066
B       -2.73150367      -1.08146285      -0.01193105
B       -2.44861935      -2.79882717       0.00702922
B        0.11322275      -0.85495602       0.01919720
B        3.91045967       2.28565131      -0.00943166
B        1.13995697       1.83467789      -0.00580144
B       -1.43846206      -0.16444633      -0.00436952
B       -3.91025108      -2.28607932      -0.01961033
B       -1.13995619      -1.83445607       0.01775624
B        1.43829420       0.16445866       0.02023189
