12
Coordinates from ORCA-job input E -297.264588000992
  B           1.63709443118156      0.01814658475444      0.74902717556128
  B           0.84071254659498      1.42153728003763      0.74953768501318
  B          -0.78376230998084      1.35046234131184      0.77157541743915
  B          -1.65451462329188     -0.02147542668414      0.74559124721305
  B          -0.83515639756231     -1.41029580361212      0.74517499014283
  B           0.79074920222619     -1.37126274594645      0.75811296596125
  B           1.56759682074332      0.90878877411249     -0.71176850938517
  B           0.07767561014147      1.51628973717254     -0.76409961323084
  B          -1.32452853025346      0.67054733320509     -0.77473402148012
  B          -1.58480312088926     -0.91529765283679     -0.71474644642389
  B          -0.08109900165397     -1.48158296357702     -0.78303731334488
  B           1.35003537274420     -0.68585745793750     -0.77063357746585
