12
Coordinates from ORCA-job input E -295.786927926813
  B       3.000000     -0.000000      0.930000
  B       1.500000      2.598076      0.930000
  B      -1.500000      2.598076      0.930000
  B      -3.000000      0.000000      0.930000
  B      -1.500000     -2.598076      0.930000
  B       1.500000     -2.598076      0.930000
  B       2.442192      1.410000     -0.930000
  B       0.000000      2.820000     -0.930000
  B      -2.442192      1.410000     -0.930000
  B      -2.442192     -1.410000     -0.930000
  B      -0.000000     -2.820000     -0.930000
  B       2.442192     -1.410000     -0.930000
12
Coordinates from ORCA-job input E -295.847535015415
  B       2.974781      0.000105      0.910671
  B       1.487091      2.580372      0.912438
  B      -1.487172      2.580550      0.911598
  B      -2.974937      0.000440      0.910736
  B      -1.487260     -2.580698      0.911631
  B       1.487609     -2.580650      0.911659
  B       2.415979      1.397361     -0.911011
  B       0.000102      2.795309     -0.912308
  B      -2.415605      1.396899     -0.911482
  B      -2.416206     -1.397091     -0.910567
  B       0.000013     -2.795743     -0.911960
  B       2.415604     -1.396854     -0.911404
12
Coordinates from ORCA-job input E -295.881772157883
  B       2.952163      0.000001      0.889551
  B       1.475941      2.561247      0.896639
  B      -1.477923      2.556753      0.890805
  B      -2.954499      0.001517      0.892303
  B      -1.476143     -2.557091      0.892372
  B       1.478726     -2.562702      0.893218
  B       2.396313      1.386197     -0.892233
  B       0.002323      2.768444     -0.894057
  B      -2.393965      1.380457     -0.892304
  B      -2.396810     -1.382384     -0.890804
  B      -0.000427     -2.767986     -0.892586
  B       2.394299     -1.384453     -0.892906
12
Coordinates from ORCA-job input E -295.905210421956
  B       2.936685     -0.000409      0.875655
  B       1.468424      2.548341      0.886510
  B      -1.471391      2.541046      0.877104
  B      -2.940907      0.002696      0.879617
  B      -1.468412     -2.541579      0.879738
  B       1.473222     -2.550593      0.880738
  B       2.382617      1.378667     -0.879941
  B       0.003506      2.750762     -0.881860
  B      -2.379416      1.369705     -0.879843
  B      -2.383259     -1.372678     -0.877569
  B      -0.000471     -2.749580     -0.879356
  B       2.379401     -1.376380     -0.880794
12
Coordinates from ORCA-job input E -295.941098441244
  B       2.913197     -0.001599      0.855002
  B       1.457403      2.528288      0.871967
  B      -1.461574      2.516691      0.856565
  B      -2.920993      0.004774      0.860571
  B      -1.456411     -2.517606      0.861094
  B       1.465387     -2.531687      0.861851
  B       2.362203      1.367317     -0.861925
  B       0.005212      2.724022     -0.863648
  B      -2.358191      1.353337     -0.861646
  B      -2.362878     -1.357796     -0.857751
  B      -0.000145     -2.721343     -0.859250
  B       2.356790     -1.364399     -0.862829
12
Coordinates from ORCA-job input E -295.996488503266
  B       2.877155     -0.003743      0.824486
  B       1.440752      2.497171      0.850909
  B      -1.446953      2.478272      0.826153
  B      -2.890766      0.007831      0.832408
  B      -1.438117     -2.480037      0.833882
  B       1.453477     -2.502390      0.833814
  B       2.331732      1.349905     -0.835656
  B       0.007848      2.682878     -0.837005
  B      -2.326590      1.327863     -0.834851
  B      -2.332206     -1.334111     -0.828385
  B       0.000870     -2.677337     -0.829365
  B       2.322797     -1.346302     -0.836389
12
Coordinates from ORCA-job input E -296.085080963094
  B       2.821193     -0.007389      0.780025
  B       1.415209      2.448478      0.820692
  B      -1.425070      2.417032      0.781774
  B      -2.843744      0.012274      0.790908
  B      -1.410261     -2.420832      0.794675
  B       1.434869     -2.456396      0.792487
  B       2.286080      1.322701     -0.797853
  B       0.011708      2.619100     -0.798742
  B      -2.279348      1.287874     -0.795528
  B      -2.285718     -1.295676     -0.785117
  B       0.003400     -2.608259     -0.785487
  B       2.271682     -1.318906     -0.797834
12
Coordinates from ORCA-job input E -296.186754639241
  B       2.760249     -0.011011      0.736119
  B       1.387770      2.396029      0.790024
  B      -1.400825      2.351234      0.737879
  B      -2.791752      0.016555      0.748513
  B      -1.380851     -2.358723      0.755269
  B       1.413666     -2.405960      0.750345
  B       2.237758      1.292883     -0.760586
  B       0.014771      2.551756     -0.761132
  B      -2.229844      1.245885     -0.755477
  B      -2.236070     -1.253465     -0.741151
  B       0.007292     -2.535044     -0.741272
  B       2.217835     -1.290140     -0.758532
12
Coordinates from ORCA-job input E -296.296307162457
  B       2.700412     -0.009299      0.694516
  B       1.358958      2.340240      0.758534
  B      -1.374952      2.287661      0.697537
  B      -2.735533      0.021556      0.710311
  B      -1.349094     -2.295877      0.711092
  B       1.386715     -2.351854      0.707379
  B       2.190228      1.259116     -0.722940
  B       0.017199      2.483240     -0.725354
  B      -2.180216      1.204276     -0.717553
  B      -2.186826     -1.215123     -0.697680
  B       0.008489     -2.465680     -0.697758
  B       2.164623     -1.258256     -0.718084
12
Coordinates from ORCA-job input E -296.401761769713
  B       2.635398     -0.011067      0.656401
  B       1.325958      2.282318      0.724314
  B      -1.343816      2.226857      0.657602
  B      -2.673406      0.021919      0.671009
  B      -1.315799     -2.234056      0.669962
  B       1.357668     -2.295405      0.670005
  B       2.138839      1.220331     -0.689274
  B       0.009484      2.415444     -0.689282
  B      -2.122071      1.171505     -0.675584
  B      -2.134327     -1.176043     -0.658422
  B       0.013586     -2.397643     -0.658353
  B       2.108486     -1.224161     -0.678377
12
Coordinates from ORCA-job input E -296.500950706989
  B       2.564700     -0.010130      0.620805
  B       1.291371      2.221092      0.691995
  B      -1.308252      2.164564      0.621806
  B      -2.606071      0.023259      0.636777
  B      -1.279241     -2.170288      0.632114
  B       1.324674     -2.235208      0.635090
  B       2.080948      1.177194     -0.656483
  B       0.001719      2.342450     -0.655607
  B      -2.058852      1.134856     -0.638660
  B      -2.076245     -1.134706     -0.623635
  B       0.019662     -2.326183     -0.623192
  B       2.045587     -1.186900     -0.641011
12
Coordinates from ORCA-job input E -296.595582207304
  B       2.487929     -0.005756      0.589594
  B       1.253258      2.154062      0.657796
  B      -1.265983      2.099653      0.589775
  B      -2.535883      0.025021      0.610226
  B      -1.241221     -2.104344      0.599056
  B       1.289451     -2.171804      0.605800
  B       2.015240      1.131164     -0.625318
  B      -0.005011      2.261548     -0.622146
  B      -1.988969      1.096823     -0.606603
  B      -2.014657     -1.090767     -0.596236
  B       0.027985     -2.250518     -0.594358
  B       1.977861     -1.145082     -0.607584
12
Coordinates from ORCA-job input E -296.674067909559
  B       2.412261     -0.003496      0.566203
  B       1.208192      2.085449      0.630146
  B      -1.229841      2.031108      0.571022
  B      -2.460317      0.029115      0.596394
  B      -1.208830     -2.033344      0.576804
  B       1.250441     -2.107779      0.582959
  B       1.935290      1.091649     -0.601406
  B      -0.003721      2.163655     -0.597127
  B      -1.904810      1.044316     -0.588870
  B      -1.931597     -1.038129     -0.577465
  B       0.028407     -2.159250     -0.572379
  B       1.904526     -1.103293     -0.586281
12
Coordinates from ORCA-job input E -296.740207355682
  B       2.333843     -0.000008      0.551327
  B       1.162793      2.014751      0.609663
  B      -1.190107      1.959788      0.558460
  B      -2.380497      0.030842      0.590803
  B      -1.175436     -1.962936      0.562202
  B       1.209326     -2.044316      0.569530
  B       1.850633      1.049626     -0.586554
  B      -0.005330      2.062579     -0.580125
  B      -1.814580      0.991034     -0.577720
  B      -1.843917     -0.981888     -0.568044
  B       0.027915     -2.062245     -0.558120
  B       1.825356     -1.057227     -0.571420
12
Coordinates from ORCA-job input E -296.795933276595
  B       2.257885      0.004109      0.544411
  B       1.120393      1.948684      0.597145
  B      -1.150319      1.893110      0.554420
  B      -2.301508      0.029633      0.592651
  B      -1.143137     -1.897497      0.554930
  B       1.168320     -1.985340      0.564783
  B       1.761856      1.006902     -0.580731
  B      -0.007239      1.961058     -0.571179
  B      -1.720321      0.937403     -0.574547
  B      -1.751941     -0.926546     -0.567828
  B       0.025319     -1.962114     -0.550842
  B       1.740692     -1.009401     -0.563214
12
Coordinates from ORCA-job input E -296.869256308298
  B       2.187658      0.010730      0.543928
  B       1.080198      1.892695      0.595819
  B      -1.112297      1.835279      0.560956
  B      -2.223471      0.026400      0.599477
  B      -1.114715     -1.841265      0.556759
  B       1.125346     -1.934305      0.569482
  B       1.673088      0.964449     -0.585525
  B      -0.008959      1.862427     -0.569310
  B      -1.623219      0.886551     -0.580433
  B      -1.656047     -0.878526     -0.576770
  B       0.017640     -1.863856     -0.549176
  B       1.654779     -0.960579     -0.565207
12
Coordinates from ORCA-job input E -296.934412713328
  B       2.124541     -0.001422      0.561489
  B       1.029177      1.829082      0.592268
  B      -1.080088      1.775668      0.578901
  B      -2.148673      0.040810      0.614698
  B      -1.077039     -1.780187      0.551870
  B       1.106407     -1.885822      0.589795
  B       1.589123      0.904731     -0.605982
  B      -0.040985      1.772065     -0.581034
  B      -1.543693      0.863912     -0.582516
  B      -1.577728     -0.818224     -0.596636
  B       0.045529     -1.772369     -0.560093
  B       1.573428     -0.928244     -0.562761
12
Coordinates from ORCA-job input E -297.003881348182
  B       2.087222     -0.002922      0.584806
  B       0.995779      1.783158      0.592319
  B      -1.055214      1.737209      0.604655
  B      -2.094530      0.045453      0.631652
  B      -1.060183     -1.742839      0.557214
  B       1.093711     -1.855125      0.615410
  B       1.542371      0.876314     -0.624591
  B      -0.053303      1.720342     -0.597778
  B      -1.499172      0.849178     -0.596900
  B      -1.537210     -0.788541     -0.616808
  B       0.049522     -1.721120     -0.576703
  B       1.531007     -0.901106     -0.573276
12
Coordinates from ORCA-job input E -297.078238063018
  B       2.035477      0.002944      0.620074
  B       0.965030      1.720536      0.605583
  B      -1.026072      1.682287      0.645594
  B      -2.023243      0.049641      0.660746
  B      -1.039231     -1.698023      0.579485
  B       1.070463     -1.809486      0.652543
  B       1.471048      0.839052     -0.652308
  B      -0.058254      1.646499     -0.628236
  B      -1.433714      0.821949     -0.629519
  B      -1.474079     -0.751927     -0.650875
  B       0.047203     -1.646488     -0.604706
  B       1.465373     -0.856983     -0.598380
12
Coordinates from ORCA-job input E -297.118903960625
  B       1.988517      0.018891      0.644257
  B       0.938761      1.679385      0.620208
  B      -0.982717      1.633907      0.670206
  B      -1.958618      0.036174      0.680569
  B      -1.034612     -1.662775      0.597887
  B       1.040620     -1.771328      0.674910
  B       1.434340      0.836651     -0.671514
  B      -0.043175      1.614701     -0.650787
  B      -1.394819      0.803943     -0.654550
  B      -1.441798     -0.752065     -0.671124
  B       0.024719     -1.612768     -0.622986
  B       1.428782     -0.824715     -0.617076
12
Coordinates from ORCA-job input E -297.175084588810
  B       1.907911      0.047711      0.674665
  B       0.912690      1.597270      0.650487
  B      -0.921007      1.545675      0.705454
  B      -1.858180      0.014968      0.704312
  B      -1.024373     -1.599967      0.632928
  B       0.996681     -1.697194      0.706094
  B       1.407239      0.831891     -0.697769
  B      -0.020852      1.587303     -0.688309
  B      -1.369173      0.784491     -0.693939
  B      -1.423586     -0.755549     -0.702823
  B      -0.005803     -1.578426     -0.647801
  B       1.398453     -0.778172     -0.643299
12
Coordinates from ORCA-job input E -297.217346492706
  B       1.812091      0.073753      0.697108
  B       0.892190      1.504123      0.679325
  B      -0.867900      1.457146      0.732372
  B      -1.755891     -0.002563      0.718533
  B      -0.997493     -1.529402      0.663697
  B       0.956253     -1.622116      0.735892
  B       1.387001      0.837050     -0.723714
  B      -0.004147      1.587491     -0.713745
  B      -1.360354      0.791767     -0.728875
  B      -1.415296     -0.769972     -0.731655
  B      -0.020015     -1.566957     -0.661904
  B       1.373561     -0.760322     -0.667034
12
Coordinates from ORCA-job input E -297.239496337341
  B       1.724604      0.069469      0.715281
  B       0.866976      1.435351      0.717155
  B      -0.833622      1.397271      0.751917
  B      -1.669554     -0.010861      0.729372
  B      -0.950978     -1.472664      0.699889
  B       0.921357     -1.561274      0.759076
  B       1.413148      0.837568     -0.747510
  B       0.015890      1.626597     -0.738951
  B      -1.402972      0.789102     -0.763006
  B      -1.436130     -0.784586     -0.754686
  B      -0.039452     -1.580268     -0.676413
  B       1.390732     -0.745705     -0.692124
12
Coordinates from ORCA-job input E -297.248933738440
  B       1.605245      0.024936      0.713527
  B       0.807189      1.371317      0.729649
  B      -0.809716      1.381502      0.755383
  B      -1.587555      0.008813      0.724676
  B      -0.838606     -1.403318      0.697999
  B       0.883146     -1.492406      0.759702
  B       1.391038      0.824878     -0.755314
  B       0.020949      1.634565     -0.724261
  B      -1.393318      0.812656     -0.763217
  B      -1.414874     -0.816930     -0.762272
  B      -0.024098     -1.579025     -0.672010
  B       1.360599     -0.766988     -0.703863
12
Coordinates from ORCA-job input E -297.255508532567
  B       1.572670      0.002956      0.731792
  B       0.807091      1.405306      0.762371
  B      -0.808475      1.426843      0.776751
  B      -1.590457     -0.023422      0.745297
  B      -0.808889     -1.387288      0.727711
  B       0.834254     -1.456252      0.753867
  B       1.437015      0.865342     -0.770454
  B       0.062320      1.667662     -0.731450
  B      -1.415778      0.787316     -0.768407
  B      -1.445212     -0.863777     -0.772677
  B      -0.032546     -1.622194     -0.709639
  B       1.388008     -0.802492     -0.745162
12
Coordinates from ORCA-job input E -297.257363085500
  B       1.575392      0.041362      0.736156
  B       0.810331      1.417015      0.747881
  B      -0.803294      1.429894      0.754144
  B      -1.599636     -0.010634      0.744273
  B      -0.814372     -1.406475      0.732920
  B       0.799166     -1.466400      0.747753
  B       1.466973      0.844058     -0.753768
  B       0.032918      1.616045     -0.725890
  B      -1.379696      0.753778     -0.728014
  B      -1.468546     -0.833283     -0.757850
  B      -0.042986     -1.626621     -0.743884
  B       1.423750     -0.758741     -0.753720
12
Coordinates from ORCA-job input E -297.260451753810
  B       1.589379      0.013018      0.731634
  B       0.833691      1.422091      0.748060
  B      -0.815102      1.425467      0.746857
  B      -1.614157     -0.022379      0.740009
  B      -0.838950     -1.411048      0.740142
  B       0.829282     -1.445184      0.739438
  B       1.463974      0.851969     -0.745206
  B       0.033852      1.611742     -0.730977
  B      -1.366443      0.763003     -0.736074
  B      -1.463619     -0.854210     -0.750898
  B      -0.043180     -1.600194     -0.742584
  B       1.391274     -0.754274     -0.740400
12
Coordinates from ORCA-job input E -297.259831170449
  B       1.562679      0.012235      0.747632
  B       0.835466      1.428022      0.745970
  B      -0.788718      1.416030      0.748058
  B      -1.595577     -0.029978      0.740284
  B      -0.798244     -1.426537      0.741928
  B       0.790366     -1.431419      0.733975
  B       1.462724      0.890094     -0.741545
  B       0.073285      1.617589     -0.739913
  B      -1.367299      0.745682     -0.747047
  B      -1.475842     -0.875467     -0.748324
  B      -0.039114     -1.580758     -0.741195
  B       1.340274     -0.765492     -0.739823
12
Coordinates from ORCA-job input E -297.262060443835
  B       1.576887      0.020360      0.746972
  B       0.834030      1.437273      0.756686
  B      -0.796205      1.413547      0.745133
  B      -1.601339     -0.020654      0.743147
  B      -0.815296     -1.428318      0.745139
  B       0.798781     -1.433291      0.735186
  B       1.481948      0.879296     -0.740472
  B       0.058970      1.612036     -0.738631
  B      -1.355438      0.747889     -0.745259
  B      -1.482705     -0.887514     -0.746661
  B      -0.064322     -1.592641     -0.750421
  B       1.364690     -0.747983     -0.750820
12
Coordinates from ORCA-job input E -297.258741384371
  B       1.581134      0.033217      0.739741
  B       0.843123      1.428741      0.745094
  B      -0.780931      1.404535      0.749558
  B      -1.613933     -0.048010      0.731267
  B      -0.856699     -1.408561      0.744771
  B       0.815869     -1.407584      0.737907
  B       1.481955      0.846506     -0.733124
  B       0.053496      1.577742     -0.732579
  B      -1.345047      0.720705     -0.734708
  B      -1.507892     -0.854419     -0.738660
  B      -0.039518     -1.577072     -0.761912
  B       1.368444     -0.715802     -0.747356
12
Coordinates from ORCA-job input E -297.262580231001
  B       1.583469      0.025803      0.748812
  B       0.839578      1.443319      0.756817
  B      -0.791797      1.402604      0.747342
  B      -1.607774     -0.023083      0.739346
  B      -0.832469     -1.432142      0.753814
  B       0.802341     -1.427402      0.734288
  B       1.484529      0.878104     -0.737668
  B       0.056173      1.600089     -0.741245
  B      -1.342091      0.737297     -0.747063
  B      -1.501190     -0.874684     -0.742315
  B      -0.047396     -1.588855     -0.757748
  B       1.356626     -0.741050     -0.754380
12
Coordinates from ORCA-job input E -297.258322049607
  B       1.565773      0.016331      0.751104
  B       0.847751      1.450943      0.755388
  B      -0.776773      1.395589      0.752392
  B      -1.588472     -0.051380      0.745469
  B      -0.806283     -1.425683      0.732764
  B       0.758249     -1.402979      0.736191
  B       1.512488      0.882310     -0.736743
  B       0.062856      1.605982     -0.748788
  B      -1.337038      0.715274     -0.754816
  B      -1.480541     -0.907813     -0.734523
  B      -0.096129     -1.558432     -0.747876
  B       1.338119     -0.720141     -0.750561
12
Coordinates from ORCA-job input E -297.263112007074
  B       1.575155      0.027451      0.750053
  B       0.846043      1.445472      0.751843
  B      -0.775449      1.393625      0.751520
  B      -1.608760     -0.030497      0.745955
  B      -0.829368     -1.440581      0.747208
  B       0.790887     -1.408013      0.738848
  B       1.497331      0.884814     -0.732797
  B       0.070550      1.594419     -0.743867
  B      -1.337035      0.724905     -0.754327
  B      -1.511481     -0.894612     -0.740847
  B      -0.067146     -1.576721     -0.759371
  B       1.349274     -0.720263     -0.754219
12
Coordinates from ORCA-job input E -297.260937106789
  B       1.599843      0.032099      0.756015
  B       0.854728      1.457372      0.757976
  B      -0.797191      1.372596      0.754064
  B      -1.599013     -0.033989      0.730259
  B      -0.847410     -1.421566      0.751199
  B       0.783317     -1.417613      0.739083
  B       1.505879      0.883781     -0.737902
  B       0.040559      1.592883     -0.746893
  B      -1.329236      0.713298     -0.748110
  B      -1.503011     -0.866753     -0.732138
  B      -0.050775     -1.568964     -0.760539
  B       1.342309     -0.743144     -0.763014
12
Coordinates from ORCA-job input E -297.263576999393
  B       1.584094      0.027547      0.752950
  B       0.848256      1.452012      0.754131
  B      -0.777930      1.380954      0.755375
  B      -1.608669     -0.030914      0.743633
  B      -0.835717     -1.437368      0.750089
  B       0.785088     -1.404000      0.738472
  B       1.505689      0.882611     -0.732541
  B       0.062700      1.589271     -0.747228
  B      -1.331088      0.716705     -0.757598
  B      -1.515535     -0.888837     -0.736212
  B      -0.061674     -1.567409     -0.761506
  B       1.344784     -0.720570     -0.759564
12
Coordinates from ORCA-job input E -297.263539633077
  B       1.586517      0.038382      0.754026
  B       0.855745      1.454104      0.749542
  B      -0.767358      1.372317      0.757423
  B      -1.611726     -0.036967      0.743090
  B      -0.844426     -1.442813      0.746670
  B       0.782012     -1.398500      0.745621
  B       1.507778      0.897707     -0.729592
  B       0.070147      1.583717     -0.745718
  B      -1.323250      0.710873     -0.760446
  B      -1.523577     -0.896153     -0.735222
  B      -0.073548     -1.565364     -0.762990
  B       1.341686     -0.717304     -0.762404
12
Coordinates from ORCA-job input E -297.263916326025
  B       1.586590      0.030805      0.755139
  B       0.854999      1.454100      0.749420
  B      -0.766406      1.362994      0.761565
  B      -1.614128     -0.032602      0.744851
  B      -0.841999     -1.442617      0.747225
  B       0.779812     -1.386018      0.746034
  B       1.515764      0.892358     -0.727437
  B       0.069509      1.576327     -0.749937
  B      -1.323656      0.703394     -0.764530
  B      -1.530926     -0.895634     -0.732205
  B      -0.071175     -1.554216     -0.766026
  B       1.341616     -0.708891     -0.764099
12
Coordinates from ORCA-job input E -297.263947939963
  B       1.595401      0.035352      0.756265
  B       0.859358      1.460487      0.748291
  B      -0.761016      1.356206      0.771965
  B      -1.625185     -0.036892      0.752901
  B      -0.846357     -1.448044      0.743983
  B       0.769508     -1.379687      0.748030
  B       1.528955      0.884010     -0.725965
  B       0.066563      1.566254     -0.757088
  B      -1.323388      0.699703     -0.774046
  B      -1.541304     -0.899632     -0.728756
  B      -0.062786     -1.535424     -0.768570
  B       1.340251     -0.702331     -0.767010
12
Coordinates from ORCA-job input E -297.264233451817
  B       1.598387      0.030951      0.757175
  B       0.856351      1.461948      0.747655
  B      -0.758416      1.343462      0.773959
  B      -1.624001     -0.034132      0.749480
  B      -0.848064     -1.444141      0.745080
  B       0.770119     -1.370782      0.753317
  B       1.532535      0.891423     -0.722900
  B       0.069731      1.557518     -0.757098
  B      -1.320420      0.690351     -0.777002
  B      -1.548951     -0.898674     -0.725023
  B      -0.069727     -1.527720     -0.772300
  B       1.342456     -0.700204     -0.772344
12
Coordinates from ORCA-job input E -297.264309608393
  B       1.599929      0.032559      0.757405
  B       0.860350      1.458076      0.744310
  B      -0.757523      1.337936      0.778255
  B      -1.626958     -0.033187      0.749154
  B      -0.848928     -1.442607      0.742656
  B       0.770343     -1.364354      0.758915
  B       1.537364      0.895198     -0.720255
  B       0.068159      1.549154     -0.758780
  B      -1.321944      0.687425     -0.777874
  B      -1.554106     -0.900049     -0.724529
  B      -0.072574     -1.519455     -0.775877
  B       1.345887     -0.700695     -0.773379
12
Coordinates from ORCA-job input E -297.264383345746
  B       1.606082      0.031897      0.756706
  B       0.858498      1.459247      0.741870
  B      -0.757347      1.336385      0.781379
  B      -1.631201     -0.033168      0.748416
  B      -0.850003     -1.441805      0.740646
  B       0.770789     -1.366284      0.763790
  B       1.541011      0.897438     -0.718426
  B       0.069933      1.540178     -0.760486
  B      -1.325220      0.684837     -0.779457
  B      -1.559604     -0.900971     -0.721455
  B      -0.073887     -1.507246     -0.778256
  B       1.350948     -0.700508     -0.774727
12
Coordinates from ORCA-job input E -297.264430266128
  B       1.607785      0.030478      0.755577
  B       0.854324      1.456321      0.742756
  B      -0.758768      1.336903      0.783883
  B      -1.633325     -0.032535      0.748804
  B      -0.847305     -1.436915      0.741051
  B       0.771361     -1.366119      0.766057
  B       1.545629      0.897301     -0.717111
  B       0.069888      1.529792     -0.762504
  B      -1.327486      0.685144     -0.781040
  B      -1.565967     -0.903532     -0.718978
  B      -0.072991     -1.495369     -0.781926
  B       1.356857     -0.701469     -0.776568
12
Coordinates from ORCA-job input E -297.264479438974
  B       1.611577      0.028206      0.754629
  B       0.852632      1.452337      0.742055
  B      -0.763442      1.341772      0.784028
  B      -1.637254     -0.030236      0.748389
  B      -0.844835     -1.434742      0.740049
  B       0.776070     -1.369608      0.766928
  B       1.552333      0.895853     -0.715292
  B       0.069760      1.519959     -0.764823
  B      -1.334372      0.682560     -0.779773
  B      -1.571440     -0.904615     -0.717173
  B      -0.073198     -1.481514     -0.784500
  B       1.362169     -0.699973     -0.774517
12
Coordinates from ORCA-job input E -297.264514274118
  B       1.611625      0.025723      0.753800
  B       0.850590      1.448136      0.742751
  B      -0.769444      1.347037      0.780164
  B      -1.636724     -0.028540      0.748164
  B      -0.841744     -1.431795      0.741268
  B       0.779647     -1.374373      0.763774
  B       1.555428      0.896822     -0.714975
  B       0.070979      1.516436     -0.765047
  B      -1.336657      0.682498     -0.777139
  B      -1.574506     -0.905910     -0.716418
  B      -0.073852     -1.477655     -0.784602
  B       1.364658     -0.698379     -0.771740
12
Coordinates from ORCA-job input E -297.264539008831
  B       1.612153      0.023802      0.753480
  B       0.846995      1.443145      0.746183
  B      -0.773713      1.353334      0.773979
  B      -1.636384     -0.026226      0.747740
  B      -0.838626     -1.428198      0.743375
  B       0.785388     -1.377861      0.757480
  B       1.559896      0.899273     -0.713932
  B       0.072396      1.513148     -0.764032
  B      -1.336777      0.679221     -0.775084
  B      -1.578814     -0.907989     -0.716146
  B      -0.076534     -1.474585     -0.783660
  B       1.364021     -0.697063     -0.769383
12
Coordinates from ORCA-job input E -297.264552856567
  B       1.614464      0.023622      0.753355
  B       0.847365      1.441804      0.745982
  B      -0.775305      1.351302      0.772398
  B      -1.637488     -0.026296      0.748469
  B      -0.839477     -1.426829      0.743399
  B       0.784750     -1.376726      0.755714
  B       1.563769      0.901939     -0.713562
  B       0.074824      1.511251     -0.763644
  B      -1.334366      0.676202     -0.775178
  B      -1.583349     -0.910146     -0.715130
  B      -0.078012     -1.472832     -0.782698
  B       1.362826     -0.693290     -0.769105
12
Coordinates from ORCA-job input E -297.264560851002
  B       1.616176      0.024268      0.753259
  B       0.847769      1.441944      0.746082
  B      -0.774236      1.349940      0.772400
  B      -1.638780     -0.026757      0.748888
  B      -0.840376     -1.426884      0.743147
  B       0.783799     -1.375626      0.755541
  B       1.564321      0.903641     -0.713702
  B       0.075440      1.513020     -0.762974
  B      -1.331940      0.674881     -0.775961
  B      -1.584010     -0.911033     -0.715556
  B      -0.078744     -1.474836     -0.781518
  B       1.360582     -0.692558     -0.769608
12
Coordinates from ORCA-job input E -297.264566408805
  B       1.619596      0.024019      0.752526
  B       0.847002      1.439871      0.746360
  B      -0.774826      1.349590      0.772158
  B      -1.641493     -0.026271      0.748700
  B      -0.840370     -1.424961      0.742861
  B       0.784513     -1.374803      0.755448
  B       1.566727      0.905562     -0.713429
  B       0.076474      1.512760     -0.762321
  B      -1.329948      0.672462     -0.776065
  B      -1.586343     -0.912955     -0.715680
  B      -0.079965     -1.474239     -0.780707
  B       1.358633     -0.691034     -0.769851
12
Coordinates from ORCA-job input E -297.264571301887
  B       1.622521      0.023119      0.751791
  B       0.846153      1.437262      0.746581
  B      -0.775950      1.349664      0.771941
  B      -1.643956     -0.025631      0.748232
  B      -0.839804     -1.422787      0.742910
  B       0.785479     -1.374335      0.755803
  B       1.567776      0.906709     -0.713251
  B       0.076809      1.513562     -0.762104
  B      -1.328239      0.671265     -0.775783
  B      -1.587146     -0.914007     -0.715788
  B      -0.080497     -1.475014     -0.780336
  B       1.356855     -0.689807     -0.769996
12
Coordinates from ORCA-job input E -297.264579355950
  B       1.628573      0.020876      0.750257
  B       0.843853      1.430902      0.747150
  B      -0.779083      1.350105      0.771687
  B      -1.648874     -0.023804      0.746997
  B      -0.838078     -1.417431      0.743341
  B       0.787874     -1.373438      0.757057
  B       1.568776      0.908220     -0.712729
  B       0.077356      1.515814     -0.762143
  B      -1.325271      0.669833     -0.774791
  B      -1.587299     -0.915723     -0.715771
  B      -0.081004     -1.477692     -0.780610
  B       1.353179     -0.687662     -0.770445
12
Coordinates from ORCA-job input E -297.264583194249
  B       1.630872      0.019785      0.749883
  B       0.842926      1.428158      0.747678
  B      -0.780271      1.350184      0.771794
  B      -1.650632     -0.023187      0.746408
  B      -0.837024     -1.415334      0.743877
  B       0.788729     -1.372894      0.757908
  B       1.567783      0.908213     -0.712435
  B       0.077089      1.517045     -0.762845
  B      -1.324455      0.670305     -0.774705
  B      -1.585993     -0.915337     -0.715479
  B      -0.080867     -1.479819     -0.781388
  B       1.351843     -0.687119     -0.770695
12
Coordinates from ORCA-job input E -297.264586273793
  B       1.635403      0.018326      0.749129
  B       0.841051      1.422998      0.748838
  B      -0.783108      1.350634      0.771520
  B      -1.653629     -0.021754      0.745695
  B      -0.835394     -1.411241      0.744782
  B       0.790514     -1.372062      0.758312
  B       1.567763      0.908777     -0.711844
  B       0.077604      1.517142     -0.763701
  B      -1.323919      0.670236     -0.774405
  B      -1.585264     -0.915637     -0.714926
  B      -0.081108     -1.481436     -0.782683
  B       1.350088     -0.685983     -0.770718
12
Coordinates from ORCA-job input E -297.264588000992
  B       1.637094      0.018147      0.749027
  B       0.840713      1.421537      0.749538
  B      -0.783762      1.350462      0.771575
  B      -1.654515     -0.021475      0.745591
  B      -0.835156     -1.410296      0.745175
  B       0.790749     -1.371263      0.758113
  B       1.567597      0.908789     -0.711769
  B       0.077676      1.516290     -0.764100
  B      -1.324529      0.670547     -0.774734
  B      -1.584803     -0.915298     -0.714746
  B      -0.081099     -1.481583     -0.783037
  B       1.350035     -0.685857     -0.770634
