12
Optimized coordinates extracted from calculations\B12\bilayer_3d\d_3.0\mult_3\output.out
B        1.63709443       0.01814658       0.74902718
B        0.84071255       1.42153728       0.74953769
B       -0.78376231       1.35046234       0.77157542
B       -1.65451462      -0.02147543       0.74559125
B       -0.83515640      -1.41029580       0.74517499
B        0.79074920      -1.37126275       0.75811297
B        1.56759682       0.90878877      -0.71176851
B        0.07767561       1.51628974      -0.76409961
B       -1.32452853       0.67054733      -0.77473402
B       -1.58480312      -0.91529765      -0.71474645
B       -0.08109900      -1.48158296      -0.78303731
B        1.35003537      -0.68585746      -0.77063358
