12
B12 distorted_icosahedron_01; neutral charge=0; multiplicity=1; 3d initial geometry; nominal d=5.0 A; Low-symmetry distorted icosahedron variant 01.
B       -0.04701490      -2.35753189      -3.97539062
B        0.07016414      -2.52526157       3.95288312
B        0.07740216       2.43144257      -3.88074839
B       -0.04738187       2.36238506       3.97758052
B       -2.45442308      -4.01042387       0.02103569
B       -2.52681811       4.04076754      -0.06224859
B        2.54203420      -3.84948673       0.02787674
B        2.56988536       4.16355353      -0.03257928
B       -3.94652872      -0.08301340      -2.50559171
B       -4.06434407      -0.07917651       2.54396744
B        3.95158017      -0.04630137      -2.54382814
B        3.87544471      -0.04695336       2.47704323
