12
Coordinates from ORCA-job input E -296.979062434279
  B           2.97275504703088      0.08779243253789     -0.00254031283908
  B           1.58059820044702      2.73307321125867      0.00300935134474
  B          -1.36042777260918      2.53645124392545     -0.00393631622284
  B          -2.96098944072211     -0.09699171462168     -0.00177464553984
  B          -1.59246517388383     -2.71824601226422      0.00248996938483
  B           1.37329763695824     -2.53743198394105      0.00177849765210
  B           2.66572232805398      1.60899604903749      0.00848989240122
  B           0.07633265960279      3.11864433701606     -0.01015348530283
  B          -2.45244693999767      1.38087794069477     -0.00694640474823
  B          -2.70502593064181     -1.63024108677208     -0.00324177411238
  B          -0.07421342327414     -3.08908036800711      0.00999510443891
  B           2.47686280903585     -1.39384404886418      0.00283012354341
