12
Coordinates from ORCA-job input E -295.164266642491
  B       4.500000     -0.000000      1.395000
  B       2.250000      3.897114      1.395000
  B      -2.250000      3.897114      1.395000
  B      -4.500000      0.000000      1.395000
  B      -2.250000     -3.897114      1.395000
  B       2.250000     -3.897114      1.395000
  B       3.663287      2.115000     -1.395000
  B       0.000000      4.230000     -1.395000
  B      -3.663287      2.115000     -1.395000
  B      -3.663287     -2.115000     -1.395000
  B      -0.000000     -4.230000     -1.395000
  B       3.663287     -2.115000     -1.395000
12
Coordinates from ORCA-job input E -295.171005694444
  B       4.487235     -0.000285      1.371051
  B       2.243249      3.885237      1.373073
  B      -2.243585      3.885640      1.372146
  B      -4.485466     -0.000780      1.367039
  B      -2.243890     -3.884833      1.370010
  B       2.244406     -3.886647      1.371943
  B       3.650781      2.108634     -1.372457
  B      -0.000701      4.216722     -1.371095
  B      -3.652088      2.108547     -1.372598
  B      -3.650617     -2.106659     -1.366929
  B      -0.000435     -4.217329     -1.369914
  B       3.651112     -2.108248     -1.372269
12
Coordinates from ORCA-job input E -295.178403057029
  B       4.474866     -0.000539      1.346932
  B       2.236667      3.873711      1.351073
  B      -2.237383      3.874442      1.349158
  B      -4.471127     -0.001632      1.338820
  B      -2.237965     -3.872822      1.344774
  B       2.238995     -3.876508      1.348693
  B       3.638787      2.102574     -1.349852
  B      -0.001437      4.204039     -1.347021
  B      -3.641431      2.102362     -1.349999
  B      -3.638419     -2.098518     -1.338768
  B      -0.000994     -4.205263     -1.344433
  B       3.639441     -2.101845     -1.349378
12
Coordinates from ORCA-job input E -295.190868761400
  B       4.455118     -0.000842      1.311108
  B       2.226185      3.855396      1.318392
  B      -2.227396      3.856256      1.314949
  B      -4.448147     -0.003160      1.296929
  B      -2.228473     -3.853437      1.307197
  B       2.230020     -3.859969      1.314045
  B       3.620373      2.093153     -1.316313
  B      -0.002515      4.184257     -1.311252
  B      -3.624771      2.092380     -1.316222
  B      -3.619663     -2.085918     -1.297210
  B      -0.002115     -4.186192     -1.306319
  B       3.621382     -2.091925     -1.315303
12
Coordinates from ORCA-job input E -295.213219632946
  B       4.423354     -0.001148      1.257877
  B       2.209369      3.826165      1.269876
  B      -2.211236      3.826563      1.264072
  B      -4.411006     -0.005832      1.235051
  B      -2.213119     -3.822026      1.251462
  B       2.215001     -3.832837      1.262390
  B       3.592053      2.078482     -1.266609
  B      -0.004126      4.153337     -1.258109
  B      -3.598641      2.076238     -1.265746
  B      -3.590682     -2.066349     -1.236472
  B      -0.004320     -4.156020     -1.249241
  B       3.593352     -2.076573     -1.264551
12
Coordinates from ORCA-job input E -295.242260154050
  B       4.391567     -0.001285      1.201479
  B       2.192459      3.797043      1.218846
  B      -2.195065      3.796681      1.210455
  B      -4.373206     -0.008504      1.171052
  B      -2.197594     -3.790730      1.193504
  B       2.199882     -3.805654      1.207713
  B       3.564543      2.064402     -1.214395
  B      -0.005942      4.123400     -1.201878
  B      -3.573376      2.060669     -1.212613
  B      -3.562363     -2.047033     -1.174973
  B      -0.007001     -4.127057     -1.188383
  B       3.566097     -2.061931     -1.210806
12
Coordinates from ORCA-job input E -295.277275930467
  B       4.360142     -0.001162      1.143421
  B       2.175857      3.768427      1.166544
  B      -2.178886      3.767316      1.155879
  B      -4.336306     -0.010576      1.108979
  B      -2.181976     -3.760811      1.136255
  B       2.184901     -3.778663      1.151873
  B       3.538339      2.051159     -1.160991
  B      -0.007739      4.094889     -1.144227
  B      -3.549261      2.046417     -1.159090
  B      -3.535538     -2.028996     -1.116933
  B      -0.009760     -4.099955     -1.126150
  B       3.540226     -2.048043     -1.155559
12
Coordinates from ORCA-job input E -295.314896620445
  B       4.327469     -0.000955      1.084850
  B       2.158924      3.738963      1.114164
  B      -2.161837      3.736990      1.101450
  B      -4.298557     -0.012561      1.049083
  B      -2.165436     -3.730292      1.079715
  B       2.169005     -3.750396      1.095886
  B       3.511892      2.037866     -1.107499
  B      -0.009580      4.065953     -1.086421
  B      -3.524602      2.032198     -1.106176
  B      -3.508334     -2.011451     -1.061799
  B      -0.012948     -4.072445     -1.063391
  B       3.514006     -2.033870     -1.099861
12
Coordinates from ORCA-job input E -295.355032100394
  B       4.292959     -0.000670      1.026639
  B       2.141306      3.708264      1.062627
  B      -2.143655      3.704881      1.047612
  B      -4.258673     -0.015034      0.990389
  B      -2.148350     -3.698234      1.024810
  B       2.151787     -3.720135      1.040304
  B       3.484714      2.024201     -1.054623
  B      -0.011443      4.035788     -1.029135
  B      -3.498536      2.016979     -1.054118
  B      -3.480033     -1.993598     -1.008498
  B      -0.016718     -4.043477     -1.001356
  B       3.486643     -2.018964     -1.044650
12
Coordinates from ORCA-job input E -295.397915663827
  B       4.256174     -0.000263      0.969102
  B       2.122875      3.676069      1.012135
  B      -2.124046      3.670663      0.994581
  B      -4.216375     -0.017927      0.933300
  B      -2.130647     -3.664562      0.972100
  B       2.132966     -3.687339      0.985326
  B       3.456523      2.009961     -1.002546
  B      -0.013259      4.003953     -0.972662
  B      -3.470561      2.000486     -1.003093
  B      -3.450452     -1.975381     -0.957512
  B      -0.020961     -4.012620     -0.940536
  B       3.457763     -2.003039     -0.990196
12
Coordinates from ORCA-job input E -295.443718061554
  B       4.216591      0.000298      0.912668
  B       2.103444      3.642017      0.962946
  B      -2.102693      3.634002      0.942656
  B      -4.171394     -0.021101      0.878242
  B      -2.112171     -3.629145      0.922003
  B       2.112291     -3.651445      0.931286
  B       3.426921      1.994855     -0.951537
  B      -0.014959      3.969919     -0.917372
  B      -3.440125      1.982468     -0.953355
  B      -3.419360     -1.956694     -0.909188
  B      -0.025484     -3.979400     -0.881456
  B       3.426938     -1.985775     -0.936894
12
Coordinates from ORCA-job input E -295.492488393727
  B       4.173623      0.001031      0.857883
  B       2.082764      3.605661      0.915373
  B      -2.079293      3.594567      0.892227
  B      -4.123424     -0.024407      0.825608
  B      -2.092674     -3.591744      0.874753
  B       2.089565     -3.611940      0.878661
  B       3.395389      1.978507     -0.901951
  B      -0.016486      3.933094     -0.863750
  B      -3.406664      1.962699     -0.905209
  B      -3.386427     -1.937340     -0.863680
  B      -0.030063     -3.943282     -0.824674
  B       3.393691     -1.966846     -0.885241
12
Coordinates from ORCA-job input E -295.544174501967
  B       4.126718      0.001920      0.805368
  B       2.060564      3.566545      0.869792
  B      -2.053610      3.552068      0.843724
  B      -4.072146     -0.027740      0.775701
  B      -2.071823     -3.551996      0.830376
  B       2.064658     -3.568448      0.828008
  B       3.361359      1.960510     -0.854226
  B      -0.017825      3.892896     -0.812339
  B      -3.369685      1.940976     -0.858983
  B      -3.351235     -1.917044     -0.820931
  B      -0.034522     -3.903713     -0.770697
  B       3.357548     -1.945974     -0.835792
12
Coordinates from ORCA-job input E -295.598679108889
  B       4.075474      0.002917      0.755726
  B       2.036603      3.524297      0.826583
  B      -2.025524      3.506292      0.797543
  B      -4.017293     -0.031050      0.728724
  B      -2.049260     -3.509457      0.788740
  B       2.037502     -3.520778      0.779860
  B       3.324321      1.940499     -0.808819
  B      -0.019016      3.848856     -0.763652
  B      -3.328823      1.917129     -0.814970
  B      -3.313327     -1.895497     -0.780742
  B      -0.038765     -3.860215     -0.719933
  B       3.318107     -1.922993     -0.789060
12
Coordinates from ORCA-job input E -295.655940104028
  B       4.019730      0.003957      0.709442
  B       2.010720      3.478732      0.786074
  B      -1.995072      3.457148      0.753988
  B      -3.958716     -0.034359      0.684753
  B      -2.024687     -3.463707      0.749626
  B       2.008086     -3.468958      0.734620
  B       3.283942      1.918224     -0.766130
  B      -0.020133      3.800719     -0.718110
  B      -3.283893      1.891036     -0.773368
  B      -3.272288     -1.872421     -0.742817
  B      -0.042791     -3.812482     -0.672653
  B       3.275103     -1.897889     -0.745425
12
Coordinates from ORCA-job input E -295.716029858340
  B       3.959631      0.004962      0.666803
  B       1.982877      3.429926      0.748484
  B      -1.962505      3.404699      0.713242
  B      -3.896431     -0.037763      0.643695
  B      -1.997922     -3.414451      0.712763
  B       1.976445     -3.413257      0.692505
  B       3.240165      1.893606     -0.726431
  B      -0.021275      3.748531     -0.675978
  B      -3.234937      1.862630     -0.734248
  B      -3.227841     -1.847596     -0.706805
  B      -0.046684     -3.760456     -0.628940
  B       3.228477     -1.870831     -0.705090
12
Coordinates from ORCA-job input E -295.780041803423
  B       3.895700      0.005896      0.627877
  B       1.953186      3.378284      0.713911
  B      -1.928315      3.349170      0.675331
  B      -3.830605     -0.041481      0.605154
  B      -1.968987     -3.361648      0.677916
  B       1.942678     -3.354233      0.653531
  B       3.193295      1.866808     -0.689834
  B      -0.022510      3.692683     -0.637319
  B      -3.182232      1.831834     -0.697509
  B      -3.179955     -1.820774     -0.672253
  B      -0.050695     -3.704367     -0.588674
  B       3.178439     -1.842171     -0.668133
12
Coordinates from ORCA-job input E -295.851250975576
  B       3.829772      0.007297      0.592113
  B       1.922006      3.325162      0.681830
  B      -1.893581      3.291229      0.639323
  B      -3.761868     -0.044934      0.566854
  B      -1.939584     -3.307662      0.646131
  B       1.908657     -3.293456      0.617218
  B       3.144952      1.839165     -0.655458
  B      -0.023706      3.634899     -0.601364
  B      -3.126968      1.798293     -0.661904
  B      -3.130484     -1.790920     -0.638299
  B      -0.055903     -3.646408     -0.551979
  B       3.126707     -1.812664     -0.634467
12
Coordinates from ORCA-job input E -295.928572402061
  B       3.762448      0.008650      0.559269
  B       1.889610      3.270990      0.651571
  B      -1.859076      3.232341      0.605688
  B      -3.691174     -0.047516      0.529722
  B      -1.908657     -3.252860      0.615271
  B       1.874642     -3.232094      0.583411
  B       3.095547      1.810677     -0.622977
  B      -0.024810      3.576074     -0.568370
  B      -3.070988      1.762928     -0.627737
  B      -3.079344     -1.759113     -0.604633
  B      -0.062427     -3.586971     -0.517905
  B       3.074230     -1.783106     -0.603311
12
Coordinates from ORCA-job input E -296.010037845340
  B       3.694274      0.009392      0.529448
  B       1.856082      3.215875      0.622981
  B      -1.825509      3.173106      0.575112
  B      -3.619206     -0.050186      0.494775
  B      -1.875062     -3.194875      0.583235
  B       1.840179     -3.171412      0.552427
  B       3.045215      1.780865     -0.592623
  B      -0.025944      3.516561     -0.538697
  B      -3.015655      1.725960     -0.595761
  B      -3.025897     -1.725834     -0.570654
  B      -0.070021     -3.525088     -0.485768
  B       3.021544     -1.754365     -0.574475
12
Coordinates from ORCA-job input E -296.094146446257
  B       3.624906      0.009312      0.501859
  B       1.821432      3.159268      0.595673
  B      -1.792343      3.112364      0.546919
  B      -3.545397     -0.053463      0.462679
  B      -1.839569     -3.133388      0.552180
  B       1.804351     -3.110719      0.523899
  B       2.993826      1.749878     -0.563915
  B      -0.027420      3.455977     -0.511476
  B      -2.960324      1.687414     -0.566136
  B      -2.969887     -1.690745     -0.538109
  B      -0.077772     -3.460072     -0.456022
  B       2.968197     -1.725826     -0.547552
12
Coordinates from ORCA-job input E -296.179198711428
  B       3.553391      0.008333      0.476182
  B       1.785665      3.100238      0.569239
  B      -1.758508      3.050098      0.520258
  B      -3.469884     -0.055954      0.433925
  B      -1.802593     -3.069271      0.523185
  B       1.767143     -3.049090      0.497624
  B       2.940393      1.717605     -0.536441
  B      -0.029561      3.393689     -0.485970
  B      -2.903950      1.647893     -0.538454
  B      -2.910944     -1.654940     -0.508137
  B      -0.084651     -3.392147     -0.429101
  B       2.913497     -1.696454     -0.522310
12
Coordinates from ORCA-job input E -296.262918426120
  B       3.478827      0.007455      0.452428
  B       1.748471      3.038140      0.543721
  B      -1.723382      2.985972      0.495231
  B      -3.393107     -0.056725      0.408552
  B      -1.764555     -3.003287      0.496340
  B       1.728845     -2.985453      0.473147
  B       2.883870      1.683721     -0.510277
  B      -0.031113      3.328684     -0.462342
  B      -2.845360      1.607911     -0.512413
  B      -2.849212     -1.619185     -0.480931
  B      -0.090058     -3.321751     -0.404925
  B       2.856775     -1.665482     -0.498531
12
Coordinates from ORCA-job input E -296.355692379421
  B       3.409493      0.007644      0.419571
  B       1.714078      2.980780      0.509927
  B      -1.691388      2.928380      0.462478
  B      -3.324976     -0.053613      0.375989
  B      -1.732549     -2.946151      0.462539
  B       1.693693     -2.926621      0.439722
  B       2.832153      1.653877     -0.476062
  B      -0.030705      3.271069     -0.429907
  B      -2.792053      1.573370     -0.478191
  B      -2.792834     -1.590073     -0.448144
  B      -0.092287     -3.260609     -0.371221
  B       2.807375     -1.638053     -0.466701
12
Coordinates from ORCA-job input E -296.481114599560
  B       3.341759      0.007450      0.387829
  B       1.680445      2.924319      0.477184
  B      -1.658991      2.869854      0.431500
  B      -3.258706     -0.049927      0.345443
  B      -1.703018     -2.889174      0.429916
  B       1.656991     -2.866726      0.407598
  B       2.779334      1.623917     -0.444432
  B      -0.029126      3.213209     -0.398167
  B      -2.738333      1.538177     -0.445177
  B      -2.735637     -1.562994     -0.417593
  B      -0.093249     -3.198422     -0.338852
  B       2.758531     -1.609683     -0.435249
12
Coordinates from ORCA-job input E -296.572559386918
  B       3.268349      0.011360      0.356308
  B       1.641948      2.863229      0.445549
  B      -1.622966      2.811347      0.402810
  B      -3.192333     -0.045433      0.317337
  B      -1.672280     -2.833622      0.404453
  B       1.616437     -2.809792      0.376642
  B       2.722915      1.591147     -0.412567
  B      -0.023179      3.152118     -0.366735
  B      -2.681291      1.507103     -0.416710
  B      -2.679851     -1.533748     -0.391103
  B      -0.082924     -3.137602     -0.307909
  B       2.705175     -1.576108     -0.408074
12
Coordinates from ORCA-job input E -296.655747275073
  B       3.190959      0.017318      0.326522
  B       1.601107      2.799219      0.414176
  B      -1.586010      2.753222      0.375613
  B      -3.127595     -0.037120      0.293698
  B      -1.641510     -2.781030      0.381599
  B       1.575139     -2.752734      0.347166
  B       2.663605      1.556675     -0.381491
  B      -0.013326      3.088094     -0.337108
  B      -2.622479      1.481253     -0.390014
  B      -2.623540     -1.507813     -0.367993
  B      -0.066600     -3.076998     -0.279556
  B       2.650251     -1.540086     -0.382613
12
Coordinates from ORCA-job input E -296.727681998195
  B       3.113020      0.022924      0.298841
  B       1.561105      2.734390      0.382817
  B      -1.548665      2.695500      0.349690
  B      -3.064050     -0.027418      0.272606
  B      -1.610302     -2.731116      0.359008
  B       1.535850     -2.695212      0.319434
  B       2.602068      1.524006     -0.351810
  B      -0.001867      3.023448     -0.309142
  B      -2.563820      1.457979     -0.364078
  B      -2.567416     -1.483910     -0.346842
  B      -0.050773     -3.016307     -0.252983
  B       2.594849     -1.504283     -0.357542
12
Coordinates from ORCA-job input E -296.796773546605
  B       3.038312      0.027049      0.273127
  B       1.525116      2.672016      0.351288
  B      -1.512578      2.639160      0.324405
  B      -3.002238     -0.017576      0.252989
  B      -1.580032     -2.685206      0.334446
  B       1.501634     -2.638273      0.293658
  B       2.540792      1.495764     -0.323597
  B       0.009007      2.961168     -0.282922
  B      -2.507626      1.436549     -0.337481
  B      -2.512661     -1.462606     -0.326572
  B      -0.040787     -2.956912     -0.227600
  B       2.541062     -1.471132     -0.331741
12
Coordinates from ORCA-job input E -296.837805774799
  B       2.975275      0.035622      0.250035
  B       1.503628      2.626319      0.322486
  B      -1.476987      2.596846      0.296461
  B      -2.949521     -0.030355      0.241525
  B      -1.564959     -2.639594      0.302979
  B       1.461809     -2.589061      0.269565
  B       2.493266      1.475332     -0.295683
  B       0.020203      2.913597     -0.260998
  B      -2.450154      1.428222     -0.311840
  B      -2.459035     -1.477091     -0.302527
  B      -0.044970     -2.902844     -0.205655
  B       2.491446     -1.436995     -0.306347
12
Coordinates from ORCA-job input E -296.863052286021
  B       2.930772      0.035570      0.224191
  B       1.488032      2.595358      0.294661
  B      -1.448124      2.571481      0.274271
  B      -2.914562     -0.030098      0.213688
  B      -1.528823     -2.637611      0.284154
  B       1.452116     -2.554394      0.246394
  B       2.455341      1.463287     -0.271164
  B       0.022767      2.882233     -0.235173
  B      -2.419746      1.411191     -0.285068
  B      -2.447816     -1.440076     -0.288575
  B      -0.048878     -2.876441     -0.177285
  B       2.458921     -1.420501     -0.280095
12
Coordinates from ORCA-job input E -296.879344227277
  B       2.914046      0.034906      0.203711
  B       1.485358      2.593493      0.271255
  B      -1.442755      2.562405      0.253040
  B      -2.899000     -0.017901      0.197951
  B      -1.558149     -2.620279      0.259414
  B       1.432600     -2.547095      0.223843
  B       2.448770      1.456695     -0.250582
  B       0.030196      2.876304     -0.216911
  B      -2.408590      1.402689     -0.257454
  B      -2.429035     -1.473621     -0.267925
  B      -0.022179     -2.858764     -0.159475
  B       2.448739     -1.408831     -0.256867
12
Coordinates from ORCA-job input E -296.895378611556
  B       2.924859      0.046000      0.185912
  B       1.500385      2.617270      0.252586
  B      -1.450239      2.576560      0.232316
  B      -2.908630     -0.048225      0.183578
  B      -1.563871     -2.653126      0.237583
  B       1.448549     -2.549158      0.207719
  B       2.465151      1.468340     -0.232184
  B       0.033548      2.898732     -0.200965
  B      -2.399747      1.427565     -0.237040
  B      -2.445673     -1.489661     -0.251161
  B      -0.059018     -2.873275     -0.141136
  B       2.454687     -1.421022     -0.237208
12
Coordinates from ORCA-job input E -296.906518025043
  B       2.938468      0.030997      0.167619
  B       1.525355      2.646472      0.235532
  B      -1.435649      2.616200      0.221794
  B      -2.922391     -0.049960      0.159990
  B      -1.558927     -2.700707      0.224702
  B       1.438251     -2.580304      0.195289
  B       2.473850      1.497488     -0.219601
  B       0.020946      2.934125     -0.183327
  B      -2.420797      1.411188     -0.219919
  B      -2.472488     -1.482847     -0.242889
  B      -0.058709     -2.903124     -0.118653
  B       2.472091     -1.419528     -0.220539
12
Coordinates from ORCA-job input E -296.916867737703
  B       2.948041      0.050729      0.152305
  B       1.515007      2.685249      0.216507
  B      -1.458332      2.624112      0.210933
  B      -2.931223     -0.037378      0.142381
  B      -1.573306     -2.729297      0.208676
  B       1.448350     -2.593997      0.179299
  B       2.497410      1.484024     -0.206474
  B       0.053606      2.958284     -0.168918
  B      -2.434945      1.408349     -0.196722
  B      -2.488996     -1.489714     -0.231657
  B      -0.046453     -2.917703     -0.103297
  B       2.470840     -1.442660     -0.203033
12
Coordinates from ORCA-job input E -296.926255717131
  B       2.952359      0.041768      0.144607
  B       1.545600      2.684424      0.197889
  B      -1.474790      2.617584      0.189245
  B      -2.928893     -0.044110      0.138955
  B      -1.613346     -2.727570      0.185253
  B       1.462137     -2.587753      0.164059
  B       2.497253      1.509031     -0.189703
  B       0.035774      2.959480     -0.163182
  B      -2.413979      1.436055     -0.173944
  B      -2.487319     -1.530214     -0.212962
  B      -0.050436     -2.911133     -0.097721
  B       2.475639     -1.447561     -0.182496
12
Coordinates from ORCA-job input E -296.935071553512
  B       2.947783      0.054830      0.125367
  B       1.546381      2.715284      0.182523
  B      -1.440880      2.650609      0.176647
  B      -2.923979     -0.073232      0.124298
  B      -1.617648     -2.758929      0.165723
  B       1.438946     -2.604066      0.155838
  B       2.507240      1.503337     -0.177775
  B       0.033454      2.986552     -0.145691
  B      -2.399878      1.425285     -0.158835
  B      -2.492586     -1.550103     -0.200126
  B      -0.075840     -2.925498     -0.081526
  B       2.477006     -1.424071     -0.166444
12
Coordinates from ORCA-job input E -296.940504905986
  B       2.941530      0.038253      0.118306
  B       1.555014      2.737828      0.157761
  B      -1.455887      2.659708      0.170881
  B      -2.919308     -0.059558      0.109617
  B      -1.595719     -2.797125      0.149539
  B       1.437985     -2.620578      0.143708
  B       2.493139      1.535519     -0.167587
  B       0.061473      3.006173     -0.137341
  B      -2.410523      1.409468     -0.136786
  B      -2.504148     -1.526379     -0.192931
  B      -0.070621     -2.941783     -0.069298
  B       2.467066     -1.441526     -0.145869
12
Coordinates from ORCA-job input E -296.945806172874
  B       2.941023      0.064004      0.108307
  B       1.570241      2.745775      0.143530
  B      -1.452329      2.668192      0.153383
  B      -2.914656     -0.050780      0.100752
  B      -1.618928     -2.811708      0.133006
  B       1.454438     -2.619405      0.128881
  B       2.508833      1.522669     -0.151596
  B       0.029412      3.013783     -0.128115
  B      -2.400137      1.408805     -0.118453
  B      -2.512817     -1.535061     -0.178303
  B      -0.057724     -2.942134     -0.062380
  B       2.452644     -1.464140     -0.129013
12
Coordinates from ORCA-job input E -296.948631376372
  B       2.938835      0.061510      0.097571
  B       1.560606      2.768860      0.127763
  B      -1.454560      2.658505      0.140112
  B      -2.905411     -0.085238      0.098578
  B      -1.657999     -2.808674      0.110940
  B       1.433662     -2.629105      0.124973
  B       2.512193      1.517405     -0.143724
  B       0.047012      3.021631     -0.120091
  B      -2.359667      1.438015     -0.101137
  B      -2.509845     -1.580849     -0.163947
  B      -0.075170     -2.943122     -0.058485
  B       2.470344     -1.418938     -0.112553
12
Coordinates from ORCA-job input E -296.952897675624
  B       2.928898      0.056621      0.094949
  B       1.570555      2.782032      0.108960
  B      -1.434927      2.686862      0.138743
  B      -2.897405     -0.075535      0.094214
  B      -1.643294     -2.827548      0.094242
  B       1.440308     -2.626871      0.120242
  B       2.499869      1.543153     -0.138455
  B       0.062372      3.043978     -0.114937
  B      -2.371235      1.400939     -0.087547
  B      -2.498102     -1.600625     -0.159159
  B      -0.109811     -2.949687     -0.055610
  B       2.452770     -1.433318     -0.095642
12
Coordinates from ORCA-job input E -296.953729426419
  B       2.925966      0.059426      0.094131
  B       1.585484      2.776808      0.102999
  B      -1.446783      2.692678      0.134955
  B      -2.897877     -0.080262      0.087289
  B      -1.619892     -2.857473      0.095073
  B       1.431687     -2.639415      0.111566
  B       2.499561      1.549594     -0.131690
  B       0.048610      3.051524     -0.114332
  B      -2.372469      1.405230     -0.082393
  B      -2.526679     -1.544285     -0.155713
  B      -0.065005     -2.961790     -0.050583
  B       2.437398     -1.452037     -0.091302
12
Coordinates from ORCA-job input E -296.958596352759
  B       2.923634      0.055233      0.088364
  B       1.572931      2.789097      0.092123
  B      -1.452100      2.686365      0.126761
  B      -2.889069     -0.060526      0.087205
  B      -1.632009     -2.857114      0.079787
  B       1.438553     -2.642379      0.109579
  B       2.503893      1.533349     -0.127388
  B       0.041110      3.055820     -0.109736
  B      -2.358139      1.417278     -0.069180
  B      -2.516209     -1.571025     -0.149222
  B      -0.078549     -2.965871     -0.050295
  B       2.445954     -1.440227     -0.077999
12
Coordinates from ORCA-job input E -296.959347007252
  B       2.918933      0.069682      0.089111
  B       1.575731      2.794062      0.083555
  B      -1.434371      2.687244      0.124907
  B      -2.883381     -0.097987      0.087786
  B      -1.657145     -2.837056      0.071522
  B       1.427972     -2.637143      0.108015
  B       2.501197      1.551765     -0.124703
  B       0.065997      3.063840     -0.108827
  B      -2.346218      1.400244     -0.064488
  B      -2.515818     -1.596501     -0.142181
  B      -0.088892     -2.960273     -0.054140
  B       2.435996     -1.437876     -0.070557
12
Coordinates from ORCA-job input E -296.962299701305
  B       2.914584      0.064354      0.085159
  B       1.581066      2.798112      0.070704
  B      -1.441936      2.689934      0.118675
  B      -2.876087     -0.085182      0.085094
  B      -1.645119     -2.851530      0.059008
  B       1.427847     -2.643419      0.102993
  B       2.503643      1.548275     -0.118623
  B       0.054325      3.076246     -0.105830
  B      -2.341953      1.400151     -0.051642
  B      -2.519157     -1.590377     -0.136322
  B      -0.089859     -2.970298     -0.052293
  B       2.432645     -1.436266     -0.056923
12
Coordinates from ORCA-job input E -296.963673539988
  B       2.905068      0.057646      0.084664
  B       1.564818      2.800877      0.061728
  B      -1.431399      2.694796      0.115063
  B      -2.868356     -0.077206      0.085199
  B      -1.637831     -2.860563      0.051590
  B       1.431237     -2.647795      0.100764
  B       2.495797      1.550786     -0.116652
  B       0.048866      3.088866     -0.103766
  B      -2.329460      1.410334     -0.044333
  B      -2.526240     -1.589149     -0.132810
  B      -0.080689     -2.986523     -0.054695
  B       2.428188     -1.442071     -0.046752
12
Coordinates from ORCA-job input E -296.965968750076
  B       2.896247      0.066372      0.083678
  B       1.570241      2.792103      0.048590
  B      -1.432757      2.687049      0.111272
  B      -2.858191     -0.078107      0.085806
  B      -1.630097     -2.856449      0.040538
  B       1.421617     -2.646315      0.098419
  B       2.504505      1.552437     -0.111916
  B       0.050051      3.110131     -0.103989
  B      -2.325073      1.405355     -0.033369
  B      -2.540139     -1.591448     -0.126410
  B      -0.080744     -3.007221     -0.060226
  B       2.424339     -1.433907     -0.032392
12
Coordinates from ORCA-job input E -296.968938837121
  B       2.889640      0.055640      0.082470
  B       1.565581      2.799888      0.030402
  B      -1.433554      2.684875      0.105149
  B      -2.838086     -0.089419      0.084931
  B      -1.622436     -2.834810      0.025308
  B       1.412746     -2.643076      0.094407
  B       2.523715      1.555378     -0.107464
  B       0.040419      3.158553     -0.100800
  B      -2.319327      1.392221     -0.020082
  B      -2.556930     -1.597256     -0.114898
  B      -0.079620     -3.040391     -0.068098
  B       2.417851     -1.441603     -0.011326
12
Coordinates from ORCA-job input E -296.971875166345
  B       2.869534      0.082494      0.080299
  B       1.556127      2.797453      0.013562
  B      -1.403613      2.690785      0.098664
  B      -2.819530     -0.091841      0.084084
  B      -1.617035     -2.835301      0.011816
  B       1.396157     -2.651986      0.090385
  B       2.527177      1.582267     -0.101495
  B       0.049632      3.207233     -0.094721
  B      -2.299739      1.395894     -0.010359
  B      -2.584632     -1.627949     -0.104319
  B      -0.081262     -3.107654     -0.073810
  B       2.407185     -1.441395      0.005893
12
Coordinates from ORCA-job input E -296.973814196367
  B       2.840622      0.078053      0.074967
  B       1.541228      2.783840     -0.000791
  B      -1.382865      2.686638      0.090992
  B      -2.805443     -0.101970      0.079149
  B      -1.610002     -2.821559     -0.000574
  B       1.396955     -2.633048      0.084170
  B       2.534234      1.581261     -0.095481
  B       0.058929      3.247204     -0.084483
  B      -2.286161      1.393192     -0.003948
  B      -2.617091     -1.636659     -0.090603
  B      -0.069455     -3.152080     -0.074906
  B       2.399049     -1.424870      0.021508
12
Coordinates from ORCA-job input E -296.974930592492
  B       2.821336      0.072717      0.068258
  B       1.512315      2.801207     -0.012435
  B      -1.369682      2.675415      0.081061
  B      -2.760731     -0.112298      0.071248
  B      -1.576523     -2.801748     -0.010388
  B       1.351605     -2.648596      0.075702
  B       2.545934      1.602184     -0.089660
  B       0.042965      3.294491     -0.070075
  B      -2.255175      1.393253     -0.000828
  B      -2.610011     -1.644033     -0.076359
  B      -0.076098     -3.186363     -0.068573
  B       2.374065     -1.446229      0.032050
12
Coordinates from ORCA-job input E -296.976149458608
  B       2.817125      0.087911      0.061535
  B       1.514364      2.799201     -0.020373
  B      -1.354237      2.673551      0.073202
  B      -2.754447     -0.110872      0.064367
  B      -1.592451     -2.802157     -0.018512
  B       1.363207     -2.645785      0.069352
  B       2.544502      1.610045     -0.081994
  B       0.046615      3.307333     -0.059281
  B      -2.248335      1.380424      0.001420
  B      -2.633547     -1.647806     -0.065378
  B      -0.079908     -3.214563     -0.062966
  B       2.377111     -1.437282      0.038627
12
Coordinates from ORCA-job input E -296.976041449755
  B       2.791571      0.082264      0.054257
  B       1.536427      2.796784     -0.024897
  B      -1.343987      2.699726      0.066195
  B      -2.766521     -0.122541      0.059058
  B      -1.577920     -2.826070     -0.023467
  B       1.360452     -2.629023      0.062199
  B       2.534675      1.595314     -0.074000
  B       0.068848      3.331293     -0.049143
  B      -2.254192      1.389337      0.001317
  B      -2.636069     -1.682049     -0.056777
  B      -0.065474     -3.208963     -0.054485
  B       2.352191     -1.426073      0.039742
12
Coordinates from ORCA-job input E -296.977227239886
  B       2.798128      0.088447      0.050195
  B       1.522426      2.806114     -0.028251
  B      -1.338700      2.678778      0.060247
  B      -2.751147     -0.120918      0.054313
  B      -1.592350     -2.820617     -0.027023
  B       1.357878     -2.642647      0.057602
  B       2.534966      1.609158     -0.069390
  B       0.060441      3.326561     -0.041929
  B      -2.239966      1.379908      0.001137
  B      -2.634162     -1.665161     -0.049742
  B      -0.078612     -3.213496     -0.049376
  B       2.361099     -1.426127      0.042216
12
Coordinates from ORCA-job input E -296.977730127311
  B       2.796492      0.089250      0.042372
  B       1.520650      2.815271     -0.032735
  B      -1.333294      2.669730      0.051201
  B      -2.742208     -0.120327      0.046730
  B      -1.597084     -2.823477     -0.031698
  B       1.356479     -2.646945      0.049707
  B       2.530722      1.612899     -0.061048
  B       0.058468      3.332778     -0.029605
  B      -2.234842      1.375815     -0.000239
  B      -2.631074     -1.662575     -0.039033
  B      -0.082814     -3.213519     -0.039635
  B       2.358505     -1.428900      0.043983
12
Coordinates from ORCA-job input E -296.978196456646
  B       2.793419      0.089067      0.031038
  B       1.523378      2.824392     -0.036735
  B      -1.323224      2.660707      0.038877
  B      -2.739883     -0.121885      0.035919
  B      -1.603416     -2.832394     -0.036054
  B       1.357530     -2.648863      0.038502
  B       2.523004      1.613878     -0.049126
  B       0.061834      3.339449     -0.012421
  B      -2.238388      1.377277     -0.004039
  B      -2.627190     -1.664381     -0.024831
  B      -0.085303     -3.208222     -0.025037
  B       2.358239     -1.429024      0.043907
12
Coordinates from ORCA-job input E -296.978439641698
  B       2.792489      0.086686      0.020499
  B       1.525721      2.828423     -0.038100
  B      -1.315360      2.651616      0.027888
  B      -2.741729     -0.120853      0.025597
  B      -1.603873     -2.835618     -0.037432
  B       1.359957     -2.646967      0.028219
  B       2.518435      1.611709     -0.038329
  B       0.064604      3.343810      0.002728
  B      -2.252963      1.382254     -0.008881
  B      -2.625030     -1.665351     -0.012421
  B      -0.084675     -3.202696     -0.011873
  B       2.362423     -1.433014      0.042105
12
Coordinates from ORCA-job input E -296.978517410177
  B       2.795823      0.084445      0.013901
  B       1.526904      2.826476     -0.036596
  B      -1.312542      2.644683      0.021035
  B      -2.749397     -0.118606      0.018943
  B      -1.603890     -2.834334     -0.035885
  B       1.363694     -2.644713      0.021448
  B       2.517485      1.608541     -0.031312
  B       0.065798      3.340391      0.010934
  B      -2.269096      1.388275     -0.012589
  B      -2.623909     -1.663703     -0.005510
  B      -0.083184     -3.195685     -0.003691
  B       2.372313     -1.435772      0.039323
12
Coordinates from ORCA-job input E -296.978568783727
  B       2.803073      0.081543      0.010488
  B       1.527562      2.821590     -0.032607
  B      -1.315819      2.640767      0.017148
  B      -2.761407     -0.114415      0.015442
  B      -1.602114     -2.829193     -0.031895
  B       1.368368     -2.642699      0.017465
  B       2.519691      1.604807     -0.027051
  B       0.065427      3.331681      0.013471
  B      -2.285117      1.392743     -0.015542
  B      -2.623371     -1.659540     -0.002711
  B      -0.080791     -3.187727      0.000247
  B       2.384499     -1.439558      0.035547
12
Coordinates from ORCA-job input E -296.978695687735
  B       2.827972      0.072249      0.003730
  B       1.527697      2.800602     -0.018149
  B      -1.330720      2.631939      0.009023
  B      -2.800761     -0.101196      0.008086
  B      -1.593563     -2.806405     -0.017349
  B       1.382204     -2.636015      0.008967
  B       2.530458      1.593318     -0.017507
  B       0.061412      3.301068      0.015100
  B      -2.330813      1.404476     -0.023491
  B      -2.624510     -1.644372      0.001115
  B      -0.071964     -3.165900      0.007437
  B       2.422587     -1.449762      0.023037
12
Coordinates from ORCA-job input E -296.978792219528
  B       2.853075      0.063627     -0.001040
  B       1.525218      2.775747     -0.003519
  B      -1.347069      2.624453      0.002625
  B      -2.839343     -0.088910      0.002484
  B      -1.581152     -2.776379     -0.002658
  B       1.393912     -2.628097      0.002446
  B       2.544633      1.583405     -0.009393
  B       0.056674      3.270728      0.013734
  B      -2.371389      1.412697     -0.030314
  B      -2.630108     -1.628807      0.003084
  B      -0.062596     -3.150359      0.012062
  B       2.458144     -1.458104      0.010488
12
Coordinates from ORCA-job input E -296.978849501594
  B       2.874181      0.057288     -0.003717
  B       1.522387      2.753531      0.007445
  B      -1.360276      2.618744     -0.001424
  B      -2.869294     -0.079939     -0.000914
  B      -1.569145     -2.747304      0.008266
  B       1.401529     -2.620317     -0.001488
  B       2.557446      1.576734     -0.003639
  B       0.052385      3.245403      0.010950
  B      -2.398913      1.415980     -0.034426
  B      -2.637562     -1.617148      0.003545
  B      -0.055579     -3.141543      0.014460
  B       2.482842     -1.461429      0.000942
12
Coordinates from ORCA-job input E -296.978878342931
  B       2.884870      0.056038     -0.004515
  B       1.522837      2.746057      0.010572
  B      -1.365610      2.616367     -0.002808
  B      -2.881509     -0.077934     -0.001930
  B      -1.564510     -2.735268      0.011298
  B       1.403546     -2.616767     -0.002718
  B       2.563401      1.575121     -0.001417
  B       0.051716      3.234407      0.009305
  B      -2.406576      1.414756     -0.034572
  B      -2.642565     -1.613849      0.003456
  B      -0.053972     -3.139176      0.015072
  B       2.488372     -1.459750     -0.001743
12
Coordinates from ORCA-job input E -296.978922549209
  B       2.902708      0.056515     -0.006004
  B       1.526432      2.738814      0.012550
  B      -1.371629      2.611938     -0.004655
  B      -2.898151     -0.077486     -0.003601
  B      -1.559707     -2.720129      0.013070
  B       1.404547     -2.611579     -0.004251
  B       2.572246      1.573893      0.001796
  B       0.051557      3.217596      0.007290
  B      -2.413477      1.411035     -0.032467
  B      -2.651293     -1.611397      0.003389
  B      -0.052726     -3.135830      0.016251
  B       2.489492     -1.453371     -0.003367
12
Coordinates from ORCA-job input E -296.978947957417
  B       2.914438      0.058985     -0.007077
  B       1.531324      2.738447      0.012003
  B      -1.373349      2.607609     -0.005507
  B      -2.906797     -0.079335     -0.004666
  B      -1.559616     -2.715128      0.012336
  B       1.403526     -2.608180     -0.004803
  B       2.578136      1.574537      0.003585
  B       0.053111      3.207150      0.006371
  B      -2.415314      1.407883     -0.029760
  B      -2.657123     -1.612173      0.003273
  B      -0.053131     -3.132978      0.017150
  B       2.484794     -1.446816     -0.002904
12
Coordinates from ORCA-job input E -296.978963975100
  B       2.923659      0.061366     -0.008060
  B       1.536259      2.738768      0.011455
  B      -1.373234      2.601931     -0.006177
  B      -2.913259     -0.080957     -0.005676
  B      -1.561342     -2.713423      0.011624
  B       1.402406     -2.604530     -0.005178
  B       2.583880      1.575517      0.005128
  B       0.054554      3.198046      0.005808
  B      -2.419121      1.406336     -0.027619
  B      -2.661541     -1.613172      0.003267
  B      -0.053633     -3.128631      0.018068
  B       2.481370     -1.441251     -0.002641
12
Coordinates from ORCA-job input E -296.978978647582
  B       2.932128      0.064625     -0.008542
  B       1.542232      2.739835      0.010862
  B      -1.371838      2.593975     -0.006458
  B      -2.918791     -0.083089     -0.006193
  B      -1.564987     -2.714167      0.010820
  B       1.400526     -2.599245     -0.005043
  B       2.591512      1.578003      0.006371
  B       0.057192      3.188446      0.004694
  B      -2.424170      1.404788     -0.025399
  B      -2.666253     -1.615156      0.002893
  B      -0.055272     -3.123048      0.018483
  B       2.477721     -1.434968     -0.002488
12
Coordinates from ORCA-job input E -296.978997177367
  B       2.945251      0.068110     -0.009006
  B       1.550190      2.737561      0.011666
  B      -1.370657      2.580840     -0.007216
  B      -2.929912     -0.084412     -0.006853
  B      -1.569428     -2.712436      0.011299
  B       1.398447     -2.589532     -0.005109
  B       2.604998      1.581515      0.008660
  B       0.060366      3.171534      0.002259
  B      -2.436450      1.403056     -0.023045
  B      -2.673711     -1.616506      0.002357
  B      -0.057166     -3.113170      0.018748
  B       2.478071     -1.426560     -0.003760
12
Coordinates from ORCA-job input E -296.979018663725
  B       2.958617      0.073213     -0.008216
  B       1.559696      2.734587      0.012122
  B      -1.367938      2.563644     -0.007360
  B      -2.941335     -0.086702     -0.006330
  B      -1.575660     -2.711456      0.011433
  B       1.393850     -2.575264     -0.004261
  B       2.623869      1.588011      0.010552
  B       0.065197      3.152214     -0.001849
  B      -2.449792      1.399410     -0.019824
  B      -2.683746     -1.619472      0.001042
  B      -0.061160     -3.102632      0.017544
  B       2.478402     -1.415554     -0.004853
12
Coordinates from ORCA-job input E -296.979034796466
  B       2.967120      0.077734     -0.006609
  B       1.566744      2.731136      0.011849
  B      -1.365054      2.549794     -0.006900
  B      -2.949577     -0.088831     -0.004999
  B      -1.580586     -2.710572      0.011013
  B       1.388205     -2.561835     -0.002897
  B       2.641002      1.594978      0.011317
  B       0.069014      3.137826     -0.005841
  B      -2.458683      1.395296     -0.016823
  B      -2.692726     -1.622601     -0.000438
  B      -0.065142     -3.096181      0.015409
  B       2.479683     -1.406745     -0.005081
12
Coordinates from ORCA-job input E -296.979044765542
  B       2.968938      0.080977     -0.004828
  B       1.570644      2.730164      0.010491
  B      -1.363086      2.543608     -0.005834
  B      -2.952352     -0.090879     -0.003381
  B      -1.584023     -2.712016      0.009644
  B       1.383448     -2.553402     -0.001282
  B       2.650511      1.600093      0.010548
  B       0.071481      3.131468     -0.008312
  B      -2.459256      1.391396     -0.014531
  B      -2.697255     -1.625200     -0.001787
  B      -0.068459     -3.094132      0.013227
  B       2.479410     -1.402077     -0.003954
12
Coordinates from ORCA-job input E -296.979053534982
  B       2.970226      0.083787     -0.003436
  B       1.574269      2.729791      0.008337
  B      -1.362026      2.539952     -0.004925
  B      -2.955894     -0.093082     -0.002180
  B      -1.586971     -2.713496      0.007555
  B       1.378873     -2.545952      0.000124
  B       2.658671      1.604547      0.009736
  B       0.073386      3.126186     -0.009985
  B      -2.457883      1.387214     -0.011880
  B      -2.701222     -1.627341     -0.002752
  B      -0.071043     -3.092952      0.011393
  B       2.479614     -1.398655     -0.001987
12
Coordinates from ORCA-job input E -296.979059598834
  B       2.971102      0.086601     -0.002448
  B       1.578166      2.731051      0.005480
  B      -1.361024      2.537609     -0.004028
  B      -2.958733     -0.095533     -0.001385
  B      -1.590385     -2.716333      0.004774
  B       1.374810     -2.539775      0.001450
  B       2.664191      1.608097      0.008759
  B       0.075299      3.121132     -0.010840
  B      -2.454295      1.382881     -0.008957
  B      -2.703733     -1.629315     -0.003521
  B      -0.073506     -3.090999      0.010060
  B       2.478109     -1.395415      0.000654
12
Coordinates from ORCA-job input E -296.979061712284
  B       2.973568      0.087608     -0.002528
  B       1.580539      2.731549      0.004172
  B      -1.360996      2.535708     -0.004097
  B      -2.962073     -0.096475     -0.001648
  B      -1.591940     -2.716902      0.003543
  B       1.373517     -2.536827      0.001620
  B       2.667145      1.609207      0.008913
  B       0.076244      3.117329     -0.010831
  B      -2.454509      1.381148     -0.007453
  B      -2.705506     -1.629845     -0.003438
  B      -0.074118     -3.088877      0.009980
  B       2.478128     -1.393622      0.001767
12
Coordinates from ORCA-job input E -296.979062434279
  B       2.972755      0.087792     -0.002540
  B       1.580598      2.733073      0.003009
  B      -1.360428      2.536451     -0.003936
  B      -2.960989     -0.096992     -0.001775
  B      -1.592465     -2.718246      0.002490
  B       1.373298     -2.537432      0.001778
  B       2.665722      1.608996      0.008490
  B       0.076333      3.118644     -0.010153
  B      -2.452447      1.380878     -0.006946
  B      -2.705026     -1.630241     -0.003242
  B      -0.074213     -3.089080      0.009995
  B       2.476863     -1.393844      0.002830
