12
Optimized coordinates extracted from calculations\B12\bilayer_3d\d_4.5\mult_3\output.out
B        2.97275505       0.08779243      -0.00254031
B        1.58059820       2.73307321       0.00300935
B       -1.36042777       2.53645124      -0.00393632
B       -2.96098944      -0.09699171      -0.00177465
B       -1.59246517      -2.71824601       0.00248997
B        1.37329764      -2.53743198       0.00177850
B        2.66572233       1.60899605       0.00848989
B        0.07633266       3.11864434      -0.01015349
B       -2.45244694       1.38087794      -0.00694640
B       -2.70502593      -1.63024109      -0.00324177
B       -0.07421342      -3.08908037       0.00999510
B        2.47686281      -1.39384405       0.00283012
