12
B12 random_3d_01; neutral charge=0; multiplicity=3; 3D initial geometry; nominal d=4.5 A; Random 3D B12 cloud with controlled minimum distance 01.
B        5.44479972       2.20333759      -5.59564615
B        4.40795751      -0.69148014       0.59204053
B       -3.85077406       3.18351867       5.27105873
B       -0.00738891       1.66762254      -8.29584204
B        5.08872702      -6.44698646      -1.08970557
B        0.44891937      -4.75029235       2.44921091
B       -1.21511606      -5.13184888       5.29299073
B       -3.44486898      -2.20827218       1.63845504
B        4.18389260       5.89094035       3.59352669
B       -5.06119154      -5.49826507      -2.95992983
B       -7.47225361       6.60711679      -1.67915307
B        1.47729695       5.17460913       0.78299402
