12
B12 planar_triangular_patch; neutral charge=0; multiplicity=3; planar initial geometry; nominal d=3.0 A; Compact planar triangular-lattice B12 control motif.
B       -5.00000000      -2.59807621       0.00000000
B       -2.00000000      -2.59807621       0.00000000
B        1.00000000      -2.59807621       0.00000000
B        4.00000000      -2.59807621       0.00000000
B       -3.50000000       0.00000000       0.00000000
B       -0.50000000       0.00000000       0.00000000
B        2.50000000       0.00000000       0.00000000
B        5.50000000       0.00000000       0.00000000
B       -5.00000000       2.59807621       0.00000000
B       -2.00000000       2.59807621       0.00000000
B        1.00000000       2.59807621       0.00000000
B        4.00000000       2.59807621       0.00000000
