12
B12 quasi_planar_buckled_double_ring; neutral charge=0; multiplicity=1; quasi_planar initial geometry; nominal d=2.5 A; Low-amplitude buckled B6@B6 control motif.
B        2.50000000       0.00000000       0.20000000
B        1.25000000       2.16506351      -0.20000000
B       -1.25000000       2.16506351       0.20000000
B       -2.50000000       0.00000000      -0.20000000
B       -1.25000000      -2.16506351       0.20000000
B        1.25000000      -2.16506351      -0.20000000
B        3.75000000       2.16506351       0.30000000
B        0.00000000       4.33012702      -0.30000000
B       -3.75000000       2.16506351       0.30000000
B       -3.75000000      -2.16506351      -0.30000000
B       -0.00000000      -4.33012702       0.30000000
B        3.75000000      -2.16506351      -0.30000000
