12
B12 planar_triangular_patch; neutral charge=0; multiplicity=1; planar initial geometry; nominal d=2.0 A; Compact planar triangular-lattice B12 control motif.
B       -3.33333333      -1.73205081       0.00000000
B       -1.33333333      -1.73205081       0.00000000
B        0.66666667      -1.73205081       0.00000000
B        2.66666667      -1.73205081       0.00000000
B       -2.33333333       0.00000000       0.00000000
B       -0.33333333       0.00000000       0.00000000
B        1.66666667       0.00000000       0.00000000
B        3.66666667       0.00000000       0.00000000
B       -3.33333333       1.73205081       0.00000000
B       -1.33333333       1.73205081       0.00000000
B        0.66666667       1.73205081       0.00000000
B        2.66666667       1.73205081       0.00000000
