12
B12 random_3d_01; neutral charge=0; multiplicity=1; 3d initial geometry; nominal d=5.0 A; Random 3D B12 cloud with controlled minimum distance 01.
B       -7.67893027       4.37019185      -4.48225959
B        7.69879591      -5.13912659       5.18645887
B       -3.92144522      -8.44985863       0.60500443
B       -1.90986492       5.12951413      -3.38527934
B       -4.11209043      -3.97073589       4.82042233
B        5.84848581       3.99935381       6.82516368
B        5.38285485       2.82993234      -0.25610518
B        5.42950521       0.66496137      -7.18046902
B       -7.12967065      -5.91857565       6.38635582
B       -4.62120296      -3.29704159      -0.52681427
B        2.59130180       4.00280224      -6.48410634
B        2.42226089       5.77858260      -1.50837141
