12
B12 random_3d_03; neutral charge=0; multiplicity=3; 3d initial geometry; nominal d=3.5 A; Random 3D B12 cloud with controlled minimum distance 03.
B        5.40498107      -4.16003316       4.12299167
B       -0.09471247      -5.45871951       1.50571769
B       -3.03404358      -0.81545920      -0.73066641
B       -4.22324731      -3.66739823       0.20021733
B       -4.99697843       4.53804674      -1.09349008
B       -1.88848048      -3.14394511      -1.01166356
B       -0.11837006       5.82294553      -4.87649530
B        5.37690408      -5.45874643      -4.20748891
B        6.43802398      -0.82972107       5.27039734
B       -2.43726193       3.73580798      -0.94104131
B        5.11633787       4.34924488      -0.36766245
B       -5.54315273       5.08797755       2.12918399
