12
B12 icosahedron; neutral charge=0; multiplicity=5; 3d initial geometry; nominal d=4.0 A; Regular icosahedral B12 vertex shell.
B        0.00000000      -2.00000000      -3.23606798
B        0.00000000      -2.00000000       3.23606798
B        0.00000000       2.00000000      -3.23606798
B        0.00000000       2.00000000       3.23606798
B       -2.00000000      -3.23606798       0.00000000
B       -2.00000000       3.23606798       0.00000000
B        2.00000000      -3.23606798       0.00000000
B        2.00000000       3.23606798       0.00000000
B       -3.23606798       0.00000000      -2.00000000
B       -3.23606798       0.00000000       2.00000000
B        3.23606798       0.00000000      -2.00000000
B        3.23606798       0.00000000       2.00000000
