12
Coordinates from ORCA-job input E -295.471906275297
  B       3.500000     -0.000000      1.085000
  B       1.750000      3.031089      1.085000
  B      -1.750000      3.031089      1.085000
  B      -3.500000      0.000000      1.085000
  B      -1.750000     -3.031089      1.085000
  B       1.750000     -3.031089      1.085000
  B       2.849224      1.645000     -1.085000
  B       0.000000      3.290000     -1.085000
  B      -2.849224      1.645000     -1.085000
  B      -2.849224     -1.645000     -1.085000
  B      -0.000000     -3.290000     -1.085000
  B       2.849224     -1.645000     -1.085000
12
Coordinates from ORCA-job input E -295.507363601550
  B       3.480297      0.000010      1.061854
  B       1.738444      3.012210      1.066712
  B      -1.738397      3.012201      1.065507
  B      -3.480459      0.000435      1.061751
  B      -1.738284     -3.012412      1.065864
  B       1.738922     -3.012320      1.065605
  B       2.832707      1.632496     -1.063893
  B       0.000267      3.266377     -1.065208
  B      -2.832130      1.631771     -1.064977
  B      -2.833215     -1.632279     -1.063485
  B      -0.000164     -3.266841     -1.064851
  B       2.832013     -1.631646     -1.064879
12
Coordinates from ORCA-job input E -295.529841904097
  B       3.463611      0.002693      1.037626
  B       1.727365      2.999660      1.044244
  B      -1.734072      2.996939      1.044974
  B      -3.464455     -0.000273      1.038887
  B      -1.731098     -2.999017      1.042010
  B       1.733886     -2.997808      1.042798
  B       2.820473      1.625748     -1.041605
  B       0.005052      3.252856     -1.043570
  B      -2.815398      1.627906     -1.042000
  B      -2.821220     -1.625590     -1.039401
  B      -0.001524     -3.256248     -1.042110
  B       2.817381     -1.626867     -1.041855
12
Coordinates from ORCA-job input E -295.545280967289
  B       3.453086      0.004391      1.021542
  B       1.720719      2.991590      1.029124
  B      -1.731422      2.987284      1.030773
  B      -3.454414     -0.000912      1.023459
  B      -1.726099     -2.990543      1.025816
  B       1.731000     -2.988507      1.027620
  B       2.812829      1.621543     -1.026504
  B       0.008028      3.244649     -1.028857
  B      -2.804937      1.625493     -1.026573
  B      -2.813810     -1.621417     -1.023220
  B      -0.002787     -3.249579     -1.026788
  B       2.807808     -1.623992     -1.026393
12
Coordinates from ORCA-job input E -295.569130050353
  B       3.437026      0.006736      0.997706
  B       1.711014      2.978971      1.006585
  B      -1.727149      2.972555      1.009227
  B      -3.439065     -0.001878      1.000438
  B      -1.718229     -2.977414      1.001636
  B       1.726527     -2.974237      1.004997
  B       2.801102      1.615200     -1.003844
  B       0.012154      3.232232     -1.006735
  B      -2.789313      1.621624     -1.003652
  B      -2.802466     -1.615141     -0.999066
  B      -0.004748     -3.239126     -1.003867
  B       2.793148     -1.619522     -1.003426
12
Coordinates from ORCA-job input E -295.606522518764
  B       3.412165      0.009791      0.962571
  B       1.696717      2.958905      0.973161
  B      -1.719995      2.949875      0.976581
  B      -3.415233     -0.003165      0.966315
  B      -1.705830     -2.956689      0.965694
  B       1.719266     -2.952173      0.971248
  B       2.782748      1.605632     -0.969917
  B       0.017613      3.213068     -0.973559
  B      -2.765790      1.615267     -0.969856
  B      -2.784698     -1.605665     -0.963061
  B      -0.007550     -3.222445     -0.969631
  B       2.770588     -1.612402     -0.969546
12
Coordinates from ORCA-job input E -295.666487886584
  B       3.372794      0.013600      0.911376
  B       1.675088      2.926376      0.924013
  B      -1.707468      2.914339      0.927398
  B      -3.377351     -0.004624      0.916396
  B      -1.686021     -2.923224      0.912590
  B       1.706889     -2.917494      0.921004
  B       2.753205      1.590940     -0.919477
  B       0.024505      3.182417     -0.924151
  B      -2.729744      1.604573     -0.920600
  B      -2.755972     -1.591125     -0.909659
  B      -0.011271     -3.194979     -0.918786
  B       2.735347     -1.600801     -0.920104
12
Coordinates from ORCA-job input E -295.733996501074
  B       3.331290      0.016846      0.859975
  B       1.652747      2.891573      0.873857
  B      -1.693294      2.877281      0.875926
  B      -3.337458     -0.005554      0.866163
  B      -1.664723     -2.887275      0.857776
  B       1.693184     -2.881380      0.868856
  B       2.721409      1.576164     -0.867440
  B       0.030455      3.149499     -0.873252
  B      -2.692388      1.593206     -0.870925
  B      -2.724949     -1.576438     -0.854415
  B      -0.014599     -3.165150     -0.866378
  B       2.698327     -1.588771     -0.870144
12
Coordinates from ORCA-job input E -295.806934920050
  B       3.288749      0.019617      0.810636
  B       1.630040      2.855443      0.824809
  B      -1.677784      2.839403      0.824563
  B      -3.296576     -0.006144      0.817859
  B      -1.642427     -2.849713      0.803623
  B       1.678355     -2.844568      0.817165
  B       2.687889      1.561579     -0.816084
  B       0.035571      3.114563     -0.823368
  B      -2.654300      1.581480     -0.822800
  B      -2.692116     -1.561841     -0.799714
  B      -0.017632     -3.133169     -0.814973
  B       2.660229     -1.576650     -0.821715
12
Coordinates from ORCA-job input E -295.884463164274
  B       3.244511      0.022008      0.763575
  B       1.606675      2.817381      0.777279
  B      -1.660645      2.799928      0.773999
  B      -3.253995     -0.006564      0.771694
  B      -1.618932     -2.809911      0.750801
  B       1.662042     -2.806288      0.766614
  B       2.651872      1.546894     -0.765819
  B       0.040011      3.076828     -0.775206
  B      -2.614664      1.569094     -0.776406
  B      -2.656736     -1.546992     -0.746110
  B      -0.020484     -3.098249     -0.765366
  B       2.620345     -1.564128     -0.775055
12
Coordinates from ORCA-job input E -295.965835750577
  B       3.197973      0.024001      0.718858
  B       1.582585      2.776678      0.731719
  B      -1.641525      2.758179      0.724988
  B      -3.209043     -0.006904      0.727696
  B      -1.594210     -2.767157      0.699985
  B       1.643881     -2.765792      0.717893
  B       2.612644      1.531838     -0.717051
  B       0.043733      3.035748     -0.729350
  B      -2.572898      1.555560     -0.732007
  B      -2.618140     -1.531561     -0.694115
  B      -0.023147     -3.059844     -0.718211
  B       2.578147     -1.550747     -0.730405
12
Coordinates from ORCA-job input E -296.055844486115
  B       3.149779      0.025557      0.676692
  B       1.557391      2.733134      0.688662
  B      -1.620955      2.713550      0.678173
  B      -3.160763     -0.007487      0.686231
  B      -1.568797     -2.720377      0.650890
  B       1.623155     -2.722597      0.671619
  B       2.570455      1.516062     -0.670255
  B       0.046264      2.991232     -0.686653
  B      -2.528477      1.540181     -0.689780
  B      -2.575175     -1.515277     -0.643586
  B      -0.026563     -3.017824     -0.674094
  B       2.533686     -1.536153     -0.687898
12
Coordinates from ORCA-job input E -296.150942491165
  B       3.093389      0.026837      0.629896
  B       1.529251      2.691651      0.650249
  B      -1.596895      2.670740      0.634780
  B      -3.102917     -0.007808      0.644628
  B      -1.541290     -2.676053      0.607295
  B       1.600227     -2.681252      0.629093
  B       2.527685      1.492545     -0.623028
  B       0.045809      2.947057     -0.647937
  B      -2.482284      1.523829     -0.649697
  B      -2.530804     -1.496868     -0.596321
  B      -0.030914     -2.976712     -0.634605
  B       2.488743     -1.513966     -0.644353
12
Coordinates from ORCA-job input E -296.242879969742
  B       3.027942      0.026494      0.585546
  B       1.498937      2.643839      0.613617
  B      -1.567886      2.626337      0.596709
  B      -3.039254     -0.007206      0.604297
  B      -1.509513     -2.629018      0.568685
  B       1.575256     -2.635474      0.590964
  B       2.478250      1.463595     -0.578958
  B       0.044039      2.897600     -0.611362
  B      -2.432745      1.505325     -0.613517
  B      -2.482418     -1.475001     -0.553655
  B      -0.032706     -2.930350     -0.598204
  B       2.440098     -1.486140     -0.604123
12
Coordinates from ORCA-job input E -296.335824131761
  B       2.962473      0.022376      0.541135
  B       1.469757      2.590394      0.573177
  B      -1.538048      2.589278      0.562386
  B      -2.979403     -0.004424      0.557956
  B      -1.473412     -2.583095      0.525338
  B       1.553232     -2.590674      0.553847
  B       2.426814      1.430902     -0.536057
  B       0.041015      2.847194     -0.568489
  B      -2.391593      1.489289     -0.581377
  B      -2.435674     -1.452430     -0.506673
  B      -0.029675     -2.882788     -0.555214
  B       2.394514     -1.456021     -0.566028
12
Coordinates from ORCA-job input E -296.438622105184
  B       2.903576      0.019194      0.498527
  B       1.445259      2.538894      0.535304
  B      -1.509432      2.549238      0.526523
  B      -2.928133     -0.001964      0.515449
  B      -1.441584     -2.535455      0.480406
  B       1.530775     -2.548721      0.513690
  B       2.381055      1.401330     -0.496683
  B       0.039050      2.798102     -0.526140
  B      -2.357505      1.470712     -0.549571
  B      -2.397432     -1.426865     -0.461857
  B      -0.019192     -2.836634     -0.508236
  B       2.353563     -1.427831     -0.527412
12
Coordinates from ORCA-job input E -296.525221977797
  B       2.858018      0.018646      0.454640
  B       1.413192      2.501834      0.496492
  B      -1.485619      2.519697      0.489182
  B      -2.881940      0.000755      0.469887
  B      -1.414335     -2.495414      0.441139
  B       1.514998     -2.519627      0.472868
  B       2.345962      1.373950     -0.457949
  B       0.034799      2.756713     -0.477389
  B      -2.328375      1.452223     -0.517731
  B      -2.363790     -1.397966     -0.417905
  B      -0.011563     -2.798431     -0.464436
  B       2.318653     -1.412380     -0.488798
12
Coordinates from ORCA-job input E -296.601680372554
  B       2.814600      0.013969      0.412351
  B       1.384608      2.465152      0.460774
  B      -1.459508      2.495133      0.454493
  B      -2.831099      0.010362      0.421480
  B      -1.391818     -2.458484      0.410048
  B       1.492400     -2.502388      0.436000
  B       2.309934      1.353759     -0.422658
  B       0.021052      2.714640     -0.429923
  B      -2.302694      1.426589     -0.486214
  B      -2.332938     -1.362563     -0.378886
  B       0.004198     -2.765927     -0.422634
  B       2.291264     -1.390243     -0.454831
12
Coordinates from ORCA-job input E -296.661642959804
  B       2.773796     -0.009234      0.377935
  B       1.357352      2.431291      0.428528
  B      -1.445534      2.478542      0.412814
  B      -2.783753      0.040485      0.379345
  B      -1.360112     -2.431490      0.381269
  B       1.469678     -2.501800      0.402754
  B       2.272221      1.340516     -0.391385
  B      -0.008182      2.683987     -0.390076
  B      -2.280878      1.417697     -0.446989
  B      -2.291699     -1.334180     -0.343819
  B       0.034080     -2.740603     -0.387128
  B       2.263032     -1.375211     -0.423248
12
Coordinates from ORCA-job input E -296.701477925176
  B       2.742755     -0.025074      0.330931
  B       1.349139      2.417006      0.412799
  B      -1.443005      2.488210      0.386455
  B      -2.766245      0.061034      0.338310
  B      -1.327957     -2.424899      0.351853
  B       1.459821     -2.521133      0.367071
  B       2.246598      1.325867     -0.361728
  B      -0.026605      2.672458     -0.358841
  B      -2.276292      1.426181     -0.426824
  B      -2.279872     -1.310312     -0.308260
  B       0.070281     -2.750464     -0.340928
  B       2.251382     -1.358876     -0.390837
12
Coordinates from ORCA-job input E -296.737504774749
  B       2.739017     -0.029496      0.299117
  B       1.346173      2.425647      0.393186
  B      -1.462970      2.503827      0.364726
  B      -2.761736      0.088792      0.305802
  B      -1.317915     -2.417746      0.308730
  B       1.489058     -2.549398      0.337617
  B       2.233717      1.327367     -0.335679
  B      -0.034447      2.678136     -0.336892
  B      -2.290441      1.444840     -0.400581
  B      -2.270311     -1.308639     -0.272090
  B       0.080359     -2.780143     -0.305719
  B       2.249496     -1.383187     -0.358218
12
Coordinates from ORCA-job input E -296.769588621650
  B       2.740375     -0.046335      0.269137
  B       1.340333      2.446246      0.378361
  B      -1.475434      2.537511      0.343794
  B      -2.758845      0.116423      0.273832
  B      -1.301179     -2.417777      0.273969
  B       1.511505     -2.600490      0.312271
  B       2.224055      1.334568     -0.311777
  B      -0.067490      2.703270     -0.314140
  B      -2.310335      1.467387     -0.380218
  B      -2.261719     -1.300597     -0.240360
  B       0.102028     -2.823138     -0.271733
  B       2.256706     -1.417066     -0.333137
12
Coordinates from ORCA-job input E -296.799225072639
  B       2.753475     -0.063598      0.241260
  B       1.337634      2.481434      0.359894
  B      -1.507804      2.597209      0.330772
  B      -2.781020      0.122687      0.247501
  B      -1.286557     -2.444348      0.250347
  B       1.543280     -2.678942      0.298819
  B       2.231915      1.342329     -0.290399
  B      -0.080377      2.753976     -0.292257
  B      -2.348733      1.516122     -0.368158
  B      -2.278821     -1.290026     -0.215319
  B       0.127431     -2.889788     -0.245415
  B       2.289576     -1.447057     -0.317043
12
Coordinates from ORCA-job input E -296.825108346843
  B       2.771930     -0.077804      0.222683
  B       1.341362      2.520134      0.341462
  B      -1.541083      2.672461      0.320795
  B      -2.803821      0.149003      0.226694
  B      -1.282038     -2.459771      0.224635
  B       1.593088     -2.749175      0.284420
  B       2.245586      1.349664     -0.269816
  B      -0.109777      2.812932     -0.273155
  B      -2.401879      1.550558     -0.355671
  B      -2.276020     -1.302896     -0.194325
  B       0.144628     -2.951221     -0.227276
  B       2.318023     -1.513885     -0.300447
12
Coordinates from ORCA-job input E -296.846804302690
  B       2.781183     -0.104171      0.201804
  B       1.333273      2.549933      0.318396
  B      -1.597499      2.727258      0.305319
  B      -2.807184      0.157096      0.206797
  B      -1.264919     -2.464943      0.200166
  B       1.629359     -2.827930      0.272188
  B       2.246566      1.354178     -0.249880
  B      -0.130974      2.861419     -0.253681
  B      -2.434383      1.606581     -0.337324
  B      -2.263823     -1.293136     -0.173457
  B       0.161054     -3.003639     -0.207179
  B       2.347348     -1.562647     -0.283149
12
Coordinates from ORCA-job input E -296.864551027648
  B       2.764761     -0.122167      0.175657
  B       1.320305      2.567492      0.294474
  B      -1.619660      2.807313      0.299094
  B      -2.806658      0.172505      0.180175
  B      -1.232622     -2.475203      0.180336
  B       1.662177     -2.906008      0.262521
  B       2.233375      1.341441     -0.229244
  B      -0.150054      2.912734     -0.229588
  B      -2.476039      1.630152     -0.323388
  B      -2.247465     -1.275542     -0.158568
  B       0.186554     -3.057658     -0.186176
  B       2.365327     -1.595059     -0.265291
12
Coordinates from ORCA-job input E -296.880463723074
  B       2.737865     -0.143522      0.158123
  B       1.299688      2.569693      0.270686
  B      -1.661678      2.868713      0.280168
  B      -2.788422      0.190848      0.163835
  B      -1.199307     -2.467991      0.161666
  B       1.703695     -2.966559      0.243021
  B       2.207307      1.324776     -0.206759
  B      -0.184922      2.947366     -0.209581
  B      -2.494006      1.689500     -0.305530
  B      -2.211612     -1.259583     -0.140842
  B       0.223712     -3.095798     -0.170683
  B       2.367682     -1.657442     -0.244105
12
Coordinates from ORCA-job input E -296.893571171510
  B       2.709457     -0.184796      0.137599
  B       1.270022      2.571554      0.243455
  B      -1.713025      2.924855      0.269014
  B      -2.753685      0.226495      0.143660
  B      -1.161897     -2.448674      0.138010
  B       1.739572     -3.042172      0.234711
  B       2.169206      1.311841     -0.189700
  B      -0.210424      2.977110     -0.190110
  B      -2.512813      1.724400     -0.281488
  B      -2.150778     -1.244467     -0.128790
  B       0.233024     -3.124545     -0.153510
  B       2.381342     -1.691600     -0.222850
12
Coordinates from ORCA-job input E -296.906321431325
  B       2.658310     -0.207583      0.119529
  B       1.236470      2.562382      0.221311
  B      -1.750254      2.998111      0.256484
  B      -2.707162      0.237063      0.122942
  B      -1.102003     -2.427136      0.121233
  B       1.770879     -3.114125      0.218786
  B       2.125411      1.279581     -0.170863
  B      -0.248320      3.011387     -0.171097
  B      -2.524593      1.757761     -0.263705
  B      -2.095898     -1.201378     -0.114994
  B       0.268347     -3.151094     -0.136288
  B       2.368813     -1.744967     -0.203336
12
Coordinates from ORCA-job input E -296.917110200427
  B       2.584604     -0.245793      0.102463
  B       1.175730      2.535290      0.197761
  B      -1.783154      3.084176      0.242319
  B      -2.658979      0.279416      0.107350
  B      -1.043053     -2.400924      0.108171
  B       1.818396     -3.190379      0.201683
  B       2.052651      1.233297     -0.152397
  B      -0.284770      3.036713     -0.151484
  B      -2.528873      1.816982     -0.247159
  B      -2.026486     -1.168442     -0.103073
  B       0.338953     -3.187457     -0.123444
  B       2.354981     -1.792878     -0.182190
12
Coordinates from ORCA-job input E -296.932135671265
  B       2.504159     -0.293194      0.087290
  B       1.114957      2.491764      0.174786
  B      -1.820359      3.168613      0.227027
  B      -2.594366      0.324274      0.092709
  B      -0.961068     -2.381095      0.093759
  B       1.881938     -3.263499      0.187195
  B       1.966159      1.192275     -0.134545
  B      -0.337649      3.055525     -0.134127
  B      -2.523333      1.877480     -0.228951
  B      -1.945969     -1.120420     -0.092979
  B       0.373515     -3.205522     -0.111680
  B       2.342016     -1.846201     -0.160484
12
Coordinates from ORCA-job input E -296.949331092542
  B       2.406515     -0.306011      0.072603
  B       1.051072      2.452094      0.152152
  B      -1.864701      3.260301      0.225121
  B      -2.495792      0.334769      0.074858
  B      -0.891308     -2.330094      0.079188
  B       1.906509     -3.357265      0.180087
  B       1.871774      1.165982     -0.123048
  B      -0.370936      3.074291     -0.119080
  B      -2.500041      1.922619     -0.213210
  B      -1.834720     -1.096693     -0.086381
  B       0.420897     -3.214526     -0.096451
  B       2.300730     -1.905468     -0.145840
12
Coordinates from ORCA-job input E -296.968774462036
  B       2.291571     -0.363105      0.057742
  B       0.945613      2.397437      0.131545
  B      -1.927286      3.360555      0.223707
  B      -2.382503      0.385808      0.058152
  B      -0.785455     -2.265231      0.064521
  B       1.961623     -3.450602      0.174472
  B       1.760714      1.083257     -0.114945
  B      -0.437285      3.088470     -0.107117
  B      -2.471670      1.991974     -0.193703
  B      -1.711592     -1.027639     -0.082731
  B       0.493726     -3.211755     -0.084047
  B       2.262545     -1.989170     -0.127597
12
Coordinates from ORCA-job input E -296.989219819785
  B       2.167940     -0.441481      0.045428
  B       0.822552      2.329665      0.112763
  B      -1.989538      3.462025      0.222349
  B      -2.259141      0.453016      0.044223
  B      -0.662603     -2.198933      0.051852
  B       2.029005     -3.544377      0.169413
  B       1.632899      0.989825     -0.108219
  B      -0.519797      3.096244     -0.098489
  B      -2.432562      2.068173     -0.175133
  B      -1.584990     -0.936401     -0.079739
  B       0.571432     -3.199942     -0.075531
  B       2.224802     -2.077814     -0.108917
12
Coordinates from ORCA-job input E -297.007756636914
  B       2.051221     -0.537052      0.034594
  B       0.700146      2.264007      0.097279
  B      -2.055327      3.565514      0.216824
  B      -2.133606      0.535214      0.031980
  B      -0.529169     -2.141804      0.040820
  B       2.089634     -3.642206      0.162166
  B       1.506171      0.896268     -0.101525
  B      -0.616765      3.109637     -0.090217
  B      -2.389563      2.136577     -0.157211
  B      -1.448603     -0.847919     -0.075184
  B       0.640326     -3.184167     -0.067454
  B       2.185536     -2.154070     -0.092072
12
Coordinates from ORCA-job input E -297.016083909397
  B       1.940750     -0.609154      0.026813
  B       0.594490      2.192156      0.079346
  B      -2.106653      3.654111      0.205213
  B      -2.018907      0.608457      0.020860
  B      -0.436161     -2.066872      0.031249
  B       2.135085     -3.718346      0.149852
  B       1.376151      0.842453     -0.091975
  B      -0.683943      3.102339     -0.078504
  B      -2.341539      2.179984     -0.138073
  B      -1.324433     -0.776693     -0.068934
  B       0.719987     -3.191377     -0.059556
  B       2.145173     -2.217058     -0.076292
12
Coordinates from ORCA-job input E -297.021640116305
  B       1.911744     -0.637540      0.025648
  B       0.546323      2.161896      0.074721
  B      -2.110301      3.697351      0.183854
  B      -1.970334      0.672847      0.020308
  B      -0.395731     -2.107873      0.027489
  B       2.181832     -3.762333      0.143577
  B       1.326110      0.829922     -0.085172
  B      -0.753030      3.121371     -0.070393
  B      -2.302166      2.216127     -0.124698
  B      -1.272644     -0.770846     -0.063201
  B       0.692892     -3.237576     -0.062603
  B       2.145307     -2.183347     -0.069530
12
Coordinates from ORCA-job input E -297.035050449397
  B       1.827378     -0.693268      0.023736
  B       0.445943      2.155910      0.062926
  B      -2.163100      3.778251      0.168591
  B      -1.851341      0.753852      0.013988
  B      -0.273445     -2.144677      0.016294
  B       2.188103     -3.821343      0.135171
  B       1.218495      0.818334     -0.078983
  B      -0.820835      3.144965     -0.065807
  B      -2.240424      2.254354     -0.101364
  B      -1.128151     -0.759896     -0.055958
  B       0.702605     -3.288306     -0.059715
  B       2.094772     -2.198176     -0.058878
12
Coordinates from ORCA-job input E -297.057602000320
  B       1.735451     -0.723426      0.022593
  B       0.349753      2.160072      0.049701
  B      -2.237489      3.830749      0.167266
  B      -1.717509      0.795945      0.007394
  B      -0.177212     -2.097358      0.000358
  B       2.160722     -3.867686      0.134622
  B       1.127217      0.786278     -0.075878
  B      -0.849398      3.141949     -0.072510
  B      -2.183123      2.262660     -0.076206
  B      -0.981383     -0.724032     -0.048955
  B       0.740924     -3.330650     -0.058843
  B       2.032048     -2.234501     -0.049543
12
Coordinates from ORCA-job input E -297.074242905121
  B       1.652665     -0.688184      0.022324
  B       0.335153      2.186302      0.041047
  B      -2.239816      3.835203      0.175011
  B      -1.658690      0.753274      0.003961
  B      -0.135968     -2.082129     -0.008290
  B       2.140751     -3.859740      0.126350
  B       1.075119      0.801399     -0.066581
  B      -0.804653      3.159644     -0.086404
  B      -2.186961      2.240890     -0.068836
  B      -0.922267     -0.723360     -0.042744
  B       0.766488     -3.378296     -0.058626
  B       1.978178     -2.245004     -0.037212
12
Coordinates from ORCA-job input E -297.094704535389
  B       1.529493     -0.712413      0.021426
  B       0.260268      2.141502      0.026943
  B      -2.242189      3.854299      0.177896
  B      -1.537223      0.768605     -0.001718
  B      -0.066283     -2.036399     -0.024404
  B       2.194097     -3.885294      0.120889
  B       0.968298      0.741316     -0.054209
  B      -0.838164      3.184159     -0.103332
  B      -2.142680      2.265102     -0.047839
  B      -0.825454     -0.654043     -0.037472
  B       0.780542     -3.416562     -0.063809
  B       1.919295     -2.250272     -0.014372
12
Coordinates from ORCA-job input E -297.058777527038
  B       1.162198     -0.784543      0.037421
  B       0.011920      2.247885     -0.074929
  B      -2.138682      3.783653      0.218009
  B      -1.169710      0.657358     -0.059053
  B       0.137934     -2.274499     -0.093323
  B       2.353161     -3.875879      0.148649
  B       0.557571      0.797114     -0.018168
  B      -0.729518      3.775483     -0.193256
  B      -2.019784      2.077568      0.113622
  B      -0.596032     -0.586151     -0.063828
  B       0.755094     -3.695505     -0.101996
  B       1.675847     -2.122482      0.086852
12
Coordinates from ORCA-job input E -297.145139065247
  B       1.192790     -0.766356      0.038600
  B      -0.007116      2.270791     -0.081584
  B      -2.224192      3.827617      0.230802
  B      -1.209909      0.771974     -0.061303
  B       0.168800     -2.250684     -0.087731
  B       2.316394     -4.000786      0.135594
  B       0.547080      0.788095     -0.025757
  B      -0.745614      3.776759     -0.197369
  B      -2.052830      2.154956      0.109557
  B      -0.554240     -0.627958     -0.066422
  B       0.774269     -3.713910     -0.094685
  B       1.794568     -2.230498      0.100298
12
Coordinates from ORCA-job input E -297.179097116074
  B       1.190842     -0.804612      0.038826
  B      -0.022737      2.210122     -0.086472
  B      -2.189626      3.743020      0.244508
  B      -1.217501      0.825635     -0.064837
  B       0.131335     -2.123491     -0.086021
  B       2.268383     -3.883535      0.130052
  B       0.524657      0.718560     -0.032744
  B      -0.698419      3.614090     -0.188524
  B      -2.013264      2.142526      0.094221
  B      -0.545466     -0.636632     -0.069403
  B       0.765352     -3.598441     -0.087515
  B       1.806445     -2.207242      0.107907
12
Coordinates from ORCA-job input E -297.190219516775
  B       1.193316     -0.822997      0.035703
  B      -0.060632      2.183205     -0.084774
  B      -2.232696      3.834324      0.236343
  B      -1.180255      0.816216     -0.063853
  B       0.135269     -2.105539     -0.085889
  B       2.251144     -3.911255      0.122355
  B       0.529264      0.696586     -0.028329
  B      -0.763543      3.649981     -0.179594
  B      -1.999668      2.213005      0.093006
  B      -0.486609     -0.703080     -0.071655
  B       0.764186     -3.601261     -0.083079
  B       1.850222     -2.249186      0.109768
12
Coordinates from ORCA-job input E -296.744357640513
  B       1.169100     -0.670801      0.061405
  B      -0.237380      2.012923     -0.059408
  B      -2.384027      3.916550      0.120954
  B      -1.099586      1.170826     -0.038649
  B       0.060692     -2.247693     -0.037110
  B       2.505646     -4.117949      0.039275
  B       0.345063      0.791194     -0.018781
  B      -0.954284      3.506267     -0.099461
  B      -1.596380      2.393473      0.034253
  B      -0.602193     -0.403722     -0.021540
  B       0.744752     -3.828606     -0.101423
  B       2.048596     -2.522462      0.120485
12
Coordinates from ORCA-job input E -296.938857460991
  B       1.182851     -0.703284      0.060741
  B      -0.205678      2.079682     -0.061030
  B      -2.412274      3.951001      0.120570
  B      -1.123374      1.102385     -0.035817
  B       0.075920     -2.266336     -0.037543
  B       2.492390     -4.120370      0.038286
  B       0.373819      0.762842     -0.017104
  B      -0.960237      3.592664     -0.104892
  B      -1.634773      2.413747      0.038356
  B      -0.586338     -0.453175     -0.020819
  B       0.750717     -3.829052     -0.100581
  B       2.046977     -2.530105      0.119834
12
Coordinates from ORCA-job input E -297.051580724686
  B       1.184998     -0.741324      0.058689
  B      -0.185293      2.108427     -0.059046
  B      -2.429266      3.956750      0.115292
  B      -1.118172      1.032572     -0.027438
  B       0.092326     -2.263410     -0.037628
  B       2.439629     -4.073990      0.032926
  B       0.422644      0.730014     -0.012287
  B      -0.949503      3.653667     -0.113164
  B      -1.672055      2.408474      0.042018
  B      -0.558278     -0.518171     -0.018445
  B       0.754195     -3.790543     -0.098401
  B       2.018776     -2.502466      0.117484
12
Coordinates from ORCA-job input E -297.147887394733
  B       1.177789     -0.775087      0.055017
  B      -0.129219      2.138493     -0.056345
  B      -2.411570      3.904378      0.102901
  B      -1.124030      0.934490     -0.010471
  B       0.103208     -2.205081     -0.038062
  B       2.340371     -3.981570      0.024148
  B       0.479413      0.698720     -0.004897
  B      -0.918587      3.635902     -0.119788
  B      -1.697921      2.356329      0.045571
  B      -0.517879     -0.602095     -0.016527
  B       0.753610     -3.699842     -0.093800
  B       1.944815     -2.404638      0.112252
12
Coordinates from ORCA-job input E -297.061154202264
  B       1.270295     -0.976326      0.047245
  B      -0.053249      2.164844     -0.046781
  B      -2.466281      3.817795      0.080553
  B      -1.105093      0.730877      0.043715
  B       0.063259     -2.057964     -0.049072
  B       2.129884     -3.759422      0.005624
  B       0.674025      0.668962      0.012065
  B      -0.766246      3.739426     -0.151591
  B      -1.794711      2.143608      0.057513
  B      -0.476920     -0.811144     -0.027659
  B       0.720224     -3.507064     -0.073323
  B       1.804812     -2.153592      0.101711
12
Coordinates from ORCA-job input E -297.168682958130
  B       1.220440     -0.918425      0.038459
  B      -0.073443      2.192561     -0.043754
  B      -2.429338      3.830593      0.074185
  B      -1.137353      0.778275      0.050520
  B       0.082535     -2.114607     -0.056688
  B       2.218681     -3.866515      0.012532
  B       0.629665      0.718705      0.011971
  B      -0.786784      3.756096     -0.146903
  B      -1.806141      2.187574      0.058565
  B      -0.518850     -0.739531     -0.028004
  B       0.750839     -3.580622     -0.071551
  B       1.849748     -2.244104      0.100670
12
Coordinates from ORCA-job input E -297.193898781614
  B       1.192660     -0.852377      0.032599
  B      -0.082186      2.186306     -0.042203
  B      -2.349377      3.829886      0.061935
  B      -1.173000      0.800659      0.063422
  B       0.085318     -2.152293     -0.064648
  B       2.267870     -3.876915      0.019853
  B       0.571325      0.722527      0.010165
  B      -0.781308      3.676717     -0.133880
  B      -1.819052      2.243230      0.061214
  B      -0.523175     -0.740546     -0.033607
  B       0.766069     -3.604208     -0.069169
  B       1.844856     -2.232986      0.094319
12
Coordinates from ORCA-job input E -297.200649703487
  B       1.175134     -0.850600      0.027888
  B      -0.088999      2.165855     -0.037844
  B      -2.329778      3.861285      0.056349
  B      -1.189415      0.831468      0.068260
  B       0.106359     -2.152921     -0.067253
  B       2.306466     -3.894554      0.024273
  B       0.538251      0.696827      0.007955
  B      -0.795698      3.672804     -0.130223
  B      -1.833764      2.274759      0.062775
  B      -0.535006     -0.694017     -0.035505
  B       0.785026     -3.637715     -0.067956
  B       1.861424     -2.273189      0.091281
12
Coordinates from ORCA-job input E -297.196729626294
  B       1.147676     -0.817552      0.024040
  B      -0.112795      2.210223     -0.049280
  B      -2.314549      3.878863      0.052626
  B      -1.155677      0.843412      0.065117
  B       0.114169     -2.154023     -0.063345
  B       2.322064     -3.928265      0.029490
  B       0.488917      0.724325      0.002321
  B      -0.791842      3.606309     -0.106514
  B      -1.829928      2.255990      0.063093
  B      -0.497065     -0.685748     -0.042648
  B       0.786789     -3.659119     -0.061708
  B       1.842242     -2.274415      0.086808
12
Coordinates from ORCA-job input E -297.200696078074
  B       1.174767     -0.824700      0.021589
  B      -0.110046      2.133569     -0.048841
  B      -2.294030      3.940554      0.046807
  B      -1.197299      0.833561      0.066751
  B       0.117471     -2.180299     -0.064549
  B       2.327037     -3.894909      0.029020
  B       0.489905      0.675249     -0.001007
  B      -0.775258      3.617326     -0.099846
  B      -1.878159      2.305655      0.067996
  B      -0.514782     -0.710554     -0.045752
  B       0.806160     -3.626055     -0.058329
  B       1.854234     -2.269396      0.086162
12
Coordinates from ORCA-job input E -297.201241876057
  B       1.182460     -0.857188      0.024199
  B      -0.111012      2.161117     -0.048324
  B      -2.298962      3.890149      0.042263
  B      -1.197439      0.831392      0.067479
  B       0.119004     -2.145657     -0.059125
  B       2.313006     -3.894676      0.021861
  B       0.510284      0.686761      0.003007
  B      -0.790118      3.667300     -0.101126
  B      -1.855099      2.269482      0.062780
  B      -0.525231     -0.693730     -0.039287
  B       0.789314     -3.637193     -0.059958
  B       1.863794     -2.277757      0.086231
12
Coordinates from ORCA-job input E -297.200576327006
  B       1.179087     -0.830439      0.020399
  B      -0.071124      2.158214     -0.044492
  B      -2.316551      3.872618      0.032812
  B      -1.195165      0.845254      0.066187
  B       0.083358     -2.142785     -0.053506
  B       2.320164     -3.893996      0.015966
  B       0.539240      0.709816      0.012567
  B      -0.785615      3.603271     -0.094313
  B      -1.852655      2.256768      0.056045
  B      -0.541724     -0.682941     -0.032021
  B       0.779492     -3.629700     -0.058051
  B       1.861493     -2.266081      0.078407
12
Coordinates from ORCA-job input E -297.202373312986
  B       1.168808     -0.836067      0.019754
  B      -0.096812      2.161493     -0.044042
  B      -2.323759      3.894955      0.033981
  B      -1.170962      0.844661      0.062840
  B       0.101892     -2.167068     -0.052408
  B       2.314881     -3.893349      0.016568
  B       0.523767      0.698807      0.010070
  B      -0.788261      3.627623     -0.091780
  B      -1.854990      2.280361      0.055945
  B      -0.519483     -0.698701     -0.032338
  B       0.790080     -3.641119     -0.056508
  B       1.854839     -2.271596      0.077918
12
Coordinates from ORCA-job input E -297.202514390968
  B       1.179982     -0.842112      0.021588
  B      -0.112001      2.157163     -0.043066
  B      -2.298054      3.895953      0.028771
  B      -1.185933      0.831949      0.064373
  B       0.106754     -2.158364     -0.049749
  B       2.313417     -3.891728      0.012913
  B       0.512132      0.689420      0.008962
  B      -0.788701      3.642113     -0.090258
  B      -1.857825      2.273540      0.056738
  B      -0.520340     -0.697951     -0.031819
  B       0.788875     -3.625708     -0.056539
  B       1.861693     -2.274273      0.078086
12
Coordinates from ORCA-job input E -297.202605069420
  B       1.171009     -0.844390      0.019617
  B      -0.097819      2.155975     -0.041443
  B      -2.314038      3.886785      0.025245
  B      -1.180756      0.843061      0.063217
  B       0.116596     -2.150664     -0.047311
  B       2.312193     -3.893278      0.011295
  B       0.509954      0.687893      0.010356
  B      -0.783210      3.638670     -0.086242
  B      -1.857443      2.266151      0.053920
  B      -0.511679     -0.687081     -0.027674
  B       0.786442     -3.633681     -0.054225
  B       1.848751     -2.269443      0.073246
12
Coordinates from ORCA-job input E -297.202783743167
  B       1.177366     -0.841142      0.021650
  B      -0.105455      2.160880     -0.041276
  B      -2.317985      3.899415      0.023493
  B      -1.175516      0.844330      0.060962
  B       0.108447     -2.157487     -0.044649
  B       2.318368     -3.900075      0.008652
  B       0.513007      0.694823      0.010156
  B      -0.784927      3.632106     -0.083866
  B      -1.861560      2.277125      0.052338
  B      -0.516196     -0.692037     -0.025261
  B       0.786392     -3.642993     -0.055287
  B       1.858059     -2.274946      0.073087
12
Coordinates from ORCA-job input E -297.202877040059
  B       1.173682     -0.835583      0.021955
  B      -0.109014      2.155380     -0.038423
  B      -2.304203      3.891843      0.017801
  B      -1.178747      0.839320      0.060495
  B       0.107138     -2.158911     -0.041955
  B       2.311943     -3.891593      0.004831
  B       0.516431      0.696855      0.012013
  B      -0.786228      3.631059     -0.081866
  B      -1.858744      2.271367      0.050664
  B      -0.516376     -0.695868     -0.020772
  B       0.787229     -3.631159     -0.054980
  B       1.856889     -2.272709      0.070237
12
Coordinates from ORCA-job input E -297.203020317764
  B       1.179210     -0.841752      0.021800
  B      -0.106728      2.157807     -0.035729
  B      -2.310149      3.895524      0.011590
  B      -1.179323      0.840413      0.058305
  B       0.109328     -2.156454     -0.035845
  B       2.313045     -3.894386      0.000118
  B       0.512970      0.690625      0.012066
  B      -0.786948      3.639369     -0.075923
  B      -1.860137      2.272772      0.046864
  B      -0.516479     -0.695104     -0.015850
  B       0.785355     -3.635855     -0.053993
  B       1.859855     -2.272959      0.066596
12
Coordinates from ORCA-job input E -297.203100358102
  B       1.176580     -0.840558      0.022902
  B      -0.106424      2.156462     -0.030753
  B      -2.313037      3.896696      0.006259
  B      -1.178100      0.841912      0.055160
  B       0.107704     -2.156419     -0.030118
  B       2.314311     -3.895136     -0.003819
  B       0.513799      0.691801      0.011046
  B      -0.783110      3.633767     -0.072480
  B      -1.861108      2.270512      0.044047
  B      -0.514216     -0.692243     -0.010634
  B       0.785362     -3.634727     -0.053775
  B       1.858238     -2.272068      0.062165
12
Coordinates from ORCA-job input E -297.203175902908
  B       1.177603     -0.844486      0.024004
  B      -0.105627      2.158316     -0.026397
  B      -2.312937      3.891602     -0.005492
  B      -1.175896      0.845409      0.053186
  B       0.110059     -2.155537     -0.022970
  B       2.311865     -3.897072     -0.012220
  B       0.515231      0.697443      0.014929
  B      -0.784681      3.631387     -0.065295
  B      -1.865739      2.274103      0.038243
  B      -0.514437     -0.691843      0.000191
  B       0.784128     -3.635046     -0.052961
  B       1.860433     -2.274275      0.054783
12
Coordinates from ORCA-job input E -297.203299265166
  B       1.179499     -0.839517      0.024775
  B      -0.107796      2.157123     -0.020446
  B      -2.311044      3.894579     -0.015748
  B      -1.176803      0.842094      0.048481
  B       0.107176     -2.157494     -0.013666
  B       2.310630     -3.894535     -0.021024
  B       0.515006      0.694000      0.016688
  B      -0.786859      3.635338     -0.057520
  B      -1.861558      2.271590      0.031758
  B      -0.513480     -0.694284      0.010025
  B       0.783018     -3.636543     -0.051193
  B       1.862211     -2.272352      0.047871
12
Coordinates from ORCA-job input E -297.203374576559
  B       1.178089     -0.841856      0.026321
  B      -0.109249      2.155841     -0.012472
  B      -2.308767      3.896473     -0.026908
  B      -1.178467      0.842049      0.044823
  B       0.105925     -2.157895     -0.005310
  B       2.313944     -3.894565     -0.029985
  B       0.512910      0.691712      0.018743
  B      -0.783277      3.635187     -0.051194
  B      -1.863580      2.271715      0.025906
  B      -0.514851     -0.693833      0.019160
  B       0.785245     -3.633251     -0.048025
  B       1.862079     -2.271579      0.038942
12
Coordinates from ORCA-job input E -297.203413442604
  B       1.178692     -0.842106      0.031359
  B      -0.105440      2.155572     -0.004215
  B      -2.312625      3.896340     -0.038686
  B      -1.178575      0.841277      0.038578
  B       0.109201     -2.154853      0.006461
  B       2.307589     -3.892614     -0.040187
  B       0.516124      0.693152      0.021052
  B      -0.783345      3.632232     -0.044329
  B      -1.865011      2.269105      0.018897
  B      -0.512868     -0.692274      0.030022
  B       0.782379     -3.635937     -0.046532
  B       1.863880     -2.269893      0.027579
12
Coordinates from ORCA-job input E -297.203379825205
  B       1.193043     -0.840189      0.036018
  B      -0.103912      2.164980      0.004667
  B      -2.329273      3.878878     -0.054345
  B      -1.161174      0.846136      0.037228
  B       0.105543     -2.151046      0.015921
  B       2.294891     -3.907379     -0.057883
  B       0.529431      0.702848      0.038121
  B      -0.798791      3.635753     -0.039202
  B      -1.864734      2.264067      0.002608
  B      -0.496596     -0.681681      0.046467
  B       0.769038     -3.632281     -0.041756
  B       1.862534     -2.280088      0.012156
12
Coordinates from ORCA-job input E -297.203354891278
  B       1.168345     -0.842012      0.029145
  B      -0.114148      2.149010      0.009493
  B      -2.291372      3.908090     -0.061213
  B      -1.182470      0.842146      0.039192
  B       0.102341     -2.164286      0.015429
  B       2.326723     -3.883614     -0.057699
  B       0.506463      0.689263      0.033089
  B      -0.776616      3.630383     -0.031559
  B      -1.867544      2.275119      0.003285
  B      -0.527803     -0.701619      0.047154
  B       0.795352     -3.635938     -0.031575
  B       1.860728     -2.266540      0.005258
12
Coordinates from ORCA-job input E -297.203477836629
  B       1.178398     -0.842131      0.033304
  B      -0.106487      2.155720      0.007503
  B      -2.308685      3.897746     -0.053472
  B      -1.179500      0.840893      0.036829
  B       0.106975     -2.157155      0.015626
  B       2.311283     -3.891402     -0.052590
  B       0.512832      0.690654      0.030177
  B      -0.782227      3.633142     -0.037804
  B      -1.864961      2.269665      0.008115
  B      -0.514808     -0.693372      0.039752
  B       0.785261     -3.634664     -0.036846
  B       1.861920     -2.269096      0.009406
12
Coordinates from ORCA-job input E -297.203480364952
  B       1.180650     -0.841509      0.033530
  B      -0.107232      2.158200      0.010646
  B      -2.315323      3.892811     -0.058732
  B      -1.174675      0.842069      0.036296
  B       0.107512     -2.155050      0.018356
  B       2.308902     -3.897349     -0.058864
  B       0.519380      0.695867      0.036371
  B      -0.787446      3.635753     -0.035749
  B      -1.863118      2.269620      0.003271
  B      -0.510424     -0.691632      0.043545
  B       0.780500     -3.635431     -0.033721
  B       1.861274     -2.273347      0.005050
12
Coordinates from ORCA-job input E -297.203481369206
  B       1.179793     -0.842253      0.035806
  B      -0.105450      2.158246      0.010501
  B      -2.312409      3.892338     -0.056884
  B      -1.173497      0.843087      0.039087
  B       0.102681     -2.158432      0.015579
  B       2.309117     -3.892973     -0.055722
  B       0.516466      0.694219      0.034683
  B      -0.786722      3.633291     -0.035698
  B      -1.864152      2.269245      0.001644
  B      -0.511682     -0.690404      0.041677
  B       0.782758     -3.634372     -0.031926
  B       1.863094     -2.271991      0.001254
12
Coordinates from ORCA-job input E -297.203495147492
  B       1.177255     -0.841349      0.035878
  B      -0.106142      2.156141      0.006659
  B      -2.308143      3.897574     -0.052897
  B      -1.179557      0.841006      0.038313
  B       0.106910     -2.157233      0.014861
  B       2.311864     -3.892798     -0.053565
  B       0.511992      0.691529      0.033562
  B      -0.782243      3.632651     -0.036179
  B      -1.865500      2.270080      0.002612
  B      -0.514618     -0.693591      0.040421
  B       0.784846     -3.634920     -0.033063
  B       1.863337     -2.269092      0.003398
12
Coordinates from ORCA-job input E -297.203498007815
  B       1.179320     -0.841395      0.033302
  B      -0.107395      2.157353      0.012114
  B      -2.311253      3.895259     -0.055905
  B      -1.178017      0.841687      0.037719
  B       0.108189     -2.156847      0.016571
  B       2.310992     -3.894386     -0.054055
  B       0.515023      0.692954      0.033867
  B      -0.784277      3.635238     -0.035709
  B      -1.863132      2.270523      0.002736
  B      -0.514521     -0.693549      0.039166
  B       0.783809     -3.635427     -0.030788
  B       1.861263     -2.271410      0.000982
12
Coordinates from ORCA-job input E -297.203501840624
  B       1.179036     -0.841699      0.033898
  B      -0.106991      2.157524      0.010404
  B      -2.312096      3.894367     -0.055328
  B      -1.177259      0.841441      0.038627
  B       0.106673     -2.156893      0.015789
  B       2.310063     -3.895004     -0.054635
  B       0.515693      0.694259      0.035320
  B      -0.784896      3.635102     -0.034506
  B      -1.863754      2.270147      0.000085
  B      -0.512029     -0.692282      0.040155
  B       0.782571     -3.635299     -0.029847
  B       1.862991     -2.271665      0.000039
12
Coordinates from ORCA-job input E -297.203503646657
  B       1.178363     -0.841268      0.032602
  B      -0.106693      2.157243      0.010545
  B      -2.309554      3.895543     -0.056139
  B      -1.178169      0.841345      0.037949
  B       0.106460     -2.157599      0.015953
  B       2.311578     -3.893842     -0.053489
  B       0.512588      0.692673      0.034534
  B      -0.783242      3.634271     -0.032714
  B      -1.864533      2.270275      0.000970
  B      -0.513636     -0.693206      0.039612
  B       0.784055     -3.635045     -0.028790
  B       1.862782     -2.270389     -0.001034
12
Coordinates from ORCA-job input E -297.203506190330
  B       1.177938     -0.841362      0.032078
  B      -0.107115      2.156749      0.011122
  B      -2.309200      3.896114     -0.054529
  B      -1.179281      0.841376      0.038521
  B       0.107056     -2.157559      0.015241
  B       2.311508     -3.893556     -0.051490
  B       0.513119      0.692334      0.033565
  B      -0.782795      3.634088     -0.033086
  B      -1.864513      2.270659      0.000568
  B      -0.514465     -0.693413      0.038002
  B       0.784502     -3.635225     -0.028194
  B       1.863247     -2.270205     -0.001797
12
Coordinates from ORCA-job input E -297.203509275694
  B       1.178865     -0.841162      0.029476
  B      -0.107252      2.157338      0.012622
  B      -2.310852      3.894923     -0.054783
  B      -1.178599      0.841369      0.037967
  B       0.107731     -2.156796      0.015327
  B       2.310351     -3.895050     -0.049998
  B       0.514230      0.693208      0.033074
  B      -0.783605      3.635071     -0.031179
  B      -1.864070      2.270317      0.000083
  B      -0.513439     -0.693065      0.036757
  B       0.783367     -3.635171     -0.026226
  B       1.863272     -2.270982     -0.003120
12
Coordinates from ORCA-job input E -297.203513448590
  B       1.178628     -0.841046      0.023802
  B      -0.107302      2.157503      0.014106
  B      -2.310995      3.894581     -0.053101
  B      -1.178803      0.841427      0.037703
  B       0.107757     -2.157039      0.013445
  B       2.310567     -3.895412     -0.044064
  B       0.513693      0.693182      0.030711
  B      -0.783237      3.635693     -0.027531
  B      -1.863697      2.270554     -0.000185
  B      -0.513777     -0.693314      0.032954
  B       0.783438     -3.635191     -0.022217
  B       1.863726     -2.270939     -0.005624
12
Coordinates from ORCA-job input E -297.203516157698
  B       1.179741     -0.840926      0.017323
  B      -0.108368      2.157900      0.015090
  B      -2.311026      3.894605     -0.051509
  B      -1.178449      0.841206      0.036278
  B       0.108106     -2.156470      0.011317
  B       2.309393     -3.897191     -0.037247
  B       0.514648      0.693676      0.027386
  B      -0.784002      3.635678     -0.022932
  B      -1.865013      2.270184      0.001129
  B      -0.511909     -0.692427      0.028660
  B       0.782448     -3.635007     -0.018159
  B       1.864430     -2.271229     -0.007337
12
Coordinates from ORCA-job input E -297.203519483448
  B       1.178311     -0.840816      0.012073
  B      -0.107270      2.157372      0.014552
  B      -2.310135      3.895111     -0.047750
  B      -1.178137      0.841541      0.035399
  B       0.107632     -2.156909      0.008123
  B       2.310405     -3.895891     -0.029976
  B       0.513161      0.692992      0.023597
  B      -0.783129      3.634994     -0.020123
  B      -1.864931      2.269997      0.001955
  B      -0.513936     -0.693194      0.025708
  B       0.783357     -3.634839     -0.016022
  B       1.864672     -2.270358     -0.007537
12
Coordinates from ORCA-job input E -297.203520935614
  B       1.179446     -0.840686      0.010827
  B      -0.106704      2.157635      0.014059
  B      -2.312041      3.894243     -0.045976
  B      -1.177105      0.841613      0.034268
  B       0.107923     -2.156152      0.006719
  B       2.308668     -3.896609     -0.027388
  B       0.514656      0.693606      0.022045
  B      -0.784397      3.634975     -0.019881
  B      -1.864434      2.269510      0.003341
  B      -0.512954     -0.692604      0.024551
  B       0.782279     -3.634725     -0.015821
  B       1.864664     -2.270806     -0.006744
12
Coordinates from ORCA-job input E -297.203523347977
  B       1.178030     -0.841374      0.007757
  B      -0.107161      2.156655      0.012258
  B      -2.309943      3.896599     -0.041226
  B      -1.178373      0.841395      0.032407
  B       0.107115     -2.157344      0.002732
  B       2.311273     -3.894876     -0.020622
  B       0.514018      0.692561      0.018530
  B      -0.783631      3.634273     -0.019335
  B      -1.864601      2.270571      0.006063
  B      -0.514452     -0.693189      0.022059
  B       0.784199     -3.635385     -0.015006
  B       1.863525     -2.269886     -0.005618
12
Coordinates from ORCA-job input E -297.203524948842
  B       1.178700     -0.841323      0.007543
  B      -0.106161      2.157566      0.009960
  B      -2.313250      3.894496     -0.035917
  B      -1.177345      0.841380      0.029732
  B       0.107213     -2.156376      0.000055
  B       2.309634     -3.896446     -0.016169
  B       0.515617      0.693201      0.016390
  B      -0.785086      3.635252     -0.019803
  B      -1.862324      2.270228      0.007220
  B      -0.513639     -0.692427      0.020660
  B       0.783094     -3.634959     -0.014854
  B       1.863547     -2.270591     -0.004817
12
Coordinates from ORCA-job input E -297.203527914133
  B       1.178768     -0.840926      0.007181
  B      -0.107431      2.157289      0.009098
  B      -2.311093      3.895628     -0.033829
  B      -1.177753      0.840834      0.028529
  B       0.107899     -2.155882     -0.000205
  B       2.309768     -3.897108     -0.014521
  B       0.514595      0.693346      0.016016
  B      -0.784532      3.634660     -0.018654
  B      -1.864328      2.269942      0.005375
  B      -0.513216     -0.692358      0.021488
  B       0.783215     -3.634675     -0.014318
  B       1.864108     -2.270750     -0.006161
12
Coordinates from ORCA-job input E -297.203529676737
  B       1.178278     -0.841000      0.006425
  B      -0.107640      2.156853      0.008382
  B      -2.310353      3.896227     -0.032580
  B      -1.179018      0.840603      0.027058
  B       0.107681     -2.156697     -0.000387
  B       2.310782     -3.896324     -0.013229
  B       0.513566      0.693013      0.015489
  B      -0.783588      3.634958     -0.017543
  B      -1.863914      2.270710      0.005458
  B      -0.513866     -0.692957      0.020925
  B       0.784117     -3.635007     -0.013369
  B       1.863955     -2.270379     -0.006630
12
Coordinates from ORCA-job input E -297.203532259438
  B       1.179251     -0.841033      0.004979
  B      -0.106947      2.157966      0.005930
  B      -2.312743      3.894271     -0.027916
  B      -1.177784      0.841584      0.022455
  B       0.107438     -2.157140     -0.000725
  B       2.309978     -3.897028     -0.009640
  B       0.514510      0.693629      0.013192
  B      -0.784463      3.636290     -0.014619
  B      -1.862796      2.270649      0.005695
  B      -0.513345     -0.692758      0.018513
  B       0.783409     -3.635435     -0.010978
  B       1.863494     -2.270994     -0.006886
12
Coordinates from ORCA-job input E -297.203536055849
  B       1.177860     -0.841340      0.003734
  B      -0.108476      2.156476      0.003144
  B      -2.309168      3.896755     -0.021505
  B      -1.180034      0.841072      0.017425
  B       0.107110     -2.158256     -0.001323
  B       2.312397     -3.895129     -0.005180
  B       0.512299      0.692556      0.009392
  B      -0.782180      3.636046     -0.012538
  B      -1.864119      2.271653      0.006717
  B      -0.514814     -0.693881      0.015068
  B       0.785280     -3.635624     -0.008928
  B       1.863846     -2.270329     -0.006005
12
Coordinates from ORCA-job input E -297.203540265672
  B       1.179480     -0.841152      0.002222
  B      -0.107869      2.157211      0.001102
  B      -2.311975      3.895011     -0.014500
  B      -1.178805      0.841426      0.012232
  B       0.108008     -2.156694     -0.000951
  B       2.309985     -3.896454     -0.001581
  B       0.513593      0.693279      0.004778
  B      -0.783716      3.636264     -0.009951
  B      -1.863314      2.270803      0.006614
  B      -0.512842     -0.692834      0.010489
  B       0.783015     -3.635392     -0.006074
  B       1.864439     -2.271469     -0.004381
12
Coordinates from ORCA-job input E -297.203540065798
  B       1.178442     -0.840906      0.000772
  B      -0.109769      2.155256     -0.001766
  B      -2.306518      3.898964     -0.005410
  B      -1.181336      0.840935      0.005996
  B       0.108380     -2.156937      0.000421
  B       2.312305     -3.894947      0.001285
  B       0.511229      0.692126     -0.000759
  B      -0.781553      3.633671     -0.006156
  B      -1.866843      2.271319      0.005022
  B      -0.513821     -0.693555      0.004222
  B       0.784562     -3.635618     -0.001457
  B       1.864923     -2.270309     -0.002170
12
Coordinates from ORCA-job input E -297.203529111587
  B       1.181669     -0.840861      0.000569
  B      -0.104673      2.160799     -0.004752
  B      -2.317391      3.890140      0.004061
  B      -1.170642      0.844643      0.000805
  B       0.107395     -2.154529      0.001602
  B       2.305234     -3.900117      0.002818
  B       0.519676      0.695466     -0.005166
  B      -0.788959      3.635293     -0.004084
  B      -1.865159      2.266736      0.002822
  B      -0.510252     -0.690253     -0.002080
  B       0.778613     -3.634695      0.002666
  B       1.864489     -2.272622      0.000738
12
Coordinates from ORCA-job input E -297.203539612617
  B       1.174219     -0.842318      0.000924
  B      -0.106873      2.155650     -0.003121
  B      -2.308219      3.897569      0.000366
  B      -1.181204      0.841145      0.002520
  B       0.104935     -2.160058      0.001045
  B       2.315468     -3.892080      0.001824
  B       0.510828      0.691015     -0.002659
  B      -0.780386      3.636142     -0.006079
  B      -1.862113      2.272691      0.003781
  B      -0.518483     -0.695511      0.001254
  B       0.787916     -3.635433      0.000493
  B       1.863912     -2.268812     -0.000348
12
Coordinates from ORCA-job input E -297.203539130264
  B       1.181360     -0.840277     -0.001586
  B      -0.109512      2.156268     -0.000087
  B      -2.310230      3.896942     -0.007525
  B      -1.180879      0.839662      0.003639
  B       0.109881     -2.155652      0.002721
  B       2.308865     -3.897606     -0.001356
  B       0.512889      0.693735      0.001147
  B      -0.783749      3.635004     -0.002348
  B      -1.864943      2.271082      0.001581
  B      -0.510673     -0.692298      0.006585
  B       0.782107     -3.635490      0.001743
  B       1.864885     -2.271371     -0.004515
12
Coordinates from ORCA-job input E -297.203547287260
  B       1.179391     -0.841125     -0.001046
  B      -0.106971      2.157866     -0.001870
  B      -2.312220      3.894791     -0.001958
  B      -1.176720      0.841835      0.002650
  B       0.107527     -2.156470      0.002048
  B       2.309329     -3.897029      0.000435
  B       0.515088      0.693690     -0.001639
  B      -0.785104      3.635293     -0.003518
  B      -1.864425      2.269801      0.002026
  B      -0.512716     -0.692306      0.002106
  B       0.782471     -3.635166      0.002410
  B       1.864349     -2.271179     -0.001643
12
Coordinates from ORCA-job input E -297.203548033280
  B       1.177994     -0.841346     -0.000810
  B      -0.107617      2.156761     -0.002398
  B      -2.309997      3.896495     -0.000956
  B      -1.178953      0.841239      0.001958
  B       0.107238     -2.157423      0.001992
  B       2.311427     -3.895456      0.000774
  B       0.513195      0.692718     -0.001900
  B      -0.783257      3.635189     -0.003662
  B      -1.864293      2.270948      0.001983
  B      -0.514308     -0.693330      0.002169
  B       0.784303     -3.635343      0.002226
  B       1.864267     -2.270454     -0.001377
12
Coordinates from ORCA-job input E -297.203548115635
  B       1.178754     -0.841133     -0.001039
  B      -0.107452      2.157140     -0.002377
  B      -2.310966      3.895830     -0.000857
  B      -1.178788      0.841124      0.001695
  B       0.107548     -2.157029      0.002373
  B       2.310620     -3.896207      0.000271
  B       0.513694      0.693022     -0.001647
  B      -0.783721      3.635444     -0.003161
  B      -1.863990      2.270775      0.001143
  B      -0.513554     -0.692968      0.002397
  B       0.783667     -3.635306      0.002716
  B       1.864189     -2.270690     -0.001514
12
Coordinates from ORCA-job input E -297.203548142902
  B       1.178948     -0.841190     -0.001233
  B      -0.107292      2.157408     -0.002329
  B      -2.311362      3.895503     -0.000688
  B      -1.177804      0.841413      0.001517
  B       0.107524     -2.156818      0.002536
  B       2.310127     -3.896412      0.000150
  B       0.514321      0.693329     -0.001876
  B      -0.784320      3.635359     -0.003067
  B      -1.864313      2.270321      0.001183
  B      -0.513252     -0.692705      0.002091
  B       0.783206     -3.635267      0.002875
  B       1.864216     -2.270941     -0.001158
12
Coordinates from ORCA-job input E -297.203548262848
  B       1.178448     -0.841257     -0.001266
  B      -0.107452      2.157056     -0.002426
  B      -2.310650      3.896039     -0.000440
  B      -1.178518      0.841251      0.001428
  B       0.107381     -2.157150      0.002465
  B       2.310829     -3.895882      0.000323
  B       0.513709      0.692994     -0.001990
  B      -0.783729      3.635279     -0.003079
  B      -1.864232      2.270706      0.001213
  B      -0.513816     -0.693039      0.001970
  B       0.783822     -3.635321      0.002887
  B       1.864209     -2.270677     -0.001085
12
Coordinates from ORCA-job input E -297.203548263393
  B       1.178550     -0.841211     -0.001314
  B      -0.107388      2.157145     -0.002549
  B      -2.310842      3.895896     -0.000242
  B      -1.178548      0.841235      0.001386
  B       0.107444     -2.157091      0.002433
  B       2.310726     -3.896040      0.000361
  B       0.513760      0.693001     -0.001938
  B      -0.783773      3.635350     -0.003025
  B      -1.864128      2.270713      0.001031
  B      -0.513730     -0.692998      0.001989
  B       0.783746     -3.635312      0.002953
  B       1.864184     -2.270688     -0.001085
12
Coordinates from ORCA-job input E -297.203548276985
  B       1.178526     -0.841230     -0.001394
  B      -0.107405      2.157130     -0.002589
  B      -2.310795      3.895924     -0.000085
  B      -1.178500      0.841241      0.001285
  B       0.107425     -2.157098      0.002433
  B       2.310731     -3.896001      0.000421
  B       0.513777      0.693017     -0.002040
  B      -0.783787      3.635331     -0.002964
  B      -1.864178      2.270688      0.001022
  B      -0.513739     -0.692993      0.001878
  B       0.783750     -3.635309      0.003032
  B       1.864194     -2.270697     -0.000999
