12
Coordinates from ORCA-job input E -297.203548276985
  B           1.17852550437069     -0.84122968660874     -0.00139390808688
  B          -0.10740481923423      2.15712996513788     -0.00258935128249
  B          -2.31079473473681      3.89592358770649     -0.00008469881374
  B          -1.17849993261723      0.84124052577418      0.00128469347846
  B           0.10742456063364     -2.15709822286802      0.00243314068076
  B           2.31073070989970     -3.89600120355838      0.00042123935166
  B           0.51377737707584      0.69301659785297     -0.00204037570804
  B          -0.78378657005647      3.63533061817684     -0.00296350666629
  B          -1.86417754178185      2.27068774236705      0.00102161860435
  B          -0.51373876307077     -0.69299348623493      0.00187759606054
  B           0.78374999113627     -3.63530944916309      0.00303232233433
  B           1.86419421838122     -2.27069698858227     -0.00099876995263
