12
Optimized coordinates extracted from calculations\B12\bilayer_3d\d_3.5\mult_5\output.out
B        1.17852550      -0.84122969      -0.00139391
B       -0.10740482       2.15712997      -0.00258935
B       -2.31079473       3.89592359      -0.00008470
B       -1.17849993       0.84124053       0.00128469
B        0.10742456      -2.15709822       0.00243314
B        2.31073071      -3.89600120       0.00042124
B        0.51377738       0.69301660      -0.00204038
B       -0.78378657       3.63533062      -0.00296351
B       -1.86417754       2.27068774       0.00102162
B       -0.51373876      -0.69299349       0.00187760
B        0.78374999      -3.63530945       0.00303232
B        1.86419422      -2.27069699      -0.00099877
