12
B12 bilayer_3d; neutral charge=0; multiplicity=5; 3D initial geometry; nominal d=3.5 A; Two staggered non-planar B6 layers.
B        3.50000000      -0.00000000       1.08500000
B        1.75000000       3.03108891       1.08500000
B       -1.75000000       3.03108891       1.08500000
B       -3.50000000       0.00000000       1.08500000
B       -1.75000000      -3.03108891       1.08500000
B        1.75000000      -3.03108891       1.08500000
B        2.84922358       1.64500000      -1.08500000
B        0.00000000       3.29000000      -1.08500000
B       -2.84922358       1.64500000      -1.08500000
B       -2.84922358      -1.64500000      -1.08500000
B       -0.00000000      -3.29000000      -1.08500000
B        2.84922358      -1.64500000      -1.08500000
