12
Coordinates from ORCA-job input E -297.318956959703
  B           1.63201612395961      0.00000394306477      0.73368944817693
  B           0.81498185797310      1.41056148446085      0.73549694681690
  B          -0.81507979317873      1.41087339415747      0.73535528835848
  B          -1.63083778472100     -0.00036898088702      0.73432460820934
  B          -0.81500599575744     -1.41145041631988      0.73512708304570
  B           0.81527235852454     -1.41066353236960      0.73490605975072
  B           1.41064429653817      0.81478982478720     -0.73521194317605
  B           0.00011671877756      1.63217285793511     -0.73428204534372
  B          -1.41088995386918      0.81564533898855     -0.73489637790381
  B          -1.41182777683122     -0.81496490255381     -0.73502100206320
  B          -0.00061081367673     -1.63091735144372     -0.73440844244949
  B           1.41122076226132     -0.81568165981992     -0.73507962342181
