12
Coordinates from ORCA-job input E -296.950376035084
  B       2.000000     -0.000000      0.620000
  B       1.000000      1.732051      0.620000
  B      -1.000000      1.732051      0.620000
  B      -2.000000      0.000000      0.620000
  B      -1.000000     -1.732051      0.620000
  B       1.000000     -1.732051      0.620000
  B       1.628128      0.940000     -0.620000
  B       0.000000      1.880000     -0.620000
  B      -1.628128      0.940000     -0.620000
  B      -1.628128     -0.940000     -0.620000
  B      -0.000000     -1.880000     -0.620000
  B       1.628128     -0.940000     -0.620000
12
Coordinates from ORCA-job input E -297.010666704040
  B       1.964583      0.000182      0.629532
  B       0.982210      1.701087      0.629377
  B      -0.982292      1.700745      0.629351
  B      -1.964168     -0.000594      0.629378
  B      -0.981747     -1.701612      0.629229
  B       0.982557     -1.700947      0.629330
  B       1.598219      0.922873     -0.629536
  B       0.000443      1.846111     -0.629857
  B      -1.598495      0.923430     -0.629376
  B      -1.598986     -0.922553     -0.629405
  B      -0.000559     -1.845639     -0.629383
  B       1.598234     -0.923083     -0.628641
12
Coordinates from ORCA-job input E -297.068085406850
  B       1.929174      0.000404      0.639640
  B       0.964430      1.670099      0.639345
  B      -0.964557      1.669379      0.639271
  B      -1.928284     -0.001238      0.639327
  B      -0.963440     -1.671193      0.639042
  B       0.965128     -1.669829      0.639233
  B       1.568950      0.906180     -0.639614
  B       0.000922      1.813038     -0.640346
  B      -1.569547      0.907288     -0.639351
  B      -1.570578     -0.905466     -0.639394
  B      -0.001184     -1.812082     -0.639344
  B       1.568986     -0.906579     -0.637808
12
Coordinates from ORCA-job input E -297.147002239655
  B       1.874649      0.000785      0.654722
  B       0.937009      1.622431      0.654317
  B      -0.937204      1.621197      0.654140
  B      -1.873068     -0.002064      0.654242
  B      -0.935367     -1.624256      0.653816
  B       0.938171     -1.622016      0.654113
  B       1.525704      0.881491     -0.654629
  B       0.001543      1.764081     -0.655966
  B      -1.526767      0.883350     -0.654318
  B      -1.528523     -0.880253     -0.654374
  B      -0.002013     -1.762544     -0.654308
  B       1.525865     -0.882200     -0.651755
12
Coordinates from ORCA-job input E -297.242754928577
  B       1.789600      0.001367      0.677423
  B       0.894092      1.548163      0.677112
  B      -0.894497      1.546322      0.676724
  B      -1.787060     -0.002927      0.676879
  B      -0.891861     -1.550721      0.676371
  B       0.895840     -1.547613      0.676760
  B       1.463579      0.845833     -0.677223
  B       0.002152      1.693415     -0.679364
  B      -1.465207      0.848693     -0.677028
  B      -1.467785     -0.844060     -0.677109
  B      -0.002925     -1.691308     -0.677067
  B       1.464071     -0.847163     -0.673478
12
Coordinates from ORCA-job input E -297.302669765079
  B       1.696461      0.001672      0.702159
  B       0.846746      1.466826      0.702385
  B      -0.847741      1.464718      0.701698
  B      -1.693056     -0.003183      0.701871
  B      -0.844605     -1.469501      0.701455
  B       0.849076     -1.466221      0.701800
  B       1.409081      0.814075     -0.701883
  B       0.002120      1.630836     -0.704680
  B      -1.410916      0.817836     -0.702051
  B      -1.413830     -0.812243     -0.702165
  B      -0.003286     -1.628437     -0.702164
  B       1.409949     -0.816378     -0.698426
12
Coordinates from ORCA-job input E -297.316403564036
  B       1.632897      0.001142      0.721413
  B       0.814258      1.411361      0.722243
  B      -0.815821      1.409711      0.721473
  B      -1.629442     -0.002568      0.721526
  B      -0.813050     -1.413385      0.721326
  B       0.816910     -1.410781      0.721503
  B       1.393086      0.803987     -0.721244
  B       0.001211      1.611825     -0.723890
  B      -1.394413      0.807979     -0.721616
  B      -1.396741     -0.802888     -0.721825
  B      -0.002697     -1.609333     -0.721755
  B       1.393801     -0.807051     -0.719154
12
Coordinates from ORCA-job input E -297.318301283503
  B       1.629112      0.000754      0.726953
  B       0.812649      1.407945      0.728216
  B      -0.813765      1.406992      0.727641
  B      -1.626437     -0.001908      0.727235
  B      -0.812048     -1.409604      0.727472
  B       0.814746     -1.407543      0.727513
  B       1.403774      0.810131     -0.727365
  B       0.000740      1.624120     -0.728895
  B      -1.404639      0.813357     -0.727522
  B      -1.406416     -0.809671     -0.727784
  B      -0.002010     -1.621879     -0.727386
  B       1.404293     -0.812693     -0.726079
12
Coordinates from ORCA-job input E -297.318919397929
  B       1.631134      0.000359      0.731981
  B       0.814111      1.409691      0.733678
  B      -0.814626      1.409531      0.733328
  B      -1.629360     -0.000969      0.732493
  B      -0.814022     -1.410933      0.733147
  B       0.815207     -1.409615      0.732996
  B       1.411827      0.815140     -0.733099
  B       0.000321      1.633511     -0.733166
  B      -1.412239      0.816999     -0.732985
  B      -1.413502     -0.815167     -0.733180
  B      -0.001203     -1.631785     -0.732598
  B       1.412352     -0.816761     -0.732596
12
Coordinates from ORCA-job input E -297.318950148298
  B       1.631537      0.000166      0.733210
  B       0.814530      1.410067      0.735002
  B      -0.814837      1.410178      0.734748
  B      -1.630083     -0.000624      0.733798
  B      -0.814518     -1.411129      0.734556
  B       0.815201     -1.410094      0.734351
  B       1.411444      0.815087     -0.734560
  B       0.000202      1.633096     -0.734083
  B      -1.411753      0.816404     -0.734347
  B      -1.412844     -0.815215     -0.734496
  B      -0.000882     -1.631608     -0.733898
  B       1.412005     -0.816329     -0.734282
12
Coordinates from ORCA-job input E -297.318956959703
  B       1.632016      0.000004      0.733689
  B       0.814982      1.410561      0.735497
  B      -0.815080      1.410873      0.735355
  B      -1.630838     -0.000369      0.734325
  B      -0.815006     -1.411450      0.735127
  B       0.815272     -1.410664      0.734906
  B       1.410644      0.814790     -0.735212
  B       0.000117      1.632173     -0.734282
  B      -1.410890      0.815645     -0.734896
  B      -1.411828     -0.814965     -0.735021
  B      -0.000611     -1.630917     -0.734408
  B       1.411221     -0.815682     -0.735080
