12
Optimized coordinates extracted from calculations\B12\bilayer_3d\d_2.0\mult_1\output.out
B        1.63201612       0.00000394       0.73368945
B        0.81498186       1.41056148       0.73549695
B       -0.81507979       1.41087339       0.73535529
B       -1.63083778      -0.00036898       0.73432461
B       -0.81500600      -1.41145042       0.73512708
B        0.81527236      -1.41066353       0.73490606
B        1.41064430       0.81478982      -0.73521194
B        0.00011672       1.63217286      -0.73428205
B       -1.41088995       0.81564534      -0.73489638
B       -1.41182778      -0.81496490      -0.73502100
B       -0.00061081      -1.63091735      -0.73440844
B        1.41122076      -0.81568166      -0.73507962
