12
B12 distorted_cage; neutral charge=0; multiplicity=1; 3d initial geometry; nominal d=2.5 A; Anisotropically deformed 3D cage.
B       -0.08923622      -1.13302738      -2.31022683
B       -0.09771453      -1.06222004       2.43127473
B        0.03358765       1.08429044      -2.42358502
B       -0.07865266       1.16498113       2.30565055
B       -1.13672575      -1.87095910      -0.08899105
B       -1.37960566       1.69400075       0.00473953
B        1.24759124      -1.91325731       0.07239034
B        1.61568656       1.68420250       0.05176353
B       -2.26887966       0.10032533      -1.45657805
B       -2.23385490      -0.09305796       1.42003378
B        2.20773521       0.21922489      -1.52078187
B        2.18006871       0.12549677       1.51431037
