12
B12 planar_triangular_patch; neutral charge=0; multiplicity=1; planar initial geometry; nominal d=4.5 A; Compact planar triangular-lattice B12 control motif.
B       -7.50000000      -3.89711432       0.00000000
B       -3.00000000      -3.89711432       0.00000000
B        1.50000000      -3.89711432       0.00000000
B        6.00000000      -3.89711432       0.00000000
B       -5.25000000      -0.00000000       0.00000000
B       -0.75000000      -0.00000000       0.00000000
B        3.75000000      -0.00000000       0.00000000
B        8.25000000      -0.00000000       0.00000000
B       -7.50000000       3.89711432       0.00000000
B       -3.00000000       3.89711432       0.00000000
B        1.50000000       3.89711432       0.00000000
B        6.00000000       3.89711432       0.00000000
