12
B12 random_3d_01; neutral charge=0; multiplicity=5; 3D initial geometry; nominal d=3.5 A; Random 3D B12 cloud with controlled minimum distance 01.
B       -3.67762920       1.62321275      -4.32339414
B       -0.23866356       1.32984975       4.05485460
B        2.87216458       1.55781525      -0.41300001
B        2.63223511      -1.16444849      -1.59089081
B       -4.72571275      -1.24476150      -0.52741095
B       -3.08967994      -4.73190903      -5.70704588
B        5.48899153       0.48519494      -4.11958190
B       -3.01113498      -0.40150162       4.36652868
B        3.73527285      -4.92639447       4.22296677
B       -3.23108609       5.26029164       0.42094828
B       -0.71770442      -2.11740772      -0.78171228
B        3.96294685       4.33005848       4.39773764
