12
Coordinates from ORCA-job input E -297.031295245271
  B           1.55486973094783      3.65929703314582      3.62266946394436
  B           2.91893686087045      3.01762634753042      3.61950805213856
  B           1.79926757549768      2.40291908332288      2.63332047507498
  B          -1.42497476147599     -2.84811745382151     -1.62277672335633
  B           1.17274529136038      0.30419418301470      0.34694471273370
  B           1.13812618762613      1.36159001235712      1.53763498484601
  B          -0.90859098473123     -1.36548725412339     -1.22518834735666
  B          -2.05196880643777     -3.28535821166409     -2.98069445447834
  B          -0.22797531090286     -0.34474852344875     -0.18039311775404
  B          -2.18019824776361     -2.14067226250047     -4.00775063416076
  B          -0.25827329996257      0.72969995265778      1.01156311633854
  B          -1.53196423502844     -1.49094290647052     -2.75483754797003
