12
Coordinates from ORCA-job input E -294.772053355900
  B       0.000000      0.000000      7.045891
  B       5.309729      0.000000      3.221086
  B      -2.654865      4.589766      3.221086
  B      -2.654865     -4.589766      3.221086
  B       3.239835      5.309729     -0.153742
  B      -3.239835      5.309729     -0.153742
  B       3.239835     -5.309729     -0.153742
  B      -3.239835     -5.309729     -0.153742
  B       5.039743      0.000000     -3.573568
  B      -5.039743      0.000000     -3.573568
  B       0.000000      4.409775     -4.473522
  B       0.000000     -4.409775     -4.473522
12
Coordinates from ORCA-job input E -294.781443778274
  B      -0.006759     -0.000011      7.030704
  B       5.307429     -0.000060      3.217871
  B      -2.664524      4.572048      3.166452
  B      -2.664446     -4.572081      3.166483
  B       3.244220      5.308008     -0.161409
  B      -3.230296      5.281490     -0.109052
  B       3.244298     -5.308114     -0.161514
  B      -3.230276     -5.281455     -0.108957
  B       5.042189      0.000047     -3.578822
  B      -5.042743      0.000031     -3.567630
  B       0.000484      4.409813     -4.447176
  B       0.000423     -4.409716     -4.446950
12
Coordinates from ORCA-job input E -294.791314017315
  B      -0.013916     -0.000023      7.015455
  B       5.305314     -0.000121      3.214711
  B      -2.673892      4.554436      3.111798
  B      -2.673738     -4.554499      3.111857
  B       3.248624      5.306288     -0.168795
  B      -3.220552      5.252614     -0.064314
  B       3.248781     -5.306501     -0.169006
  B      -3.220510     -5.252543     -0.064123
  B       5.044464      0.000093     -3.584056
  B      -5.045982      0.000062     -3.561853
  B       0.000763      4.409599     -4.421063
  B       0.000644     -4.409405     -4.420612
12
Coordinates from ORCA-job input E -294.806994452899
  B      -0.025170     -0.000042      6.992096
  B       5.302759     -0.000207      3.210101
  B      -2.687477      4.529151      3.029820
  B      -2.687224     -4.529253      3.029917
  B       3.254733      5.303336     -0.179303
  B      -3.205741      5.209020      0.002750
  B       3.254996     -5.303697     -0.179667
  B      -3.205662     -5.208900      0.003079
  B       5.047631      0.000159     -3.591906
  B      -5.050740      0.000102     -3.552861
  B       0.001047      4.409199     -4.382400
  B       0.000849     -4.408867     -4.381626
12
Coordinates from ORCA-job input E -294.825706665778
  B      -0.035446     -0.000048      6.963711
  B       5.297230     -0.000301      3.203318
  B      -2.702862      4.504725      2.939739
  B      -2.702519     -4.504878      2.939949
  B       3.256812      5.298213     -0.194385
  B      -3.190873      5.162402      0.077263
  B       3.257154     -5.298714     -0.194925
  B      -3.190771     -5.162271      0.077695
  B       5.053280      0.000243     -3.601937
  B      -5.052237      0.000142     -3.541777
  B       0.005253      4.410232     -4.334885
  B       0.004979     -4.409745     -4.333768
12
Coordinates from ORCA-job input E -294.845512802306
  B      -0.046184     -0.000053      6.934779
  B       5.291481     -0.000396      3.196229
  B      -2.717773      4.480703      2.849285
  B      -2.717345     -4.480900      2.849611
  B       3.258080      5.292785     -0.209684
  B      -3.175760      5.114263      0.152262
  B       3.258501     -5.293430     -0.210407
  B      -3.175627     -5.114125      0.152794
  B       5.058978      0.000326     -3.612224
  B      -5.053624      0.000179     -3.530894
  B       0.009808      4.410908     -4.286608
  B       0.009465     -4.410259     -4.285143
12
Coordinates from ORCA-job input E -294.864173750260
  B      -0.059618     -0.000069      6.909946
  B       5.289080     -0.000492      3.191449
  B      -2.729780      4.455386      2.764572
  B      -2.729264     -4.455602      2.764936
  B       3.263385      5.289419     -0.219657
  B      -3.159446      5.064886      0.221605
  B       3.263912     -5.290230     -0.220556
  B      -3.159251     -5.064704      0.222279
  B       5.061554      0.000387     -3.620443
  B      -5.059435      0.000214     -3.522535
  B       0.009636      4.409053     -4.246700
  B       0.009227     -4.408249     -4.244896
12
Coordinates from ORCA-job input E -294.876676873608
  B      -0.068762     -0.000077      6.893414
  B       5.287151     -0.000561      3.188162
  B      -2.737352      4.438100      2.708172
  B      -2.736774     -4.438323      2.708564
  B       3.266788      5.287274     -0.226368
  B      -3.148421      5.030771      0.267732
  B       3.267391     -5.288206     -0.227394
  B      -3.148176     -5.030556      0.268502
  B       5.063219      0.000427     -3.625955
  B      -5.063596      0.000237     -3.517463
  B       0.009493      4.407405     -4.219704
  B       0.009041     -4.406490     -4.217662
12
Coordinates from ORCA-job input E -294.895110681275
  B      -0.082535     -0.000083      6.868810
  B       5.283143     -0.000679      3.182756
  B      -2.748174      4.410811      2.623905
  B      -2.747487     -4.411037      2.624347
  B       3.271562      5.284332     -0.237076
  B      -3.131681      4.977121      0.336726
  B       3.272295     -5.285478     -0.238318
  B      -3.131346     -4.976855      0.337645
  B       5.065924      0.000487     -3.634371
  B      -5.070270      0.000276     -3.511028
  B       0.009543      4.404144     -4.177912
  B       0.009027     -4.403039     -4.175483
12
Coordinates from ORCA-job input E -294.914148387514
  B      -0.093749     -0.000065      6.840238
  B       5.272906     -0.000834      3.173070
  B      -2.760749      4.381411      2.534064
  B      -2.759930     -4.381642      2.534658
  B       3.270492      5.279705     -0.255623
  B      -3.115871      4.917761      0.411473
  B       3.271361     -5.281112     -0.257158
  B      -3.115437     -4.917475      0.412519
  B       5.072640      0.000571     -3.645359
  B      -5.073023      0.000321     -3.504865
  B       0.015969      4.401307     -4.122967
  B       0.015390     -4.399948     -4.120050
12
Coordinates from ORCA-job input E -294.930082903063
  B      -0.101607     -0.000043      6.809841
  B       5.256892     -0.001021      3.158510
  B      -2.774570      4.351659      2.445648
  B      -2.773603     -4.351896      2.446435
  B       3.262417      5.273334     -0.281926
  B      -3.102500      4.856767      0.486468
  B       3.263430     -5.275044     -0.283821
  B      -3.101946     -4.856463      0.487662
  B       5.083770      0.000670     -3.658286
  B      -5.070811      0.000370     -3.499247
  B       0.029582      4.398957     -4.057395
  B       0.028946     -4.397291     -4.053889
12
Coordinates from ORCA-job input E -294.939709877294
  B      -0.103994      0.000018      6.784432
  B       5.237459     -0.001195      3.141715
  B      -2.786996      4.327419      2.378381
  B      -2.785901     -4.327673      2.379481
  B       3.247779      5.266336     -0.312110
  B      -3.094238      4.807319      0.545304
  B       3.248879     -5.268302     -0.314359
  B      -3.093603     -4.807068      0.546541
  B       5.096845      0.000771     -3.670188
  B      -5.063221      0.000411     -3.495557
  B       0.048829      4.398226     -3.993832
  B       0.048163     -4.396262     -3.989807
12
Coordinates from ORCA-job input E -294.949144688969
  B      -0.107083     -0.000006      6.767280
  B       5.226285     -0.001315      3.131113
  B      -2.794950      4.310697      2.331639
  B      -2.793772     -4.310951      2.332760
  B       3.239466      5.261504     -0.330479
  B      -3.087910      4.772354      0.585619
  B       3.240661     -5.263659     -0.332955
  B      -3.087167     -4.772043      0.587037
  B       5.104827      0.000828     -3.677959
  B      -5.059787      0.000434     -3.492910
  B       0.060062      4.396331     -3.952794
  B       0.059368     -4.394173     -3.948350
12
Coordinates from ORCA-job input E -294.964834889395
  B      -0.115957     -0.000019      6.741455
  B       5.214556     -0.001482      3.118046
  B      -2.805642      4.284594      2.255676
  B      -2.804346     -4.284834      2.256865
  B       3.231813      5.255021     -0.351884
  B      -3.075512      4.715786      0.649881
  B       3.233144     -5.257454     -0.354684
  B      -3.074617     -4.715413      0.651509
  B       5.113781      0.000895     -3.688656
  B      -5.058985      0.000466     -3.488107
  B       0.071247      4.391302     -3.897548
  B       0.070518     -4.388863     -3.892553
12
Coordinates from ORCA-job input E -294.968539253350
  B      -0.111321      0.000460      6.719812
  B       5.188531     -0.001631      3.094922
  B      -2.820036      4.263030      2.206266
  B      -2.818624     -4.263340      2.208938
  B       3.204784      5.244513     -0.393122
  B      -3.073941      4.671588      0.699246
  B       3.205962     -5.247120     -0.396394
  B      -3.073273     -4.671907      0.699992
  B       5.132493      0.001034     -3.700816
  B      -5.041616      0.000547     -3.485955
  B       0.103857      4.389698     -3.829015
  B       0.103185     -4.386872     -3.823876
12
Coordinates from ORCA-job input E -294.977163238444
  B      -0.080956     -0.001763      6.716394
  B       5.146901     -0.001833      3.068463
  B      -2.831463      4.257207      2.235301
  B      -2.829995     -4.257310      2.231643
  B       3.154248      5.231954     -0.451470
  B      -3.090900      4.674808      0.685947
  B       3.156537     -5.234937     -0.454183
  B      -3.088462     -4.671772      0.691901
  B       5.153179      0.000877     -3.706590
  B      -5.004729      0.000274     -3.491303
  B       0.158335      4.398769     -3.766753
  B       0.157305     -4.396275     -3.759350
12
Coordinates from ORCA-job input E -294.983883417679
  B      -0.055871      0.008893      6.710992
  B       5.109755     -0.001102      3.040233
  B      -2.845095      4.255380      2.240711
  B      -2.843183     -4.256758      2.266909
  B       3.111938      5.219667     -0.504499
  B      -3.104510      4.670207      0.694817
  B       3.109252     -5.221331     -0.509216
  B      -3.109677     -4.683087      0.676466
  B       5.180081      0.001699     -3.716720
  B      -4.969333      0.001959     -3.495589
  B       0.208387      4.405164     -3.700569
  B       0.208254     -4.400691     -3.703533
12
Coordinates from ORCA-job input E -294.989025836259
  B      -0.039490      0.004656      6.706502
  B       5.085237     -0.001490      3.020406
  B      -2.854636      4.255411      2.258757
  B      -2.852738     -4.256457      2.273336
  B       3.080845      5.209716     -0.541237
  B      -3.118156      4.675471      0.689408
  B       3.080016     -5.211866     -0.545354
  B      -3.120320     -4.682129      0.680745
  B       5.199900      0.001480     -3.724530
  B      -4.945245      0.001291     -3.498325
  B       0.242538      4.407177     -3.660683
  B       0.242050     -4.403261     -3.659025
12
Coordinates from ORCA-job input E -294.997156382504
  B      -0.017098     -0.005892      6.698113
  B       5.050536     -0.003174      2.990514
  B      -2.869383      4.254736      2.285285
  B      -2.867041     -4.253963      2.271315
  B       3.032950      5.192310     -0.595525
  B      -3.139471      4.683153      0.681063
  B       3.038209     -5.197377     -0.599254
  B      -3.132837     -4.672977      0.697215
  B       5.229866      0.000892     -3.736943
  B      -4.910299     -0.000454     -3.502082
  B       0.293047      4.408380     -3.601326
  B       0.291522     -4.405635     -3.588374
12
Coordinates from ORCA-job input E -295.006010282468
  B       0.013395     -0.015664      6.690981
  B       5.002409     -0.004372      2.958034
  B      -2.882879      4.253804      2.320200
  B      -2.880766     -4.251356      2.278666
  B       2.977935      5.172773     -0.658292
  B      -3.162702      4.693416      0.665997
  B       2.989400     -5.180698     -0.660493
  B      -3.148217     -4.667732      0.705390
  B       5.262892      0.000228     -3.748290
  B      -4.869601     -0.002194     -3.505550
  B       0.350359      4.409737     -3.534587
  B       0.347775     -4.407944     -3.512057
12
Coordinates from ORCA-job input E -295.015426082384
  B       0.043508     -0.024310      6.684265
  B       4.954292     -0.005098      2.926380
  B      -2.894607      4.252887      2.353974
  B      -2.894197     -4.248869      2.287988
  B       2.922719      5.151978     -0.721058
  B      -3.183910      4.702644      0.651355
  B       2.939714     -5.162292     -0.721728
  B      -3.163733     -4.663667      0.711017
  B       5.295122     -0.000045     -3.758897
  B      -4.829413     -0.004480     -3.509231
  B       0.406624      4.410703     -3.467494
  B       0.403881     -4.409450     -3.436573
12
Coordinates from ORCA-job input E -295.025532919858
  B       0.065610     -0.030494      6.677496
  B       4.919957     -0.005659      2.897789
  B      -2.906079      4.252362      2.377859
  B      -2.908018     -4.247540      2.295186
  B       2.874360      5.131685     -0.775489
  B      -3.201049      4.707854      0.644206
  B       2.894343     -5.143159     -0.776057
  B      -3.177851     -4.659855      0.718539
  B       5.323979      0.000269     -3.769760
  B      -4.794581     -0.006672     -3.513518
  B       0.455510      4.411111     -3.407026
  B       0.453820     -4.409902     -3.369226
12
Coordinates from ORCA-job input E -295.032996612581
  B       0.079753     -0.034573      6.673038
  B       4.898024     -0.006014      2.878859
  B      -2.913627      4.251985      2.393427
  B      -2.917345     -4.246626      2.299685
  B       2.841693      5.117248     -0.811667
  B      -3.212068      4.710900      0.639990
  B       2.863616     -5.129474     -0.812220
  B      -3.187074     -4.656994      0.724016
  B       5.343289      0.000536     -3.777002
  B      -4.771341     -0.008222     -3.516478
  B       0.487926      4.411259     -3.367047
  B       0.487153     -4.410025     -3.324601
12
Coordinates from ORCA-job input E -295.045089403822
  B       0.100924     -0.040444      6.666940
  B       4.865281     -0.006537      2.850825
  B      -2.924449      4.251463      2.417445
  B      -2.930871     -4.245466      2.307723
  B       2.792420      5.094800     -0.865848
  B      -3.228289      4.715743      0.632701
  B       2.817014     -5.108019     -0.866380
  B      -3.200734     -4.653336      0.730886
  B       5.371917      0.000948     -3.787374
  B      -4.736523     -0.010473     -3.520943
  B       0.536332      4.411098     -3.307538
  B       0.536977     -4.409778     -3.258438
12
Coordinates from ORCA-job input E -295.059719374698
  B       0.127804     -0.048997      6.661607
  B       4.821832     -0.007268      2.820915
  B      -2.933983      4.250501      2.451369
  B      -2.943476     -4.243132      2.316743
  B       2.734666      5.068111     -0.927958
  B      -3.246812      4.724060      0.617507
  B       2.764736     -5.083764     -0.927098
  B      -3.214434     -4.648360      0.736857
  B       5.403248      0.001086     -3.796754
  B      -4.697016     -0.013306     -3.525181
  B       0.590891      4.410638     -3.242579
  B       0.592544     -4.409569     -3.185430
12
Coordinates from ORCA-job input E -295.076145275645
  B       0.154009     -0.058069      6.656490
  B       4.779553     -0.008377      2.791718
  B      -2.943418      4.249253      2.485678
  B      -2.955648     -4.240482      2.324275
  B       2.676148      5.039519     -0.989790
  B      -3.265154      4.732276      0.601723
  B       2.711758     -5.057757     -0.987637
  B      -3.226955     -4.641910      0.744406
  B       5.434339      0.001214     -3.805830
  B      -4.657625     -0.016227     -3.529422
  B       0.645139      4.409470     -3.178455
  B       0.647855     -4.408910     -3.113157
12
Coordinates from ORCA-job input E -295.091928925879
  B       0.173987     -0.064678      6.651268
  B       4.748788     -0.009524      2.765431
  B      -2.953517      4.248015      2.510425
  B      -2.968078     -4.238611      2.330394
  B       2.625260      5.012686     -1.043184
  B      -3.280450      4.736609      0.593215
  B       2.663178     -5.031919     -1.041288
  B      -3.238126     -4.635638      0.753248
  B       5.462224      0.001642     -3.815123
  B      -4.622962     -0.018751     -3.533740
  B       0.692605      4.407615     -3.121347
  B       0.697089     -4.407447     -3.049299
12
Coordinates from ORCA-job input E -295.102732067820
  B       0.187120     -0.068899      6.647979
  B       4.728566     -0.010214      2.748307
  B      -2.960098      4.247110      2.526691
  B      -2.976313     -4.237245      2.334787
  B       2.590916      4.993942     -1.078680
  B      -3.290185      4.739026      0.588064
  B       2.630175     -5.013733     -1.076916
  B      -3.245399     -4.631356      0.758996
  B       5.480775      0.001974     -3.821124
  B      -4.599714     -0.020475     -3.536638
  B       0.724180      4.406294     -3.083935
  B       0.729977     -4.406423     -3.007533
12
Coordinates from ORCA-job input E -295.119014909203
  B       0.207047     -0.074729      6.643626
  B       4.697610     -0.011057      2.723220
  B      -2.969096      4.245610      2.551043
  B      -2.988011     -4.235213      2.342946
  B       2.539231      4.965093     -1.131888
  B      -3.304070      4.742452      0.579842
  B       2.580150     -4.985483     -1.130145
  B      -3.256189     -4.625709      0.765704
  B       5.508030      0.002538     -3.829442
  B      -4.565030     -0.022978     -3.540886
  B       0.771255      4.403979     -3.028123
  B       0.779072     -4.404504     -2.945898
12
Coordinates from ORCA-job input E -295.137104364220
  B       0.232159     -0.083443      6.637824
  B       4.660297     -0.012690      2.694490
  B      -2.978696      4.245098      2.583671
  B      -3.000942     -4.232645      2.349095
  B       2.477953      4.928840     -1.192824
  B      -3.321622      4.749387      0.565081
  B       2.524145     -4.952230     -1.190320
  B      -3.267267     -4.617663      0.774202
  B       5.540075      0.002878     -3.839015
  B      -4.525185     -0.026326     -3.545754
  B       0.824614      4.399034     -2.963020
  B       0.834471     -4.400240     -2.873427
12
Coordinates from ORCA-job input E -295.157738596531
  B       0.242773     -0.060890      6.630675
  B       4.632543     -0.004828      2.670299
  B      -2.993966      4.230946      2.542197
  B      -3.016373     -4.225195      2.379418
  B       2.427518      4.897834     -1.253734
  B      -3.310382      4.704445      0.626403
  B       2.454662     -4.908171     -1.248657
  B      -3.285398     -4.616616      0.768374
  B       5.567231      0.004505     -3.848303
  B      -4.487079     -0.022162     -3.548919
  B       0.879489      4.400856     -2.894189
  B       0.888983     -4.400724     -2.823563
12
Coordinates from ORCA-job input E -295.172800765435
  B       0.259355     -0.054786      6.616266
  B       4.603210     -0.004169      2.645504
  B      -3.009881      4.222006      2.523507
  B      -3.028098     -4.212665      2.369144
  B       2.377468      4.861000     -1.304402
  B      -3.312628      4.677120      0.659564
  B       2.408709     -4.875945     -1.295115
  B      -3.290436     -4.594749      0.785947
  B       5.594730      0.003312     -3.860322
  B      -4.456676     -0.020254     -3.550791
  B       0.923731      4.390339     -2.825844
  B       0.930515     -4.391209     -2.763458
12
Coordinates from ORCA-job input E -295.181800862776
  B       0.266475     -0.042319      6.605908
  B       4.585504     -0.001147      2.632247
  B      -3.020518      4.211019      2.489302
  B      -3.035764     -4.201131      2.366062
  B       2.350365      4.840549     -1.334016
  B      -3.304847      4.643228      0.702253
  B       2.379544     -4.855288     -1.322068
  B      -3.294224     -4.580247      0.794037
  B       5.608880      0.002739     -3.867441
  B      -4.439642     -0.016650     -3.551145
  B       0.949957      4.384764     -2.783137
  B       0.954270     -4.385519     -2.732001
12
Coordinates from ORCA-job input E -295.194214444810
  B       0.273614     -0.019202      6.589702
  B       4.561951      0.004733      2.615073
  B      -3.035428      4.191442      2.422819
  B      -3.046847     -4.182527      2.361605
  B       2.316317      4.813359     -1.372495
  B      -3.287275      4.583066      0.778502
  B       2.339538     -4.825693     -1.357580
  B      -3.299537     -4.558371      0.804854
  B       5.626767      0.002117     -3.877766
  B      -4.418217     -0.009495     -3.550497
  B       0.984293      4.376643     -2.723613
  B       0.984824     -4.376073     -2.690604
12
Coordinates from ORCA-job input E -295.202819769297
  B       0.294059      0.010446      6.576515
  B       4.512461      0.015475      2.600010
  B      -3.042336      4.157454      2.345297
  B      -3.058037     -4.159076      2.386642
  B       2.268724      4.784156     -1.426508
  B      -3.263464      4.505440      0.862751
  B       2.273022     -4.782772     -1.411773
  B      -3.312294     -4.542826      0.798350
  B       5.643165      0.003597     -3.880563
  B      -4.384521      0.001101     -3.549746
  B       1.036310      4.378162     -2.657646
  B       1.032912     -4.371157     -2.643328
12
Coordinates from ORCA-job input E -295.210665454976
  B       0.348075      0.021889      6.560518
  B       4.437111      0.018155      2.585638
  B      -3.046972      4.138349      2.339818
  B      -3.063898     -4.141005      2.412658
  B       2.210340      4.746021     -1.473956
  B      -3.264597      4.474469      0.873849
  B       2.212650     -4.741916     -1.462674
  B      -3.324045     -4.531013      0.784262
  B       5.668904      0.002303     -3.878661
  B      -4.342107      0.004487     -3.551792
  B       1.084318      4.373888     -2.596245
  B       1.080220     -4.365627     -2.593416
12
Coordinates from ORCA-job input E -295.217280538148
  B       0.388281      0.000200      6.557090
  B       4.391532      0.007753      2.592088
  B      -3.040210      4.148201      2.415169
  B      -3.054874     -4.144261      2.412356
  B       2.204405      4.741081     -1.471187
  B      -3.286161      4.518270      0.796662
  B       2.209110     -4.739812     -1.467706
  B      -3.320413     -4.529915      0.779709
  B       5.675755      0.001906     -3.869897
  B      -4.332812     -0.006940     -3.554046
  B       1.078925      4.368906     -2.605872
  B       1.086462     -4.365388     -2.584367
12
Coordinates from ORCA-job input E -295.212594350170
  B       0.476562      0.008110      6.495109
  B       4.308952      0.004952      2.593791
  B      -3.061180      4.161403      2.412465
  B      -3.044701     -4.113135      2.333764
  B       2.158579      4.672818     -1.478551
  B      -3.309655      4.512096      0.797457
  B       2.279535     -4.756327     -1.416434
  B      -3.298261     -4.479990      0.786213
  B       5.706283     -0.015343     -3.878514
  B      -4.328837      0.012340     -3.543456
  B       1.077568      4.312890     -2.524359
  B       1.035155     -4.319815     -2.577484
12
Coordinates from ORCA-job input E -295.214065562387
  B       0.475681     -0.005167      6.481844
  B       4.301783     -0.011608      2.611442
  B      -3.049324      4.140461      2.367729
  B      -3.047719     -4.107620      2.304753
  B       2.221282      4.710628     -1.427389
  B      -3.294375      4.488039      0.806693
  B       2.243654     -4.736232     -1.443268
  B      -3.289764     -4.452646      0.828111
  B       5.686741     -0.003267     -3.877127
  B      -4.342770     -0.015036     -3.537801
  B       1.035800      4.311184     -2.571602
  B       1.059010     -4.318736     -2.543384
12
Coordinates from ORCA-job input E -295.219844322287
  B       0.493143      0.002532      6.489539
  B       4.277164     -0.004153      2.614554
  B      -3.040005      4.143105      2.381964
  B      -3.048870     -4.119483      2.367299
  B       2.214404      4.710838     -1.435833
  B      -3.289418      4.494554      0.799095
  B       2.218251     -4.718557     -1.459841
  B      -3.308329     -4.490946      0.781722
  B       5.696952     -0.000367     -3.866248
  B      -4.328287     -0.014878     -3.540522
  B       1.045110      4.321576     -2.584810
  B       1.069885     -4.324220     -2.546918
12
Coordinates from ORCA-job input E -295.221121264734
  B       0.525627      0.008082      6.471584
  B       4.237578     -0.004551      2.624101
  B      -3.043100      4.146806      2.386431
  B      -3.039011     -4.112220      2.357866
  B       2.195947      4.691389     -1.446068
  B      -3.295938      4.496415      0.796966
  B       2.228916     -4.722559     -1.452712
  B      -3.303231     -4.483429      0.774688
  B       5.700356     -0.005931     -3.863872
  B      -4.323907     -0.007031     -3.538873
  B       1.052634      4.310721     -2.561292
  B       1.064130     -4.317693     -2.548819
12
Coordinates from ORCA-job input E -295.222038104382
  B       0.563981      0.008094      6.450697
  B       4.186137     -0.005782      2.636885
  B      -3.039566      4.142758      2.383618
  B      -3.035067     -4.105901      2.352381
  B       2.190551      4.683375     -1.446703
  B      -3.295709      4.490654      0.795006
  B       2.223529     -4.715601     -1.456689
  B      -3.301204     -4.475698      0.773945
  B       5.704640     -0.006106     -3.860273
  B      -4.317487     -0.008083     -3.537278
  B       1.053323      4.303453     -2.553138
  B       1.066872     -4.311164     -2.538451
12
Coordinates from ORCA-job input E -295.223605761206
  B       0.621097      0.007636      6.419541
  B       4.105001     -0.006403      2.661967
  B      -3.030773      4.136125      2.378688
  B      -3.026577     -4.097384      2.345246
  B       2.187805      4.677280     -1.444993
  B      -3.292875      4.482492      0.792082
  B       2.221308     -4.710421     -1.457553
  B      -3.297445     -4.466373      0.771559
  B       5.705984     -0.005929     -3.852811
  B      -4.311713     -0.009064     -3.534537
  B       1.051723      4.295557     -2.548426
  B       1.066464     -4.303516     -2.530762
12
Coordinates from ORCA-job input E -295.225760499650
  B       0.693644      0.007476      6.378349
  B       4.008568     -0.007076      2.691198
  B      -3.021118      4.127881      2.372404
  B      -3.016605     -4.084726      2.334358
  B       2.182489      4.665244     -1.441967
  B      -3.290660      4.472282      0.786991
  B       2.220100     -4.702300     -1.456782
  B      -3.293014     -4.453820      0.766065
  B       5.708443     -0.006121     -3.843713
  B      -4.304275     -0.009965     -3.530606
  B       1.048682      4.281981     -2.538061
  B       1.063746     -4.290855     -2.518237
12
Coordinates from ORCA-job input E -295.228521404813
  B       0.781457      0.006942      6.326214
  B       3.901782     -0.007972      2.721359
  B      -3.011062      4.116683      2.362844
  B      -3.006895     -4.065596      2.317097
  B       2.174870      4.645021     -1.435381
  B      -3.289061      4.458350      0.778859
  B       2.219134     -4.688472     -1.454405
  B      -3.288142     -4.436118      0.756907
  B       5.712776     -0.006174     -3.833328
  B      -4.294481     -0.011933     -3.524420
  B       1.041714      4.259630     -2.519877
  B       1.057908     -4.270363     -2.495869
12
Coordinates from ORCA-job input E -295.231634368641
  B       0.853524      0.006221      6.281908
  B       3.811550     -0.007552      2.753878
  B      -3.001361      4.108381      2.358078
  B      -2.997945     -4.053512      2.310013
  B       2.172513      4.633899     -1.429313
  B      -3.287249      4.448774      0.773199
  B       2.220523     -4.680276     -1.450203
  B      -3.286066     -4.426135      0.748682
  B       5.715626     -0.005995     -3.824833
  B      -4.289512     -0.012669     -3.523247
  B       1.036128      4.245988     -2.512943
  B       1.052269     -4.257124     -2.485218
12
Coordinates from ORCA-job input E -295.234557050470
  B       0.910051      0.005769      6.245184
  B       3.739064     -0.006939      2.784362
  B      -2.993428      4.102164      2.355113
  B      -2.990545     -4.046009      2.307201
  B       2.172509      4.627646     -1.424664
  B      -3.285538      4.441596      0.770268
  B       2.222162     -4.674940     -1.446180
  B      -3.285127     -4.419812      0.743315
  B       5.717263     -0.005861     -3.818842
  B      -4.287333     -0.012775     -3.524565
  B       1.032579      4.237642     -2.510737
  B       1.048343     -4.248481     -2.480456
12
Coordinates from ORCA-job input E -295.236688132256
  B       0.946910      0.005579      6.220026
  B       3.692192     -0.006490      2.806377
  B      -2.988206      4.098122      2.353033
  B      -2.985638     -4.041635      2.305833
  B       2.173366      4.624039     -1.421224
  B      -3.284336      4.436919      0.768733
  B       2.223756     -4.671553     -1.442854
  B      -3.284721     -4.416075      0.739972
  B       5.717787     -0.005804     -3.815301
  B      -4.286753     -0.012677     -3.526072
  B       1.030121      4.232502     -2.510157
  B       1.045523     -4.242927     -2.478368
12
Coordinates from ORCA-job input E -295.240079366098
  B       1.002807      0.005104      6.180811
  B       3.621038     -0.006314      2.837714
  B      -2.981350      4.091687      2.350232
  B      -2.978993     -4.034247      2.302270
  B       2.171942      4.616187     -1.418034
  B      -3.283347      4.429246      0.766792
  B       2.223593     -4.664454     -1.440135
  B      -3.283787     -4.408421      0.737190
  B       5.720079     -0.005795     -3.810647
  B      -4.284488     -0.012794     -3.528485
  B       1.028629      4.223740     -2.505688
  B       1.043878     -4.233938     -2.472020
12
Coordinates from ORCA-job input E -295.244494582398
  B       1.071865      0.004416      6.130920
  B       3.535103     -0.006347      2.876579
  B      -2.972998      4.082860      2.345742
  B      -2.970731     -4.023297      2.295384
  B       2.168968      4.602172     -1.414511
  B      -3.282170      4.419040      0.763529
  B       2.222919     -4.652086     -1.437663
  B      -3.281869     -4.397365      0.733525
  B       5.722159     -0.005965     -3.805121
  B      -4.281706     -0.013192     -3.530528
  B       1.026627      4.209334     -2.496956
  B       1.041834     -4.219570     -2.460901
12
Coordinates from ORCA-job input E -295.250152556701
  B       1.154624      0.003345      6.068897
  B       3.437843     -0.006600      2.919791
  B      -2.963558      4.070525      2.338064
  B      -2.961394     -4.006723      2.282997
  B       2.163671      4.581113     -1.409388
  B      -3.281162      4.405246      0.758476
  B       2.221537     -4.634226     -1.434633
  B      -3.279172     -4.381555      0.728198
  B       5.724700     -0.006157     -3.797700
  B      -4.277731     -0.014160     -3.531273
  B       1.022602      4.187921     -2.481521
  B       1.038042     -4.198727     -2.441908
12
Coordinates from ORCA-job input E -295.256012550749
  B       1.222724      0.002457      6.013299
  B       3.363268     -0.006130      2.963216
  B      -2.956447      4.061131      2.334726
  B      -2.954868     -3.995695      2.278612
  B       2.162753      4.567192     -1.402416
  B      -3.281376      4.394885      0.754641
  B       2.222645     -4.621293     -1.428348
  B      -3.279899     -4.371605      0.722738
  B       5.727063     -0.006025     -3.792707
  B      -4.277476     -0.014507     -3.537119
  B       1.018347      4.172853     -2.474716
  B       1.033266     -4.183262     -2.431927
12
Coordinates from ORCA-job input E -295.261269535760
  B       1.275942      0.001999      5.966678
  B       3.307430     -0.005652      3.001036
  B      -2.951721      4.054069      2.332887
  B      -2.950647     -3.988266      2.277210
  B       2.163311      4.557317     -1.395832
  B      -3.282017      4.386686      0.752520
  B       2.224033     -4.611456     -1.421877
  B      -3.281538     -4.364451      0.718885
  B       5.729160     -0.005909     -3.789823
  B      -4.278622     -0.014533     -3.544142
  B       1.015134      4.161948     -2.471239
  B       1.029534     -4.171752     -2.426302
12
Coordinates from ORCA-job input E -295.265143069313
  B       1.310721      0.001829      5.934616
  B       3.272636     -0.005322      3.027519
  B      -2.948979      4.049426      2.331635
  B      -2.948220     -3.983633      2.276656
  B       2.164217      4.550894     -1.390810
  B      -3.282623      4.381174      0.751326
  B       2.225315     -4.604897     -1.416772
  B      -3.282964     -4.359863      0.716306
  B       5.730379     -0.005853     -3.788316
  B      -4.280041     -0.014445     -3.549537
  B       1.012778      4.154721     -2.469410
  B       1.026779     -4.164030     -2.423213
12
Coordinates from ORCA-job input E -295.270853882762
  B       1.363187      0.001398      5.885361
  B       3.219211     -0.005133      3.065460
  B      -2.945464      4.041783      2.329724
  B      -2.945076     -3.975670      2.274421
  B       2.163109      4.539153     -1.385270
  B      -3.283900      4.371979      0.750122
  B       2.224876     -4.593266     -1.411256
  B      -3.284631     -4.351007      0.714440
  B       5.733344     -0.005798     -3.786342
  B      -4.280853     -0.014552     -3.557414
  B       1.011256      4.143007     -2.463476
  B       1.024940     -4.151894     -2.415769
12
Coordinates from ORCA-job input E -295.278493930331
  B       1.429186      0.000731      5.821397
  B       3.154055     -0.005128      3.112464
  B      -2.941352      4.030987      2.326312
  B      -2.941301     -3.963825      2.269368
  B       2.160126      4.521990     -1.378842
  B      -3.285794      4.359478      0.748358
  B       2.223130     -4.576755     -1.405158
  B      -3.286368     -4.338153      0.712581
  B       5.737164     -0.005771     -3.783698
  B      -4.281362     -0.014908     -3.566736
  B       1.009515      4.126381     -2.452842
  B       1.023001     -4.135026     -2.403205
12
Coordinates from ORCA-job input E -295.288091634914
  B       1.507670     -0.000255      5.742752
  B       3.080314     -0.005330      3.166940
  B      -2.936387      4.016244      2.320447
  B      -2.936621     -3.946598      2.259991
  B       2.154814      4.498336     -1.371158
  B      -3.288231      4.343396      0.745289
  B       2.220137     -4.554786     -1.398416
  B      -3.287949     -4.320828      0.709769
  B       5.741446     -0.005739     -3.779516
  B      -4.281442     -0.015691     -3.576386
  B       1.006408      4.103548     -2.436044
  B       1.019841     -4.112297     -2.383667
12
Coordinates from ORCA-job input E -295.297140217761
  B       1.571580     -0.000861      5.673203
  B       3.028339     -0.005112      3.219118
  B      -2.933760      4.004460      2.318124
  B      -2.934533     -3.933871      2.256823
  B       2.153475      4.480886     -1.360987
  B      -3.291638      4.330423      0.742463
  B       2.220017     -4.537724     -1.388462
  B      -3.292037     -4.308371      0.705823
  B       5.745253     -0.005509     -3.777536
  B      -4.284030     -0.016016     -3.589388
  B       1.002237      4.085882     -2.427018
  B       1.015097     -4.094187     -2.372164
12
Coordinates from ORCA-job input E -295.304556645542
  B       1.620314     -0.001099      5.617029
  B       2.991503     -0.004835      3.262356
  B      -2.932621      3.995396      2.316762
  B      -2.933829     -3.924601      2.255817
  B       2.153469      4.467796     -1.351743
  B      -3.294640      4.320013      0.740828
  B       2.220513     -4.524524     -1.379147
  B      -3.296015     -4.298936      0.702760
  B       5.748349     -0.005337     -3.776965
  B      -4.286998     -0.016076     -3.601335
  B       0.998822      4.072468     -2.421437
  B       1.011134     -4.080263     -2.364926
12
Coordinates from ORCA-job input E -295.309549998224
  B       1.652042     -0.001143      5.578930
  B       2.968935     -0.004613      3.292109
  B      -2.932172      3.989331      2.315708
  B      -2.933649     -3.918549      2.255398
  B       2.153910      4.459161     -1.344974
  B      -3.296674      4.312937      0.739916
  B       2.221183     -4.515721     -1.372238
  B      -3.298850     -4.292732      0.700592
  B       5.750240     -0.005246     -3.776875
  B      -4.289450     -0.016026     -3.609740
  B       0.996297      4.063492     -2.418161
  B       1.008188     -4.070890     -2.360664
12
Coordinates from ORCA-job input E -295.317045933329
  B       1.699163     -0.000884      5.521856
  B       2.934855     -0.004036      3.338306
  B      -2.931721      3.980650      2.314308
  B      -2.933431     -3.910503      2.256179
  B       2.156143      4.446631     -1.333258
  B      -3.299544      4.301923      0.739063
  B       2.223404     -4.502641     -1.359942
  B      -3.303353     -4.283612      0.697036
  B       5.752177     -0.005243     -3.778180
  B      -4.293726     -0.015602     -3.623295
  B       0.992482      4.050278     -2.415234
  B       1.003551     -4.056961     -2.356839
12
Coordinates from ORCA-job input E -295.326249458657
  B       1.760764     -0.000807      5.445041
  B       2.889497     -0.003679      3.397572
  B      -2.931284      3.968232      2.312169
  B      -2.933331     -3.898438      2.254911
  B       2.155740      4.426994     -1.320648
  B      -3.303506      4.286804      0.737946
  B       2.222986     -4.482571     -1.346867
  B      -3.308260     -4.269596      0.694284
  B       5.755622     -0.005351     -3.779817
  B      -4.297846     -0.015454     -3.639949
  B       0.989515      4.031193     -2.406938
  B       1.000103     -4.037325     -2.347704
12
Coordinates from ORCA-job input E -295.335461011393
  B       1.833718     -0.000793      5.349987
  B       2.837226     -0.003450      3.471320
  B      -2.929989      3.951784      2.307771
  B      -2.932367     -3.882097      2.250240
  B       2.153661      4.400002     -1.306219
  B      -3.307659      4.267831      0.735678
  B       2.221158     -4.455326     -1.331862
  B      -3.312814     -4.251138      0.690952
  B       5.757672     -0.005644     -3.781518
  B      -4.302865     -0.015439     -3.658481
  B       0.986039      4.005506     -2.393901
  B       0.996220     -4.011236     -2.333967
12
Coordinates from ORCA-job input E -295.339219815574
  B       1.892492     -0.000678      5.271215
  B       2.796990     -0.003142      3.535868
  B      -2.927741      3.937676      2.303779
  B      -2.930407     -3.868156      2.246198
  B       2.151949      4.375192     -1.292902
  B      -3.310185      4.251646      0.732046
  B       2.219638     -4.430169     -1.317881
  B      -3.315854     -4.235522      0.686146
  B       5.756271     -0.005895     -3.782928
  B      -4.307164     -0.015442     -3.673333
  B       0.982161      3.982024     -2.384201
  B       0.991848     -3.987534     -2.324007
12
Coordinates from ORCA-job input E -295.340497832588
  B       1.925372     -0.001962      5.235616
  B       2.770472     -0.003980      3.551118
  B      -2.919746      3.927504      2.294951
  B      -2.924029     -3.850617      2.227685
  B       2.137025      4.340929     -1.289943
  B      -3.305315      4.238900      0.722206
  B       2.209632     -4.400408     -1.317539
  B      -3.307323     -4.217837      0.677441
  B       5.751798     -0.005779     -3.773778
  B      -4.299191     -0.018798     -3.662393
  B       0.974813      3.951126     -2.363961
  B       0.986493     -3.959076     -2.301403
12
Coordinates from ORCA-job input E -295.343509474690
  B       1.950553     -0.000986      5.202311
  B       2.755096     -0.002909      3.585548
  B      -2.917837      3.921853      2.292785
  B      -2.921930     -3.846114      2.231079
  B       2.142727      4.332544     -1.277056
  B      -3.304830      4.230652      0.720402
  B       2.214628     -4.390990     -1.303851
  B      -3.309936     -4.213101      0.670431
  B       5.747692     -0.005652     -3.775229
  B      -4.303893     -0.018012     -3.671359
  B       0.968703      3.941162     -2.368659
  B       0.979026     -3.948448     -2.306400
12
Coordinates from ORCA-job input E -295.346184665352
  B       1.969691     -0.001115      5.174675
  B       2.743689     -0.002939      3.606354
  B      -2.918259      3.916730      2.292209
  B      -2.922657     -3.840976      2.230063
  B       2.140894      4.323367     -1.273556
  B      -3.306483      4.224842      0.719646
  B       2.212459     -4.381473     -1.300519
  B      -3.311548     -4.207177      0.670025
  B       5.749112     -0.005650     -3.776229
  B      -4.304682     -0.018284     -3.677361
  B       0.968640      3.933191     -2.363926
  B       0.979145     -3.940517     -2.301381
12
Coordinates from ORCA-job input E -295.348469686034
  B       1.988728     -0.001144      5.146930
  B       2.732536     -0.002885      3.627516
  B      -2.918771      3.911683      2.291716
  B      -2.923376     -3.835951      2.229441
  B       2.139693      4.314642     -1.269398
  B      -3.308140      4.219105      0.718997
  B       2.211114     -4.372520     -1.296337
  B      -3.313288     -4.201513      0.669341
  B       5.750399     -0.005679     -3.777352
  B      -4.305803     -0.018412     -3.683650
  B       0.968217      3.925441     -2.359928
  B       0.978690     -3.932768     -2.297275
12
Coordinates from ORCA-job input E -295.349020242712
  B       2.011818     -0.001317      5.118190
  B       2.714907     -0.002942      3.653399
  B      -2.913306      3.904196      2.284406
  B      -2.917669     -3.826184      2.219104
  B       2.131989      4.291095     -1.265889
  B      -3.303179      4.211702      0.712571
  B       2.205025     -4.350407     -1.293394
  B      -3.307202     -4.192315      0.662514
  B       5.741129     -0.005862     -3.772148
  B      -4.303524     -0.019479     -3.678665
  B       0.964727      3.904755     -2.351435
  B       0.975284     -3.913242     -2.288652
12
Coordinates from ORCA-job input E -295.349364987626
  B       1.998283     -0.000376      5.140693
  B       2.713222     -0.002299      3.655288
  B      -2.904129      3.906856      2.279060
  B      -2.905910     -3.831729      2.217553
  B       2.132767      4.291538     -1.268347
  B      -3.294109      4.214733      0.709361
  B       2.203863     -4.349369     -1.294896
  B      -3.299350     -4.196683      0.657377
  B       5.722851     -0.006305     -3.765570
  B      -4.304198     -0.018102     -3.668605
  B       0.963947      3.905417     -2.361650
  B       0.972763     -3.913682     -2.300264
12
Coordinates from ORCA-job input E -295.349474760568
  B       2.004413     -0.002198      5.147062
  B       2.711015     -0.003540      3.640763
  B      -2.893641      3.901745      2.269415
  B      -2.899996     -3.816082      2.194435
  B       2.116170      4.258226     -1.266710
  B      -3.283931      4.206263      0.694085
  B       2.194072     -4.321880     -1.297263
  B      -3.284852     -4.181793      0.643248
  B       5.711839     -0.005353     -3.755494
  B      -4.289917     -0.023800     -3.644080
  B       0.951225      3.873490     -2.345470
  B       0.963602     -3.885078     -2.279991
12
Coordinates from ORCA-job input E -295.350094803181
  B       1.992188     -0.000766      5.181240
  B       2.691807     -0.002503      3.666845
  B      -2.860163      3.899215      2.246978
  B      -2.862778     -3.815454      2.173663
  B       2.106651      4.226738     -1.267473
  B      -3.252536      4.202610      0.672943
  B       2.182942     -4.289133     -1.297638
  B      -3.254458     -4.178091      0.617619
  B       5.651628     -0.006012     -3.732473
  B      -4.284761     -0.023727     -3.606719
  B       0.939801      3.844494     -2.359749
  B       0.949678     -3.857372     -2.295238
12
Coordinates from ORCA-job input E -295.350867845680
  B       1.985671      0.000714      5.211398
  B       2.668239     -0.001310      3.701085
  B      -2.822108      3.893652      2.219155
  B      -2.821081     -3.809185      2.146488
  B       2.093126      4.182098     -1.266757
  B      -3.216301      4.195570      0.646796
  B       2.169215     -4.244602     -1.297240
  B      -3.219538     -4.170532      0.585221
  B       5.585440     -0.006485     -3.706181
  B      -4.278447     -0.024745     -3.562335
  B       0.923939      3.803693     -2.370498
  B       0.931846     -3.818868     -2.307133
12
Coordinates from ORCA-job input E -295.351634517812
  B       1.983548      0.001369      5.238168
  B       2.647521     -0.000644      3.727340
  B      -2.786356      3.885899      2.190834
  B      -2.783971     -3.796961      2.114911
  B       2.076610      4.131181     -1.265298
  B      -3.181744      4.185637      0.618977
  B       2.154748     -4.195662     -1.297553
  B      -3.185418     -4.158604      0.552032
  B       5.526312     -0.006397     -3.681469
  B      -4.269605     -0.027646     -3.516332
  B       0.905322      3.756986     -2.372681
  B       0.913034     -3.775158     -2.308927
12
Coordinates from ORCA-job input E -295.352845038849
  B       1.977269      0.002219      5.282265
  B       2.618278      0.000200      3.761537
  B      -2.732525      3.872898      2.149588
  B      -2.728260     -3.777398      2.067977
  B       2.051161      4.056417     -1.262873
  B      -3.129795      4.168676      0.577334
  B       2.132731     -4.123933     -1.297704
  B      -3.133370     -4.137966      0.503052
  B       5.436922     -0.006337     -3.644514
  B      -4.254435     -0.032181     -3.448041
  B       0.877533      3.687688     -2.376544
  B       0.884492     -3.710282     -2.312077
12
Coordinates from ORCA-job input E -295.354244997224
  B       1.972596      0.002861      5.324166
  B       2.589941      0.000913      3.793546
  B      -2.679385      3.857460      2.108005
  B      -2.673846     -3.754517      2.020078
  B       2.024575      3.979858     -1.259675
  B      -3.078124      4.148701      0.535383
  B       2.109966     -4.050690     -1.297551
  B      -3.081461     -4.114037      0.454005
  B       5.349817     -0.006086     -3.608476
  B      -4.238267     -0.037362     -3.380639
  B       0.848880      3.616469     -2.377154
  B       0.855309     -3.643571     -2.311687
12
Coordinates from ORCA-job input E -295.355867076269
  B       1.969222      0.003355      5.364326
  B       2.562603      0.001516      3.824036
  B      -2.626690      3.839870      2.066186
  B      -2.620405     -3.728887      1.971361
  B       1.997120      3.901941     -1.255630
  B      -3.026679      4.126096      0.492912
  B       2.086626     -3.976211     -1.296865
  B      -3.029555     -4.087295      0.404714
  B       5.264623     -0.005769     -3.573383
  B      -4.221508     -0.043043     -3.314237
  B       0.819338      3.543775     -2.375070
  B       0.825306     -3.575349     -2.308349
12
Coordinates from ORCA-job input E -295.357740640052
  B       1.966692      0.003813      5.403336
  B       2.535993      0.002061      3.853731
  B      -2.574129      3.820248      2.024012
  B      -2.567335     -3.700867      1.921952
  B       1.969068      3.823180     -1.250916
  B      -2.975224      4.101101      0.450053
  B       2.062759     -3.900836     -1.295708
  B      -2.977442     -4.058067      0.355084
  B       5.180698     -0.005538     -3.538977
  B      -4.204701     -0.049136     -3.248739
  B       0.789092      3.470207     -2.370951
  B       0.794527     -3.506167     -2.302877
12
Coordinates from ORCA-job input E -295.359683134846
  B       1.952872      0.005756      5.441816
  B       2.505361      0.001884      3.883806
  B      -2.520789      3.817738      1.989099
  B      -2.511721     -3.693021      1.882135
  B       1.946820      3.760543     -1.251765
  B      -2.919620      4.093050      0.414058
  B       2.041114     -3.838826     -1.298914
  B      -2.921263     -4.047372      0.312968
  B       5.083911     -0.006377     -3.501155
  B      -4.182962     -0.053970     -3.193635
  B       0.760725      3.419801     -2.372652
  B       0.765553     -3.459207     -2.305762
12
Coordinates from ORCA-job input E -295.361915188495
  B       1.939646      0.007652      5.477761
  B       2.475954      0.001455      3.914267
  B      -2.467517      3.814478      1.954413
  B      -2.456611     -3.683849      1.841837
  B       1.923970      3.697761     -1.252204
  B      -2.863908      4.083526      0.377891
  B       2.019266     -3.776427     -1.301467
  B      -2.864217     -4.034986      0.270734
  B       4.986415     -0.007479     -3.463172
  B      -4.160816     -0.059109     -3.140646
  B       0.731866      3.369560     -2.372537
  B       0.735952     -3.412582     -2.306878
12
Coordinates from ORCA-job input E -295.364471444252
  B       1.926800      0.009526      5.513275
  B       2.446615      0.000999      3.944083
  B      -2.414122      3.810789      1.919837
  B      -2.401201     -3.673962      1.801206
  B       1.900988      3.635729     -1.252425
  B      -2.807826      4.072996      0.341694
  B       1.997299     -3.714385     -1.303826
  B      -2.806224     -4.021382      0.228226
  B       4.887000     -0.009048     -3.424762
  B      -4.138001     -0.064468     -3.089191
  B       0.702778      3.320293     -2.371333
  B       0.705895     -3.367086     -2.306783
12
Coordinates from ORCA-job input E -295.367393997146
  B       1.914280      0.011464      5.548258
  B       2.417478      0.000472      3.973569
  B      -2.360688      3.806688      1.885414
  B      -2.345371     -3.663268      1.760231
  B       1.878038      3.574503     -1.252354
  B      -2.751517      4.061467      0.305525
  B       1.975359     -3.652712     -1.306017
  B      -2.747302     -4.006486      0.185323
  B       4.785382     -0.011244     -3.385851
  B      -4.114666     -0.070112     -3.039279
  B       0.673596      3.272061     -2.369192
  B       0.675410     -3.322834     -2.305628
12
Coordinates from ORCA-job input E -295.370734246970
  B       1.902101      0.013499      5.582768
  B       2.388605     -0.000138      4.002759
  B      -2.307340      3.802142      1.851204
  B      -2.289018     -3.651639      1.718883
  B       1.855191      3.514162     -1.251938
  B      -2.695142      4.048944      0.269451
  B       1.953526     -3.591487     -1.308062
  B      -2.687423     -3.990166      0.141926
  B       4.681464     -0.014253     -3.346389
  B      -4.090863     -0.076085     -2.990913
  B       0.644435      3.224934     -2.366233
  B       0.644463     -3.279912     -2.303456
12
Coordinates from ORCA-job input E -295.374559029947
  B       1.890313      0.015677      5.616764
  B       2.360173     -0.000856      4.031668
  B      -2.254292      3.797131      1.817313
  B      -2.232128     -3.638912      1.677100
  B       1.832487      3.454728     -1.251125
  B      -2.638919      4.035397      0.233564
  B       1.931899     -3.530711     -1.309983
  B      -2.626553     -3.972207      0.097896
  B       4.575302     -0.018335     -3.306358
  B      -4.066625     -0.082449     -2.944144
  B       0.615359      3.178924     -2.362486
  B       0.612986     -3.238388     -2.300208
12
Coordinates from ORCA-job input E -295.378954021260
  B       1.879009      0.017894      5.650242
  B       2.332253     -0.001567      4.060256
  B      -2.201874      3.791634      1.783874
  B      -2.174498     -3.624966      1.634739
  B       1.809963      3.396384     -1.249919
  B      -2.583140      4.020965      0.197990
  B       1.910625     -3.470575     -1.311798
  B      -2.564568     -3.952317      0.053011
  B       4.466925     -0.023971     -3.265711
  B      -4.042009     -0.089249     -2.898990
  B       0.586498      3.134142     -2.357994
  B       0.580816     -3.198373     -2.295700
12
Coordinates from ORCA-job input E -295.384054259536
  B       1.868240      0.020386      5.683162
  B       2.304994     -0.002473      4.088544
  B      -2.150237      3.785803      1.751099
  B      -2.116033     -3.609344      1.591654
  B       1.787595      3.339149     -1.248251
  B      -2.528056      4.005665      0.162903
  B       1.889832     -3.411271     -1.313587
  B      -2.501323     -3.930301      0.006948
  B       4.356448     -0.031554     -3.224396
  B      -4.017183     -0.096582     -2.855577
  B       0.557731      3.090657     -2.352695
  B       0.547992     -3.160136     -2.289804
12
Coordinates from ORCA-job input E -295.390193850708
  B       1.857995      0.023409      5.715464
  B       2.278451     -0.003678      4.116474
  B      -2.100025      3.780151      1.719581
  B      -2.055729     -3.591209      1.547239
  B       1.765201      3.283434     -1.246153
  B      -2.474469      3.990073      0.128907
  B       1.870098     -3.353953     -1.315391
  B      -2.435927     -3.905617     -0.041357
  B       4.243906     -0.042488     -3.182345
  B      -3.992669     -0.104191     -2.814132
  B       0.529048      3.048822     -2.346405
  B       0.514118     -3.124754     -2.281884
12
Coordinates from ORCA-job input E -295.400496507209
  B       1.848216      0.028113      5.746925
  B       2.252939     -0.005366      4.143983
  B      -2.054261      3.776502      1.692137
  B      -1.989237     -3.566328      1.499060
  B       1.741691      3.230935     -1.243699
  B      -2.426136      3.976618      0.098630
  B       1.854397     -3.303244     -1.317362
  B      -2.365032     -3.875129     -0.096787
  B       4.130218     -0.063730     -3.139462
  B      -3.971657     -0.111722     -2.775139
  B       0.501082      3.009909     -2.338019
  B       0.477780     -3.096559     -2.270268
12
Coordinates from ORCA-job input E -295.411482739288
  B       1.840557      0.035811      5.776664
  B       2.231821     -0.007648      4.170884
  B      -2.018080      3.772711      1.673245
  B      -1.915974     -3.522737      1.444790
  B       1.716115      3.184760     -1.240537
  B      -2.390086      3.964565      0.075739
  B       1.849665     -3.264513     -1.320461
  B      -2.291297     -3.825861     -0.166335
  B       4.023485     -0.104844     -3.095781
  B      -3.962138     -0.127963     -2.737640
  B       0.477051      2.975132     -2.324644
  B       0.438880     -3.079413     -2.255924
12
Coordinates from ORCA-job input E -295.419612543999
  B       1.836285      0.039202      5.793466
  B       2.219595     -0.009492      4.186239
  B      -1.995797      3.768736      1.662332
  B      -1.869177     -3.491931      1.408931
  B       1.701464      3.158794     -1.236459
  B      -2.367361      3.955746      0.062068
  B       1.845178     -3.240196     -1.323155
  B      -2.238868     -3.790061     -0.211855
  B       3.953063     -0.136415     -3.065572
  B      -3.956648     -0.140132     -2.718054
  B       0.458695      2.955859     -2.317032
  B       0.413570     -3.070111     -2.240908
12
Coordinates from ORCA-job input E -295.433067949617
  B       1.829479      0.044086      5.819452
  B       2.200610     -0.011827      4.209071
  B      -1.960365      3.763138      1.643335
  B      -1.802872     -3.450274      1.353176
  B       1.681394      3.119713     -1.229909
  B      -2.331260      3.941658      0.040877
  B       1.836757     -3.200417     -1.328571
  B      -2.160224     -3.739671     -0.277249
  B       3.848726     -0.179881     -3.021797
  B      -3.947536     -0.157973     -2.686609
  B       0.429979      2.926633     -2.306526
  B       0.375312     -3.055185     -2.215249
12
Coordinates from ORCA-job input E -295.448395477729
  B       1.823609      0.048281      5.843451
  B       2.182495     -0.013945      4.230444
  B      -1.924771      3.757201      1.625216
  B      -1.739977     -3.409656      1.297975
  B       1.661162      3.083006     -1.223342
  B      -2.295069      3.927092      0.019608
  B       1.827546     -3.160343     -1.334649
  B      -2.079534     -3.690071     -0.342112
  B       3.746793     -0.224062     -2.977806
  B      -3.938887     -0.175713     -2.658247
  B       0.400352      2.899695     -2.295186
  B       0.336280     -3.041485     -2.185352
12
Coordinates from ORCA-job input E -295.465810951431
  B       1.818636      0.051828      5.865699
  B       2.165220     -0.015687      4.250231
  B      -1.889060      3.750789      1.607794
  B      -1.681418     -3.370573      1.243596
  B       1.640705      3.048699     -1.216884
  B      -2.258525      3.911909     -0.001663
  B       1.817183     -3.119626     -1.341314
  B      -1.997276     -3.641929     -0.405678
  B       3.648138     -0.268363     -2.934134
  B      -3.930734     -0.193333     -2.632714
  B       0.370184      2.875062     -2.283021
  B       0.296948     -3.028777     -2.151912
12
Coordinates from ORCA-job input E -295.485652362704
  B       1.814616      0.054858      5.886338
  B       2.148834     -0.016898      4.268503
  B      -1.853317      3.743921      1.591079
  B      -1.627771     -3.333439      1.190109
  B       1.619985      3.016818     -1.210566
  B      -2.221590      3.896135     -0.022891
  B       1.805410     -3.078158     -1.348266
  B      -1.913295     -3.595729     -0.467849
  B       3.553273     -0.312539     -2.891161
  B      -3.923109     -0.210586     -2.609874
  B       0.339643      2.852731     -2.270088
  B       0.257321     -3.017114     -2.115332
12
Coordinates from ORCA-job input E -295.500794558257
  B       1.814192      0.056886      5.898341
  B       2.140013     -0.016775      4.279288
  B      -1.830585      3.738512      1.582072
  B      -1.595931     -3.309100      1.155245
  B       1.605551      2.998648     -1.206243
  B      -2.197762      3.885324     -0.036684
  B       1.796277     -3.051575     -1.351769
  B      -1.854162     -3.565545     -0.510824
  B       3.492756     -0.344257     -2.861568
  B      -3.918861     -0.221378     -2.599110
  B       0.318873      2.840442     -2.260735
  B       0.229640     -3.011182     -2.088013
12
Coordinates from ORCA-job input E -295.511934123375
  B       1.815396      0.058531      5.905685
  B       2.135417     -0.015707      4.285819
  B      -1.816038      3.734743      1.577050
  B      -1.577678     -3.294903      1.131597
  B       1.595938      2.988247     -1.203287
  B      -2.182318      3.878217     -0.045713
  B       1.789154     -3.033768     -1.353350
  B      -1.813777     -3.546800     -0.539457
  B       3.454359     -0.366029     -2.841479
  B      -3.916227     -0.227910     -2.593905
  B       0.305107      2.833603     -2.254298
  B       0.210666     -3.008224     -2.068664
12
Coordinates from ORCA-job input E -295.530629899480
  B       1.816018      0.061214      5.917058
  B       2.127394     -0.013584      4.295464
  B      -1.793749      3.730551      1.568795
  B      -1.551209     -3.277355      1.095983
  B       1.582107      2.972715     -1.199224
  B      -2.158565      3.868438     -0.058321
  B       1.777280     -3.005700     -1.355863
  B      -1.751580     -3.521335     -0.581452
  B       3.398600     -0.397216     -2.813741
  B      -3.912106     -0.236584     -2.584788
  B       0.284847      2.823549     -2.244895
  B       0.180963     -3.004692     -2.039017
12
Coordinates from ORCA-job input E -295.562341153469
  B       1.814702      0.064097      5.933267
  B       2.113196     -0.010477      4.308958
  B      -1.759986      3.726217      1.555719
  B      -1.513567     -3.257579      1.045574
  B       1.562610      2.950251     -1.193923
  B      -2.122640      3.855408     -0.076933
  B       1.755783     -2.961663     -1.361305
  B      -1.658757     -3.488060     -0.639080
  B       3.319638     -0.439917     -2.776719
  B      -3.905103     -0.248075     -2.569651
  B       0.255971      2.809706     -2.231617
  B       0.138152     -2.999908     -1.994290
12
Coordinates from ORCA-job input E -295.599165388567
  B       1.813871      0.066695      5.947769
  B       2.099357     -0.006875      4.321194
  B      -1.727667      3.722665      1.544311
  B      -1.478722     -3.242116      0.999465
  B       1.543627      2.930535     -1.188935
  B      -2.088101      3.843711     -0.095068
  B       1.729672     -2.919102     -1.367031
  B      -1.562704     -3.457486     -0.696652
  B       3.244740     -0.482218     -2.741580
  B      -3.897766     -0.257680     -2.557421
  B       0.228259      2.798602     -2.218516
  B       0.095433     -2.996731     -1.947536
12
Coordinates from ORCA-job input E -295.629829758722
  B       1.815205      0.068977      5.956730
  B       2.091621     -0.003605      4.328857
  B      -1.707278      3.720028      1.538291
  B      -1.457159     -3.232369      0.970987
  B       1.530814      2.919320     -1.185180
  B      -2.065905      3.836021     -0.107053
  B       1.709321     -2.892105     -1.370261
  B      -1.493951     -3.437100     -0.739684
  B       3.195159     -0.512831     -2.716802
  B      -3.892778     -0.263290     -2.552476
  B       0.209583      2.792882     -2.209347
  B       0.065369     -2.995929     -1.914061
12
Coordinates from ORCA-job input E -295.649098599356
  B       1.817017      0.070052      5.962691
  B       2.087106     -0.001453      4.333760
  B      -1.694229      3.718658      1.533355
  B      -1.443962     -3.226960      0.953021
  B       1.523387      2.912367     -1.181799
  B      -2.050710      3.830729     -0.115494
  B       1.694071     -2.873522     -1.373219
  B      -1.447898     -3.424015     -0.768031
  B       3.161199     -0.533150     -2.699113
  B      -3.888923     -0.267181     -2.550157
  B       0.196152      2.789592     -2.203380
  B       0.046790     -2.995117     -1.891634
12
Coordinates from ORCA-job input E -295.677246563289
  B       1.818608      0.070940      5.971853
  B       2.079152      0.001213      4.341126
  B      -1.673872      3.716926      1.524485
  B      -1.423791     -3.219710      0.923912
  B       1.512054      2.901072     -1.176770
  B      -2.026407      3.822378     -0.128413
  B       1.671660     -2.843664     -1.378831
  B      -1.378794     -3.403361     -0.806565
  B       3.109009     -0.563623     -2.673200
  B      -3.883045     -0.273581     -2.545304
  B       0.175526      2.784333     -2.194250
  B       0.019900     -2.992921     -1.858045
12
Coordinates from ORCA-job input E -295.714788076289
  B       1.824764      0.070612      5.985153
  B       2.068322      0.007449      4.351707
  B      -1.640163      3.712942      1.508691
  B      -1.400817     -3.211711      0.879719
  B       1.495232      2.887981     -1.165456
  B      -1.983065      3.806624     -0.153547
  B       1.633093     -2.786265     -1.394046
  B      -1.281090     -3.376657     -0.859163
  B       3.023963     -0.617246     -2.624396
  B      -3.873877     -0.287685     -2.539086
  B       0.139221      2.780210     -2.178251
  B      -0.005584     -2.986253     -1.811325
12
Coordinates from ORCA-job input E -295.745579917350
  B       1.830641      0.065703      6.000468
  B       2.055665      0.012044      4.363325
  B      -1.600456      3.705744      1.481717
  B      -1.377472     -3.206383      0.838576
  B       1.475957      2.874307     -1.149670
  B      -1.925272      3.783142     -0.189688
  B       1.599353     -2.711042     -1.418498
  B      -1.211604     -3.354629     -0.890844
  B       2.930279     -0.671034     -2.569493
  B      -3.863236     -0.309618     -2.529614
  B       0.096651      2.778442     -2.156586
  B      -0.010507     -2.966675     -1.779693
12
Coordinates from ORCA-job input E -295.776338855094
  B       1.835990      0.056810      6.014358
  B       2.042756      0.013891      4.374201
  B      -1.560250      3.698426      1.449120
  B      -1.356172     -3.206580      0.802124
  B       1.454998      2.862634     -1.132940
  B      -1.861268      3.757296     -0.232732
  B       1.571579     -2.629725     -1.447393
  B      -1.167175     -3.338592     -0.903243
  B       2.836507     -0.720651     -2.514783
  B      -3.851487     -0.334989     -2.519154
  B       0.053664      2.780459     -2.131057
  B       0.000857     -2.938979     -1.758501
12
Coordinates from ORCA-job input E -295.798851666716
  B       1.840966      0.047460      6.019176
  B       2.034367      0.015079      4.378023
  B      -1.535738      3.697522      1.429406
  B      -1.346250     -3.219051      0.769442
  B       1.442322      2.858959     -1.123173
  B      -1.821102      3.745086     -0.263040
  B       1.543356     -2.573659     -1.468411
  B      -1.140703     -3.333017     -0.897243
  B       2.772829     -0.754204     -2.476233
  B      -3.839187     -0.352160     -2.512429
  B       0.028626      2.785938     -2.116024
  B       0.020516     -2.917953     -1.739495
12
Coordinates from ORCA-job input E -295.813645318643
  B       1.845425      0.042817      6.023225
  B       2.029707      0.015170      4.381597
  B      -1.520755      3.697108      1.415837
  B      -1.339297     -3.226830      0.747356
  B       1.428883      2.853627     -1.118805
  B      -1.793947      3.736469     -0.283258
  B       1.530217     -2.536417     -1.482433
  B      -1.123404     -3.327333     -0.894687
  B       2.729933     -0.777476     -2.450050
  B      -3.831069     -0.361939     -2.509152
  B       0.014411      2.788360     -2.102470
  B       0.029897     -2.903557     -1.727161
12
Coordinates from ORCA-job input E -295.836046242601
  B       1.853964      0.037355      6.029503
  B       2.024150      0.015116      4.387458
  B      -1.499669      3.696976      1.395822
  B      -1.330818     -3.240104      0.714463
  B       1.403669      2.844465     -1.114024
  B      -1.752158      3.723299     -0.314126
  B       1.514558     -2.481294     -1.502821
  B      -1.101096     -3.319376     -0.889915
  B       2.666116     -0.811583     -2.410346
  B      -3.817935     -0.375244     -2.506376
  B      -0.004545      2.792155     -2.078825
  B       0.043764     -2.881764     -1.710813
12
Coordinates from ORCA-job input E -295.868346287872
  B       1.867497      0.030159      6.039957
  B       2.017494      0.014460      4.397240
  B      -1.468301      3.694421      1.364168
  B      -1.319141     -3.257023      0.673072
  B       1.364877      2.831860     -1.105455
  B      -1.685867      3.699233     -0.361942
  B       1.494151     -2.401994     -1.529719
  B      -1.070916     -3.307548     -0.887829
  B       2.572781     -0.857266     -2.353816
  B      -3.798577     -0.395310     -2.505068
  B      -0.034970      2.798748     -2.041004
  B       0.060971     -2.849741     -1.689604
12
Coordinates from ORCA-job input E -295.902031390802
  B       1.885100      0.023226      6.050233
  B       2.014452      0.012394      4.407626
  B      -1.439531      3.691008      1.329393
  B      -1.313142     -3.277155      0.637927
  B       1.318500      2.820361     -1.097048
  B      -1.612416      3.670714     -0.416570
  B       1.479802     -2.322318     -1.554710
  B      -1.054990     -3.301076     -0.882469
  B       2.484501     -0.893714     -2.298079
  B      -3.776472     -0.414984     -2.507893
  B      -0.064779      2.808068     -1.995045
  B       0.078975     -2.816526     -1.673364
12
Coordinates from ORCA-job input E -295.927463426241
  B       1.895588      0.017547      6.059624
  B       2.013240      0.009255      4.415825
  B      -1.420201      3.685034      1.303069
  B      -1.305964     -3.280281      0.631207
  B       1.292678      2.813471     -1.086953
  B      -1.560821      3.646193     -0.455062
  B       1.479493     -2.268054     -1.570314
  B      -1.047438     -3.295417     -0.890583
  B       2.425778     -0.917121     -2.262097
  B      -3.766832     -0.429708     -2.510922
  B      -0.090591      2.813958     -1.965524
  B       0.085070     -2.794878     -1.668271
12
Coordinates from ORCA-job input E -295.964934365512
  B       1.914010      0.008276      6.071322
  B       2.019415      0.000445      4.425492
  B      -1.404534      3.675027      1.263230
  B      -1.312450     -3.282870      0.658579
  B       1.248170      2.810324     -1.072615
  B      -1.484249      3.607552     -0.515742
  B       1.511072     -2.200390     -1.589540
  B      -1.084038     -3.307477     -0.897059
  B       2.380205     -0.920501     -2.222934
  B      -3.757320     -0.447105     -2.521169
  B      -0.122658      2.827579     -1.915660
  B       0.092375     -2.770861     -1.683904
12
Coordinates from ORCA-job input E -295.997774436837
  B       1.926786     -0.003314      6.085278
  B       2.021806     -0.007285      4.436985
  B      -1.380521      3.659777      1.207696
  B      -1.307675     -3.276699      0.683940
  B       1.221577      2.814318     -1.047134
  B      -1.397243      3.557359     -0.571021
  B       1.510407     -2.153037     -1.594032
  B      -1.086477     -3.303364     -0.921374
  B       2.329921     -0.912661     -2.194950
  B      -3.749632     -0.470699     -2.527406
  B      -0.175818      2.845585     -1.869543
  B       0.086871     -2.749979     -1.688439
12
Coordinates from ORCA-job input E -296.029068680557
  B       1.946732     -0.014409      6.093353
  B       2.029580     -0.015387      4.445333
  B      -1.368045      3.651611      1.150125
  B      -1.321905     -3.293781      0.706359
  B       1.174230      2.823490     -1.030156
  B      -1.306971      3.512850     -0.624492
  B       1.505790     -2.119866     -1.594609
  B      -1.114419     -3.313550     -0.923423
  B       2.312410     -0.872868     -2.178752
  B      -3.729225     -0.491805     -2.539415
  B      -0.211017      2.868408     -1.812321
  B       0.082840     -2.734693     -1.692004
12
Coordinates from ORCA-job input E -296.046323710493
  B       1.959287     -0.022391      6.098784
  B       2.033098     -0.020125      4.450915
  B      -1.356747      3.646183      1.101790
  B      -1.333649     -3.306298      0.720375
  B       1.136918      2.832523     -1.017489
  B      -1.240275      3.481921     -0.651205
  B       1.487978     -2.110235     -1.589412
  B      -1.124395     -3.318653     -0.925818
  B       2.303129     -0.833501     -2.175352
  B      -3.708808     -0.508355     -2.545015
  B      -0.235126      2.885041     -1.774686
  B       0.078591     -2.726109     -1.692887
12
Coordinates from ORCA-job input E -296.054096614451
  B       1.965593     -0.026378      6.101903
  B       2.032085     -0.020769      4.453311
  B      -1.345979      3.643083      1.066659
  B      -1.340737     -3.318882      0.724766
  B       1.103913      2.836304     -1.011422
  B      -1.195129      3.464811     -0.653172
  B       1.474551     -2.098459     -1.589459
  B      -1.130930     -3.322128     -0.924817
  B       2.293184     -0.807231     -2.173933
  B      -3.686142     -0.522130     -2.545013
  B      -0.242536      2.891739     -1.757638
  B       0.072127     -2.719958     -1.691185
12
Coordinates from ORCA-job input E -296.062389639945
  B       1.971089     -0.031750      6.108572
  B       2.029220     -0.016974      4.457077
  B      -1.328390      3.635306      1.024546
  B      -1.353668     -3.330380      0.737764
  B       1.062772      2.839328     -0.998594
  B      -1.136551      3.439133     -0.637778
  B       1.457484     -2.078688     -1.592416
  B      -1.145094     -3.323833     -0.928203
  B       2.284097     -0.763274     -2.178729
  B      -3.645304     -0.548944     -2.541821
  B      -0.250096      2.891987     -1.758869
  B       0.054440     -2.711909     -1.691548
12
Coordinates from ORCA-job input E -296.073211063776
  B       1.984513     -0.034144      6.115417
  B       2.025727     -0.003229      4.462108
  B      -1.306483      3.633744      0.996214
  B      -1.375284     -3.355785      0.721531
  B       0.999217      2.834260     -0.981066
  B      -1.050291      3.398911     -0.617467
  B       1.420665     -2.032104     -1.601322
  B      -1.151331     -3.317735     -0.925924
  B       2.245724     -0.730476     -2.170401
  B      -3.572274     -0.588344     -2.541182
  B      -0.256911      2.885300     -1.779157
  B       0.036728     -2.690399     -1.678751
12
Coordinates from ORCA-job input E -296.085912544675
  B       1.991187     -0.031256      6.121505
  B       2.020184      0.014574      4.465436
  B      -1.283887      3.628414      0.978102
  B      -1.400241     -3.378857      0.724117
  B       0.948878      2.834734     -0.963459
  B      -0.967422      3.357737     -0.581408
  B       1.393155     -1.995885     -1.611606
  B      -1.169936     -3.318410     -0.930640
  B       2.223107     -0.685989     -2.175605
  B      -3.501036     -0.629715     -2.541166
  B      -0.268048      2.881082     -1.810789
  B       0.014059     -2.676428     -1.674488
12
Coordinates from ORCA-job input E -296.096248453419
  B       1.998518     -0.026193      6.123533
  B       2.018820      0.028560      4.467494
  B      -1.276761      3.630107      0.986063
  B      -1.418957     -3.393839      0.718139
  B       0.910516      2.832684     -0.953377
  B      -0.910413      3.326000     -0.568165
  B       1.376211     -1.970345     -1.618660
  B      -1.182392     -3.317192     -0.932665
  B       2.206628     -0.667271     -2.174384
  B      -3.453745     -0.654374     -2.544301
  B      -0.271204      2.876872     -1.832463
  B       0.002780     -2.665008     -1.671214
12
Coordinates from ORCA-job input E -296.127862167133
  B       2.030151      0.006240      6.143432
  B       2.012064      0.095537      4.486288
  B      -1.221634      3.619278      0.990282
  B      -1.502826     -3.458604      0.693923
  B       0.740725      2.818433     -0.897246
  B      -0.667670      3.192362     -0.501959
  B       1.295643     -1.874224     -1.647862
  B      -1.231996     -3.309034     -0.958671
  B       2.142345     -0.570940     -2.179015
  B      -3.253734     -0.765977     -2.549124
  B      -0.290448      2.866442     -1.912998
  B      -0.052622     -2.619512     -1.667051
12
Coordinates from ORCA-job input E -296.138894890687
  B       2.031943     -0.003031      6.134774
  B       2.021077      0.072009      4.478219
  B      -1.276641      3.638197      0.979004
  B      -1.525466     -3.437984      0.695668
  B       0.807480      2.795647     -0.901186
  B      -0.697875      3.204138     -0.478805
  B       1.285692     -1.872265     -1.649009
  B      -1.245635     -3.285498     -0.956215
  B       2.152651     -0.555833     -2.196356
  B      -3.187201     -0.811243     -2.515844
  B      -0.296040      2.864396     -1.929936
  B      -0.069985     -2.608533     -1.660312
12
Coordinates from ORCA-job input E -296.146803558778
  B       2.043376     -0.007296      6.128019
  B       2.031233      0.068156      4.474783
  B      -1.323618      3.657087      0.991118
  B      -1.561406     -3.441835      0.690421
  B       0.818829      2.785939     -0.906725
  B      -0.687056      3.196193     -0.478839
  B       1.278359     -1.849622     -1.658713
  B      -1.277994     -3.269893     -0.953057
  B       2.160369     -0.545086     -2.201045
  B      -3.111645     -0.860893     -2.492897
  B      -0.283428      2.857815     -1.935154
  B      -0.087021     -2.590566     -1.657910
12
Coordinates from ORCA-job input E -296.157555857831
  B       2.059292     -0.011753      6.121760
  B       2.041908      0.070736      4.473666
  B      -1.373787      3.670038      1.003235
  B      -1.613665     -3.447618      0.686434
  B       0.824264      2.778400     -0.905232
  B      -0.659042      3.179675     -0.472564
  B       1.256908     -1.827154     -1.667834
  B      -1.316656     -3.243444     -0.958521
  B       2.164126     -0.526109     -2.208342
  B      -3.000730     -0.934356     -2.457243
  B      -0.273474      2.855651     -1.953698
  B      -0.109146     -2.564065     -1.661662
12
Coordinates from ORCA-job input E -296.167738967369
  B       2.072760     -0.017280      6.117210
  B       2.050558      0.073075      4.470422
  B      -1.417299      3.676782      1.008620
  B      -1.662872     -3.448231      0.677191
  B       0.833590      2.772402     -0.905779
  B      -0.636320      3.163803     -0.466266
  B       1.237948     -1.802617     -1.677002
  B      -1.354421     -3.215517     -0.964722
  B       2.170163     -0.506683     -2.215867
  B      -2.893040     -1.008398     -2.414586
  B      -0.266434      2.851162     -1.967154
  B      -0.134634     -2.538496     -1.662068
12
Coordinates from ORCA-job input E -296.176442786934
  B       2.081561     -0.021121      6.114420
  B       2.056446      0.073832      4.468820
  B      -1.444071      3.678953      1.007190
  B      -1.695870     -3.446702      0.670430
  B       0.841149      2.769029     -0.906686
  B      -0.624767      3.154771     -0.461826
  B       1.221455     -1.785109     -1.683873
  B      -1.380051     -3.189793     -0.973187
  B       2.169394     -0.494937     -2.220471
  B      -2.807294     -1.067539     -2.378934
  B      -0.260745      2.847040     -1.971734
  B      -0.157205     -2.518424     -1.664147
12
Coordinates from ORCA-job input E -296.182759809171
  B       2.087083     -0.023423      6.112913
  B       2.060164      0.074282      4.467783
  B      -1.458964      3.678787      1.003910
  B      -1.717105     -3.445293      0.663922
  B       0.845992      2.767169     -0.907708
  B      -0.619364      3.149822     -0.458762
  B       1.209265     -1.774078     -1.688062
  B      -1.396116     -3.171667     -0.979026
  B       2.168117     -0.487632     -2.223130
  B      -2.750385     -1.107378     -2.353699
  B      -0.256768      2.843986     -1.972727
  B      -0.171920     -2.504576     -1.665413
12
Coordinates from ORCA-job input E -296.192592781863
  B       2.095875     -0.026240      6.111118
  B       2.066285      0.075281      4.466838
  B      -1.482317      3.677280      0.999856
  B      -1.749777     -3.441133      0.652118
  B       0.852879      2.763032     -0.908729
  B      -0.610383      3.140306     -0.455027
  B       1.192939     -1.756589     -1.694212
  B      -1.421431     -3.143677     -0.987743
  B       2.167697     -0.476565     -2.226720
  B      -2.667104     -1.166477     -2.314622
  B      -0.251413      2.837602     -1.975161
  B      -0.193252     -2.482821     -1.667717
12
Coordinates from ORCA-job input E -296.205248478665
  B       2.109112     -0.028416      6.109074
  B       2.075547      0.077070      4.466234
  B      -1.515952      3.674936      0.996202
  B      -1.795565     -3.433090      0.629578
  B       0.861860      2.753757     -0.910640
  B      -0.597569      3.124357     -0.450364
  B       1.175027     -1.732759     -1.700869
  B      -1.454914     -3.107873     -0.996878
  B       2.171740     -0.461183     -2.230062
  B      -2.566760     -1.238383     -2.262416
  B      -0.245937      2.824882     -1.980110
  B      -0.216589     -2.453299     -1.669750
12
Coordinates from ORCA-job input E -296.218588484465
  B       2.121970     -0.030017      6.108184
  B       2.084729      0.078430      4.466502
  B      -1.546570      3.669246      0.990608
  B      -1.838618     -3.419987      0.606357
  B       0.870276      2.743189     -0.912639
  B      -0.587129      3.107132     -0.446542
  B       1.158484     -1.709522     -1.706482
  B      -1.485857     -3.068095     -1.009063
  B       2.175831     -0.446821     -2.232289
  B      -2.471095     -1.309704     -2.208506
  B      -0.241582      2.809169     -1.983124
  B      -0.240440     -2.423021     -1.673003
12
Coordinates from ORCA-job input E -296.230151493901
  B       2.130273     -0.031240      6.108616
  B       2.091018      0.078898      4.467103
  B      -1.563365      3.659009      0.983132
  B      -1.868059     -3.403713      0.590484
  B       0.875353      2.735989     -0.914096
  B      -0.583448      3.094196     -0.444189
  B       1.145169     -1.692987     -1.710424
  B      -1.506492     -3.031427     -1.023288
  B       2.177752     -0.437763     -2.233758
  B      -2.398776     -1.368752     -2.164569
  B      -0.238562      2.796425     -1.982081
  B      -0.260865     -2.398635     -1.676929
12
Coordinates from ORCA-job input E -296.238652119174
  B       2.133916     -0.032485      6.109987
  B       2.093439      0.077768      4.466665
  B      -1.556795      3.647277      0.968350
  B      -1.884327     -3.392537      0.580167
  B       0.874482      2.735059     -0.916880
  B      -0.592803      3.092647     -0.441222
  B       1.132518     -1.687372     -1.711389
  B      -1.514362     -3.005668     -1.034198
  B       2.178094     -0.434860     -2.234204
  B      -2.355381     -1.408047     -2.136564
  B      -0.238259      2.791255     -1.972174
  B      -0.270522     -2.383037     -1.678538
12
Coordinates from ORCA-job input E -296.250499540839
  B       2.140776     -0.034195      6.111803
  B       2.098655      0.076400      4.467072
  B      -1.553045      3.626145      0.947217
  B      -1.910067     -3.370625      0.559622
  B       0.871256      2.729021     -0.917538
  B      -0.598495      3.082880     -0.438307
  B       1.118202     -1.670557     -1.713515
  B      -1.530595     -2.964848     -1.050393
  B       2.181669     -0.428730     -2.233601
  B      -2.293165     -1.470511     -2.090697
  B      -0.238108      2.780972     -1.963775
  B      -0.287082     -2.355952     -1.677889
12
Coordinates from ORCA-job input E -296.263898320669
  B       2.152332     -0.035710      6.113505
  B       2.108262      0.074825      4.468076
  B      -1.557867      3.599211      0.923691
  B      -1.947736     -3.340907      0.527152
  B       0.869976      2.718076     -0.917991
  B      -0.601492      3.065086     -0.437068
  B       1.104909     -1.644195     -1.715225
  B      -1.556497     -2.910512     -1.069960
  B       2.191068     -0.420116     -2.230521
  B      -2.215860     -1.552441     -2.029270
  B      -0.238965      2.764345     -1.956619
  B      -0.308130     -2.317662     -1.675770
12
Coordinates from ORCA-job input E -296.270713833366
  B       2.167318     -0.037854      6.114199
  B       2.120011      0.071446      4.467493
  B      -1.565748      3.569608      0.900058
  B      -1.994163     -3.307404      0.485767
  B       0.870049      2.698309     -0.921988
  B      -0.604858      3.041792     -0.438773
  B       1.100372     -1.607255     -1.714635
  B      -1.583668     -2.857968     -1.086038
  B       2.204508     -0.408271     -2.221887
  B      -2.150052     -1.631516     -1.966184
  B      -0.242246      2.741741     -1.951564
  B      -0.321521     -2.272628     -1.666447
12
Coordinates from ORCA-job input E -296.272530612247
  B       2.174062     -0.051761      6.114061
  B       2.115295      0.064353      4.462971
  B      -1.551559      3.552007      0.864971
  B      -2.027548     -3.319549      0.458942
  B       0.869649      2.665053     -0.932065
  B      -0.596313      3.028031     -0.442254
  B       1.091081     -1.549626     -1.718643
  B      -1.589481     -2.869690     -1.060885
  B       2.204758     -0.362868     -2.221447
  B      -2.128318     -1.638747     -1.943971
  B      -0.241917      2.728550     -1.958444
  B      -0.319709     -2.245753     -1.623236
12
Coordinates from ORCA-job input E -296.274603686056
  B       2.181637     -0.054483      6.110614
  B       2.116768      0.064452      4.463146
  B      -1.565468      3.556025      0.864918
  B      -2.061027     -3.343230      0.440067
  B       0.880383      2.644690     -0.939493
  B      -0.573984      3.015686     -0.447149
  B       1.080297     -1.510990     -1.720633
  B      -1.596524     -2.878767     -1.048803
  B       2.190717     -0.336494     -2.214710
  B      -2.096092     -1.648772     -1.930837
  B      -0.237443      2.718005     -1.972210
  B      -0.319264     -2.226122     -1.604911
12
Coordinates from ORCA-job input E -296.279544078301
  B       2.195862     -0.053899      6.100146
  B       2.123237      0.068176      4.465342
  B      -1.591891      3.569160      0.871529
  B      -2.115981     -3.399229      0.418396
  B       0.901546      2.632308     -0.945674
  B      -0.538244      3.005209     -0.460981
  B       1.056757     -1.464425     -1.719853
  B      -1.613432     -2.896415     -1.037535
  B       2.154548     -0.314890     -2.194299
  B      -2.036554     -1.666606     -1.918347
  B      -0.227749      2.715064     -1.987974
  B      -0.308099     -2.194452     -1.590751
12
Coordinates from ORCA-job input E -296.286748780782
  B       2.211026     -0.060222      6.091512
  B       2.128770      0.076513      4.462731
  B      -1.633652      3.580776      0.875185
  B      -2.187632     -3.469744      0.379025
  B       0.935289      2.611688     -0.952793
  B      -0.482666      2.984801     -0.475519
  B       1.032379     -1.384251     -1.726340
  B      -1.651126     -2.923934     -1.013922
  B       2.139476     -0.254577     -2.186377
  B      -1.958169     -1.705412     -1.880933
  B      -0.208867      2.704582     -2.016521
  B      -0.324827     -2.160220     -1.556047
12
Coordinates from ORCA-job input E -296.292651385976
  B       2.213009     -0.075395      6.091453
  B       2.134519      0.086711      4.455246
  B      -1.674828      3.577915      0.880474
  B      -2.227409     -3.535868      0.402876
  B       0.974592      2.621808     -0.949023
  B      -0.452074      2.969457     -0.501012
  B       1.026983     -1.344822     -1.729193
  B      -1.718754     -2.940737     -1.000494
  B       2.206098     -0.167076     -2.203529
  B      -1.928885     -1.737360     -1.856086
  B      -0.187035      2.699161     -2.035718
  B      -0.366218     -2.153794     -1.554994
12
Coordinates from ORCA-job input E -296.300151145181
  B       2.220185     -0.085690      6.095835
  B       2.128806      0.071214      4.460368
  B      -1.674041      3.597587      0.858569
  B      -2.266148     -3.617960      0.417000
  B       1.006466      2.580570     -0.984101
  B      -0.436845      2.969463     -0.507990
  B       0.984733     -1.306576     -1.716684
  B      -1.721275     -2.979233     -0.968648
  B       2.192524     -0.082772     -2.198965
  B      -1.913263     -1.713165     -1.870696
  B      -0.176439      2.689757     -2.047131
  B      -0.344702     -2.123195     -1.537558
12
Coordinates from ORCA-job input E -296.307818270190
  B       2.224678     -0.093731      6.107788
  B       2.120765      0.056603      4.476034
  B      -1.642831      3.588928      0.834331
  B      -2.258180     -3.639810      0.424416
  B       1.015336      2.520041     -1.011726
  B      -0.432891      2.946640     -0.524605
  B       0.951878     -1.260635     -1.700916
  B      -1.717274     -2.966341     -0.967258
  B       2.142424     -0.014416     -2.174740
  B      -1.895558     -1.717317     -1.862058
  B      -0.168115      2.657216     -2.058912
  B      -0.340231     -2.077178     -1.542354
12
Coordinates from ORCA-job input E -296.323555709825
  B       2.211381     -0.118902      6.116604
  B       2.092991      0.038173      4.482245
  B      -1.545392      3.575607      0.780042
  B      -2.226714     -3.686350      0.451828
  B       1.013826      2.463924     -1.044590
  B      -0.443076      2.945154     -0.541332
  B       0.915327     -1.189927     -1.689135
  B      -1.712246     -2.964656     -0.957135
  B       2.074106      0.081032     -2.155958
  B      -1.869898     -1.742853     -1.853235
  B      -0.149151      2.636729     -2.058389
  B      -0.361153     -2.037931     -1.530944
12
Coordinates from ORCA-job input E -296.333181400861
  B       2.204098     -0.131946      6.120012
  B       2.073818      0.026709      4.484578
  B      -1.473516      3.573963      0.741861
  B      -2.211495     -3.730456      0.464018
  B       1.007179      2.423086     -1.071700
  B      -0.438213      2.945936     -0.544283
  B       0.890642     -1.135144     -1.678496
  B      -1.700356     -2.969481     -0.952071
  B       2.011162      0.138258     -2.131463
  B      -1.848873     -1.750008     -1.853907
  B      -0.142725      2.622150     -2.061060
  B      -0.371721     -2.013065     -1.517489
12
Coordinates from ORCA-job input E -296.342986597902
  B       2.200837     -0.142806      6.123208
  B       2.058739      0.013891      4.486334
  B      -1.413659      3.574142      0.707414
  B      -2.197970     -3.767870      0.472574
  B       1.006895      2.374047     -1.103448
  B      -0.427736      2.938681     -0.549533
  B       0.869140     -1.077601     -1.661143
  B      -1.688993     -2.972538     -0.951362
  B       1.952349      0.199374     -2.096756
  B      -1.836173     -1.753153     -1.857598
  B      -0.144438      2.600186     -2.065780
  B      -0.378991     -1.986352     -1.503911
12
Coordinates from ORCA-job input E -296.358367271585
  B       2.197890     -0.155695      6.131509
  B       2.040136     -0.003083      4.492264
  B      -1.344946      3.575010      0.669290
  B      -2.181223     -3.809103      0.477722
  B       1.007814      2.302313     -1.147253
  B      -0.411023      2.923569     -0.560082
  B       0.837027     -1.003822     -1.639893
  B      -1.675634     -2.973218     -0.948968
  B       1.878538      0.280515     -2.056913
  B      -1.818125     -1.759009     -1.856428
  B      -0.147256      2.566253     -2.072103
  B      -0.383198     -1.943729     -1.489145
12
Coordinates from ORCA-job input E -296.379525253454
  B       2.194986     -0.167143      6.139320
  B       2.024068     -0.019918      4.499651
  B      -1.290584      3.576105      0.639631
  B      -2.161873     -3.839221      0.481252
  B       1.015680      2.228100     -1.190596
  B      -0.392950      2.903485     -0.573981
  B       0.808472     -0.933821     -1.618904
  B      -1.664572     -2.972629     -0.947174
  B       1.811982      0.361189     -2.019627
  B      -1.807308     -1.764745     -1.854055
  B      -0.151176      2.530353     -2.078633
  B      -0.386724     -1.901755     -1.476884
12
Coordinates from ORCA-job input E -296.401746851467
  B       2.192617     -0.175893      6.142025
  B       2.013690     -0.031398      4.504759
  B      -1.258313      3.575983      0.622242
  B      -2.143573     -3.855109      0.483168
  B       1.029693      2.170790     -1.222047
  B      -0.377089      2.883776     -0.588433
  B       0.789437     -0.881868     -1.600000
  B      -1.657792     -2.973906     -0.946120
  B       1.765116      0.426144     -1.988331
  B      -1.808334     -1.768767     -1.854528
  B      -0.154837      2.503188     -2.085447
  B      -0.390614     -1.872940     -1.467289
12
Coordinates from ORCA-job input E -296.418943797299
  B       2.191221     -0.180685      6.143569
  B       2.007461     -0.037791      4.507943
  B      -1.238940      3.575449      0.613008
  B      -2.129599     -3.862877      0.483568
  B       1.041120      2.131967     -1.241881
  B      -0.365538      2.868795     -0.598970
  B       0.778273     -0.847304     -1.586898
  B      -1.653600     -2.975397     -0.946235
  B       1.733918      0.468156     -1.966005
  B      -1.812934     -1.770849     -1.856866
  B      -0.158108      2.485372     -2.090079
  B      -0.393275     -1.854836     -1.461152
12
Coordinates from ORCA-job input E -296.430926953856
  B       2.190514     -0.183267      6.144555
  B       2.003717     -0.041214      4.510021
  B      -1.227013      3.574967      0.608024
  B      -2.119673     -3.867100      0.483079
  B       1.049368      2.106154     -1.254215
  B      -0.357158      2.858000     -0.606288
  B       0.771233     -0.824471     -1.577976
  B      -1.651055     -2.976879     -0.946616
  B       1.713131      0.495394     -1.950583
  B      -1.817514     -1.771939     -1.859410
  B      -0.160365      2.473773     -2.093429
  B      -0.395186     -1.843417     -1.457161
12
Coordinates from ORCA-job input E -296.450298536688
  B       2.190008     -0.186855      6.145138
  B       1.999876     -0.043591      4.512686
  B      -1.212861      3.573021      0.607472
  B      -2.101522     -3.868361      0.480741
  B       1.066036      2.071402     -1.268989
  B      -0.341214      2.837765     -0.622283
  B       0.762445     -0.790517     -1.561717
  B      -1.648960     -2.981493     -0.947464
  B       1.681788      0.535226     -1.922903
  B      -1.832804     -1.775299     -1.869704
  B      -0.164771      2.457693     -2.103208
  B      -0.398020     -1.828990     -1.449770
12
Coordinates from ORCA-job input E -296.472263548457
  B       2.184718     -0.198005      6.144850
  B       1.988877     -0.051046      4.515424
  B      -1.181816      3.573072      0.597719
  B      -2.067103     -3.875455      0.481471
  B       1.087176      2.014610     -1.294346
  B      -0.320481      2.814805     -0.640761
  B       0.741464     -0.738235     -1.538625
  B      -1.640415     -2.985039     -0.945142
  B       1.623173      0.596519     -1.885426
  B      -1.845756     -1.780656     -1.878774
  B      -0.165208      2.434057     -2.118480
  B      -0.404629     -1.804627     -1.437910
12
Coordinates from ORCA-job input E -296.482481087705
  B       2.177058     -0.189712      6.149723
  B       1.979693     -0.034035      4.521795
  B      -1.144254      3.577572      0.630761
  B      -2.003333     -3.875737      0.471527
  B       1.125039      1.982134     -1.306520
  B      -0.278957      2.783058     -0.662084
  B       0.716103     -0.700940     -1.516340
  B      -1.635097     -2.995529     -0.958552
  B       1.535463      0.633419     -1.837158
  B      -1.895826     -1.793998     -1.916402
  B      -0.160884      2.406303     -2.138470
  B      -0.415004     -1.792535     -1.438280
12
Coordinates from ORCA-job input E -296.488585664723
  B       2.162512     -0.165622      6.167318
  B       1.965491     -0.000514      4.536382
  B      -1.083583      3.597212      0.654879
  B      -1.955051     -3.911394      0.445065
  B       1.137590      2.013524     -1.312000
  B      -0.241310      2.793109     -0.647680
  B       0.674248     -0.712135     -1.535676
  B      -1.634465     -3.018238     -0.980650
  B       1.467387      0.632792     -1.847039
  B      -1.913977     -1.808474     -1.908644
  B      -0.141927      2.385054     -2.111347
  B      -0.436916     -1.805315     -1.460608
12
Coordinates from ORCA-job input E -296.496550906646
  B       2.148831     -0.119847      6.178476
  B       1.962292      0.048890      4.558721
  B      -1.016872      3.603631      0.688960
  B      -1.897404     -3.961664      0.397952
  B       1.174989      2.071934     -1.294060
  B      -0.190730      2.801819     -0.632517
  B       0.612820     -0.737375     -1.550686
  B      -1.644398     -3.055799     -1.010254
  B       1.386283      0.642838     -1.844060
  B      -1.952782     -1.833704     -1.914160
  B      -0.108598      2.372497     -2.094294
  B      -0.474431     -1.833221     -1.484077
12
Coordinates from ORCA-job input E -296.502357017025
  B       2.149133     -0.054665      6.206608
  B       1.962218      0.111506      4.588406
  B      -0.915173      3.586558      0.695057
  B      -1.861206     -4.051644      0.326767
  B       1.196037      2.096646     -1.274742
  B      -0.144128      2.807315     -0.599240
  B       0.524122     -0.745232     -1.566811
  B      -1.655103     -3.085544     -1.049741
  B       1.288847      0.688202     -1.832142
  B      -1.958558     -1.857129     -1.914635
  B      -0.063706      2.343541     -2.070498
  B      -0.522483     -1.839553     -1.509029
12
Coordinates from ORCA-job input E -296.512840601230
  B       2.161256     -0.006931      6.235718
  B       1.977614      0.165836      4.590673
  B      -0.875580      3.586456      0.725666
  B      -1.835674     -4.087039      0.270269
  B       1.254134      2.130832     -1.241297
  B      -0.129113      2.809011     -0.592195
  B       0.495616     -0.749946     -1.564899
  B      -1.670807     -3.103609     -1.090125
  B       1.228686      0.682360     -1.793173
  B      -1.999911     -1.883759     -1.947087
  B      -0.050089      2.321636     -2.071078
  B      -0.556132     -1.864847     -1.522472
12
Coordinates from ORCA-job input E -296.520560074563
  B       2.174279      0.033177      6.246200
  B       1.997836      0.195882      4.611352
  B      -0.859443      3.585049      0.739697
  B      -1.824258     -4.116161      0.239211
  B       1.286188      2.143456     -1.208213
  B      -0.124135      2.793544     -0.605474
  B       0.484102     -0.739655     -1.565404
  B      -1.690090     -3.117900     -1.118844
  B       1.202456      0.697552     -1.765997
  B      -2.037617     -1.890663     -1.978213
  B      -0.035977      2.282752     -2.056689
  B      -0.573342     -1.867032     -1.537626
12
Coordinates from ORCA-job input E -296.531697742282
  B       2.205557      0.105046      6.280319
  B       2.029986      0.258708      4.642632
  B      -0.822509      3.585763      0.755152
  B      -1.817997     -4.179349      0.167763
  B       1.329197      2.150828     -1.156028
  B      -0.112307      2.771986     -0.608243
  B       0.448018     -0.723514     -1.568785
  B      -1.720640     -3.140876     -1.171069
  B       1.154684      0.732737     -1.723406
  B      -2.077267     -1.905614     -2.023014
  B      -0.008147      2.214132     -2.032828
  B      -0.608574     -1.869848     -1.562493
12
Coordinates from ORCA-job input E -296.541571258654
  B       2.239073      0.185261      6.311873
  B       2.063192      0.321447      4.678868
  B      -0.781131      3.591059      0.762009
  B      -1.815828     -4.243017      0.088282
  B       1.358510      2.151980     -1.099789
  B      -0.099494      2.749336     -0.598633
  B       0.408822     -0.707449     -1.576855
  B      -1.747884     -3.159512     -1.227535
  B       1.106415      0.760124     -1.686264
  B      -2.108344     -1.915104     -2.063100
  B       0.018744      2.133996     -1.999070
  B      -0.642076     -1.868121     -1.589786
12
Coordinates from ORCA-job input E -296.548557901038
  B       2.275186      0.268100      6.344787
  B       2.096193      0.381067      4.711562
  B      -0.739287      3.618090      0.761640
  B      -1.811755     -4.302910      0.001837
  B       1.377517      2.147074     -1.031513
  B      -0.088787      2.735131     -0.579853
  B       0.373712     -0.700696     -1.588508
  B      -1.773148     -3.174481     -1.285252
  B       1.065119      0.768818     -1.655229
  B      -2.135466     -1.918393     -2.100634
  B       0.033679      2.047367     -1.959655
  B      -0.672963     -1.869167     -1.619181
12
Coordinates from ORCA-job input E -296.552807661167
  B       2.306253      0.339344      6.366632
  B       2.120796      0.418538      4.737720
  B      -0.690783      3.690549      0.746332
  B      -1.793199     -4.352949     -0.075048
  B       1.373679      2.119009     -0.956928
  B      -0.079903      2.751628     -0.557658
  B       0.355249     -0.709409     -1.598950
  B      -1.792958     -3.185256     -1.336753
  B       1.036956      0.750401     -1.629206
  B      -2.161617     -1.921371     -2.135992
  B       0.019013      1.975090     -1.912757
  B      -0.693486     -1.875575     -1.647391
12
Coordinates from ORCA-job input E -296.556679802683
  B       2.325290      0.389231      6.387306
  B       2.124702      0.444596      4.754494
  B      -0.629136      3.812907      0.733337
  B      -1.760507     -4.424455     -0.158122
  B       1.363357      2.099928     -0.909647
  B      -0.046030      2.804091     -0.535723
  B       0.331639     -0.742353     -1.612443
  B      -1.811692     -3.211643     -1.373643
  B       1.008212      0.718965     -1.614493
  B      -2.179699     -1.934944     -2.144373
  B      -0.012182      1.941857     -1.856663
  B      -0.713954     -1.898179     -1.670030
12
Coordinates from ORCA-job input E -296.560370754064
  B       2.353234      0.424359      6.422424
  B       2.131154      0.457235      4.783350
  B      -0.574082      3.923516      0.684763
  B      -1.726938     -4.478586     -0.222403
  B       1.328718      2.045547     -0.862852
  B      -0.031367      2.860684     -0.519389
  B       0.328289     -0.766811     -1.627285
  B      -1.827155     -3.223131     -1.406309
  B       0.996482      0.691570     -1.606502
  B      -2.199008     -1.940239     -2.155206
  B      -0.054065      1.918485     -1.797356
  B      -0.725263     -1.912629     -1.693236
12
Coordinates from ORCA-job input E -296.563666366636
  B       2.368065      0.449603      6.441808
  B       2.131235      0.465707      4.809841
  B      -0.531888      4.048927      0.647732
  B      -1.697463     -4.542493     -0.300994
  B       1.303685      2.016409     -0.830824
  B       0.006901      2.910719     -0.516690
  B       0.313906     -0.790700     -1.646231
  B      -1.841448     -3.251734     -1.423231
  B       0.981880      0.671182     -1.608531
  B      -2.208849     -1.948935     -2.136562
  B      -0.085036      1.905183     -1.728339
  B      -0.740988     -1.933867     -1.707980
12
Coordinates from ORCA-job input E -296.565861145571
  B       2.385866      0.487087      6.474783
  B       2.131738      0.489665      4.837842
  B      -0.458460      4.152407      0.606333
  B      -1.639581     -4.598033     -0.389205
  B       1.282449      1.990088     -0.793878
  B       0.039599      2.958637     -0.508764
  B       0.293028     -0.823717     -1.661270
  B      -1.860215     -3.276601     -1.451941
  B       0.954597      0.657275     -1.592927
  B      -2.250659     -1.967037     -2.137119
  B      -0.113468      1.890648     -1.654114
  B      -0.764894     -1.960419     -1.729739
12
Coordinates from ORCA-job input E -296.567559298542
  B       2.421783      0.543952      6.507307
  B       2.151137      0.516517      4.883851
  B      -0.401796      4.259335      0.562520
  B      -1.627016     -4.684089     -0.494264
  B       1.266694      1.946624     -0.743430
  B       0.061579      2.999034     -0.508250
  B       0.274981     -0.827105     -1.668503
  B      -1.884151     -3.307412     -1.486221
  B       0.928848      0.641345     -1.563954
  B      -2.261133     -1.983544     -2.158465
  B      -0.143548      1.870020     -1.585597
  B      -0.787379     -1.974679     -1.744996
12
Coordinates from ORCA-job input E -296.569102140321
  B       2.441854      0.596602      6.538565
  B       2.154156      0.552386      4.915861
  B      -0.312422      4.353009      0.531630
  B      -1.574680     -4.756857     -0.611020
  B       1.259620      1.935487     -0.719313
  B       0.103473      3.045108     -0.499137
  B       0.238973     -0.856799     -1.672590
  B      -1.903825     -3.340693     -1.518741
  B       0.880261      0.619678     -1.525040
  B      -2.297246     -2.014325     -2.167444
  B      -0.172442      1.870236     -1.513159
  B      -0.817724     -2.003832     -1.759613
12
Coordinates from ORCA-job input E -296.569337139773
  B       2.576660      0.869955      6.717682
  B       2.201050      0.771899      5.076764
  B       0.032888      4.617118      0.414645
  B      -1.439243     -5.022713     -1.153765
  B       1.236901      1.879011     -0.605830
  B       0.242725      3.136359     -0.487187
  B       0.087023     -0.954021     -1.668743
  B      -1.948778     -3.449028     -1.697663
  B       0.692693      0.541216     -1.309323
  B      -2.463970     -2.125517     -2.234039
  B      -0.283082      1.851574     -1.222479
  B      -0.934869     -2.115852     -1.830062
12
Coordinates from ORCA-job input E -296.572146950522
  B       2.576549      0.867612      6.707565
  B       2.203049      0.765269      5.090620
  B       0.035038      4.622413      0.406394
  B      -1.458950     -5.032618     -1.151791
  B       1.232513      1.874437     -0.616886
  B       0.248954      3.151954     -0.480533
  B       0.073170     -0.931132     -1.663074
  B      -1.951699     -3.480201     -1.705508
  B       0.683981      0.546438     -1.315764
  B      -2.428867     -2.132708     -2.232528
  B      -0.279809      1.860249     -1.215935
  B      -0.933929     -2.111715     -1.822560
12
Coordinates from ORCA-job input E -296.567462226667
  B       2.561340      0.824248      6.662327
  B       2.207703      0.710332      5.092396
  B      -0.059077      4.484757      0.418330
  B      -1.481261     -4.944612     -1.013439
  B       1.262487      1.869744     -0.658077
  B       0.193669      3.080090     -0.521086
  B       0.095490     -0.856400     -1.623477
  B      -1.963720     -3.474187     -1.691349
  B       0.710961      0.562943     -1.327304
  B      -2.357173     -2.074116     -2.249431
  B      -0.261748      1.865971     -1.282682
  B      -0.908670     -2.048769     -1.806207
12
Coordinates from ORCA-job input E -296.572011033810
  B       2.555295      0.816071      6.669339
  B       2.197780      0.711387      5.073614
  B      -0.047167      4.524844      0.432960
  B      -1.476200     -4.965391     -1.008669
  B       1.258092      1.888655     -0.663711
  B       0.219118      3.122408     -0.492379
  B       0.089927     -0.882140     -1.638267
  B      -1.965101     -3.478771     -1.685362
  B       0.710179      0.565627     -1.342195
  B      -2.368954     -2.100454     -2.246512
  B      -0.261266      1.861520     -1.287253
  B      -0.911702     -2.063757     -1.811564
12
Coordinates from ORCA-job input E -296.573035980444
  B       2.556729      0.836752      6.679417
  B       2.199671      0.731229      5.077154
  B      -0.001503      4.567451      0.433951
  B      -1.451177     -4.982875     -1.051282
  B       1.254177      1.889347     -0.664704
  B       0.235214      3.143946     -0.485454
  B       0.079505     -0.910116     -1.637856
  B      -1.967212     -3.485368     -1.702914
  B       0.696128      0.552286     -1.321232
  B      -2.406249     -2.131276     -2.254739
  B      -0.271961      1.877798     -1.248773
  B      -0.923323     -2.089174     -1.823570
12
Coordinates from ORCA-job input E -296.562105543467
  B       2.634254      1.007191      6.736643
  B       2.228519      0.839179      5.130450
  B       0.106356      4.589593      0.379846
  B      -1.249014     -4.855563     -1.236272
  B       1.226831      1.739253     -0.603559
  B       0.294707      3.050748     -0.452780
  B      -0.041625     -0.927836     -1.562138
  B      -2.027355     -3.514333     -1.838331
  B       0.629130      0.485252     -1.162664
  B      -2.439281     -2.052209     -2.331344
  B      -0.339163      1.735584     -1.178198
  B      -1.023360     -2.096860     -1.881653
12
Coordinates from ORCA-job input E -296.573923353467
  B       2.620483      0.991732      6.734253
  B       2.226745      0.844648      5.132212
  B       0.130676      4.610286      0.374394
  B      -1.295325     -4.975794     -1.277626
  B       1.245510      1.819713     -0.597962
  B       0.314585      3.108863     -0.444109
  B      -0.032922     -0.922636     -1.564587
  B      -2.025884     -3.537944     -1.827758
  B       0.623342      0.493206     -1.191097
  B      -2.478001     -2.146402     -2.327464
  B      -0.313718      1.824157     -1.146672
  B      -1.015490     -2.109828     -1.863583
12
Coordinates from ORCA-job input E -296.571428245794
  B       2.644577      1.000118      6.726779
  B       2.257347      0.839261      5.128491
  B       0.033637      4.584526      0.359401
  B      -1.370386     -4.871829     -1.232667
  B       1.244222      1.819687     -0.576370
  B       0.253438      3.087809     -0.434619
  B       0.037635     -0.999745     -1.573446
  B      -2.064755     -3.478148     -1.841310
  B       0.664842      0.490983     -1.181248
  B      -2.427159     -2.159883     -2.392894
  B      -0.275631      1.814226     -1.127094
  B      -0.997767     -2.127004     -1.855023
12
Coordinates from ORCA-job input E -296.575284945389
  B       2.614976      0.975570      6.721980
  B       2.224008      0.819846      5.130020
  B       0.127518      4.641300      0.344216
  B      -1.181180     -4.860650     -1.203138
  B       1.252615      1.794438     -0.587851
  B       0.306510      3.123720     -0.436487
  B      -0.037859     -0.983550     -1.579060
  B      -2.070915     -3.536656     -1.845642
  B       0.618811      0.463871     -1.189427
  B      -2.505039     -2.159975     -2.368266
  B      -0.297092      1.849542     -1.104867
  B      -1.052352     -2.127456     -1.881478
12
Coordinates from ORCA-job input E -296.573586143963
  B       2.644454      1.035758      6.745414
  B       2.232537      0.855478      5.154583
  B       0.217425      4.657631      0.329768
  B      -1.125529     -4.724768     -1.285782
  B       1.233838      1.759448     -0.572556
  B       0.343303      3.091929     -0.425497
  B      -0.079589     -0.948881     -1.524113
  B      -2.082449     -3.601025     -1.911634
  B       0.574379      0.431845     -1.154900
  B      -2.542634     -2.221377     -2.430872
  B      -0.355872      1.798779     -1.068860
  B      -1.059863     -2.134817     -1.855552
12
Coordinates from ORCA-job input E -296.585793645286
  B       2.669799      1.070899      6.765933
  B       2.245873      0.877930      5.183513
  B       0.247838      4.573395      0.273433
  B      -0.903388     -4.423806     -1.262422
  B       1.213926      1.706856     -0.547312
  B       0.366466      3.016368     -0.425259
  B      -0.144067     -0.982143     -1.495073
  B      -2.170742     -3.599392     -1.961802
  B       0.536243      0.388828     -1.103113
  B      -2.561470     -2.222106     -2.516623
  B      -0.367745      1.739779     -1.036331
  B      -1.132734     -2.146608     -1.874943
12
Coordinates from ORCA-job input E -296.600457728794
  B       2.650007      1.012510      6.754136
  B       2.227568      0.824978      5.171018
  B       0.250613      4.494296      0.236365
  B      -0.697044     -3.937683     -1.122369
  B       1.206049      1.670959     -0.558942
  B       0.364616      2.968988     -0.442207
  B      -0.193011     -1.052605     -1.521020
  B      -2.209992     -3.603329     -1.906582
  B       0.521804      0.361972     -1.110585
  B      -2.567710     -2.270036     -2.557252
  B      -0.358308      1.721747     -1.035282
  B      -1.194592     -2.191796     -1.907279
12
Coordinates from ORCA-job input E -296.599027710912
  B       2.648628      1.007238      6.759395
  B       2.224306      0.812181      5.182000
  B       0.258074      4.429637      0.209073
  B      -0.608702     -3.472731     -1.140170
  B       1.198885      1.622185     -0.555724
  B       0.370188      2.907754     -0.449479
  B      -0.213200     -1.084679     -1.513731
  B      -2.226930     -3.643029     -1.865402
  B       0.509519      0.320195     -1.095895
  B      -2.585997     -2.345955     -2.587362
  B      -0.357356      1.668144     -1.028130
  B      -1.217415     -2.220938     -1.914575
12
Coordinates from ORCA-job input E -296.622957957813
  B       2.582218      0.888571      6.715501
  B       2.176018      0.730174      5.136110
  B       0.291338      4.550939      0.255767
  B      -0.587093     -3.522487     -0.973019
  B       1.228872      1.655174     -0.598202
  B       0.381673      3.010020     -0.453544
  B      -0.217117     -1.048964     -1.592136
  B      -2.147136     -3.672245     -1.706373
  B       0.517975      0.351377     -1.168471
  B      -2.684303     -2.508974     -2.579295
  B      -0.318800      1.762580     -1.054201
  B      -1.223645     -2.196165     -1.982135
12
Coordinates from ORCA-job input E -296.640441877673
  B       2.546690      0.806124      6.696925
  B       2.141971      0.662318      5.108969
  B       0.324031      4.553847      0.261908
  B      -0.568863     -3.259521     -0.881309
  B       1.233214      1.645482     -0.621429
  B       0.394726      3.015589     -0.462743
  B      -0.248460     -1.035225     -1.641551
  B      -2.057953     -3.661988     -1.551874
  B       0.500781      0.345968     -1.204820
  B      -2.696020     -2.671764     -2.588519
  B      -0.320533      1.775888     -1.077203
  B      -1.249584     -2.176720     -2.038353
12
Coordinates from ORCA-job input E -296.669490854432
  B       2.496166      0.690695      6.663127
  B       2.095567      0.566510      5.073983
  B       0.369787      4.554874      0.268705
  B      -0.566716     -2.837983     -0.786743
  B       1.236706      1.619332     -0.656828
  B       0.409808      3.016893     -0.476939
  B      -0.301527     -1.034952     -1.700613
  B      -1.919668     -3.600169     -1.349291
  B       0.475192      0.330846     -1.251960
  B      -2.666349     -2.932306     -2.579609
  B      -0.318696      1.790488     -1.103916
  B      -1.310269     -2.164229     -2.099916
12
Coordinates from ORCA-job input E -296.663496071432
  B       2.444251      0.480776      6.596051
  B       2.035145      0.377753      5.010753
  B       0.466740      4.512749      0.271991
  B      -0.868761     -1.858393     -0.661207
  B       1.227024      1.523758     -0.729380
  B       0.433513      2.973042     -0.502777
  B      -0.426281     -1.068352     -1.779794
  B      -1.590192     -3.335000     -1.010293
  B       0.405214      0.259869     -1.328831
  B      -2.318002     -3.480388     -2.556610
  B      -0.338065      1.774521     -1.140472
  B      -1.470586     -2.160335     -2.169432
12
Coordinates from ORCA-job input E -296.694212511836
  B       2.469078      0.499278      6.585177
  B       2.060960      0.398692      5.001485
  B       0.460596      4.520348      0.271896
  B      -1.075248     -2.117700     -0.416778
  B       1.242566      1.577101     -0.739600
  B       0.445487      2.993154     -0.504220
  B      -0.365192     -1.006210     -1.805711
  B      -1.689892     -3.434958     -1.056646
  B       0.440183      0.311780     -1.344745
  B      -2.229666     -3.422717     -2.622912
  B      -0.328167      1.796788     -1.152705
  B      -1.430706     -2.115556     -2.215242
12
Coordinates from ORCA-job input E -296.709549398700
  B       2.484666      0.528396      6.601813
  B       2.066701      0.420544      5.017316
  B       0.476750      4.510257      0.259866
  B      -0.991678     -2.164232     -0.512207
  B       1.224474      1.566441     -0.725740
  B       0.451637      2.976814     -0.499067
  B      -0.378374     -0.981832     -1.782282
  B      -1.781190     -3.428857     -1.077248
  B       0.419760      0.308207     -1.323087
  B      -2.198894     -3.416432     -2.615109
  B      -0.339589      1.788087     -1.130497
  B      -1.434262     -2.107391     -2.213758
12
Coordinates from ORCA-job input E -296.712805105171
  B       2.486123      0.535864      6.621407
  B       2.064810      0.425655      5.029061
  B       0.483914      4.475491      0.252142
  B      -0.966354     -2.105501     -0.661635
  B       1.216798      1.574331     -0.718499
  B       0.455328      2.955470     -0.495607
  B      -0.388707     -0.986406     -1.768422
  B      -1.763956     -3.430442     -1.066781
  B       0.413654      0.315407     -1.312891
  B      -2.204570     -3.429931     -2.565718
  B      -0.337642      1.783177     -1.117672
  B      -1.459398     -2.113114     -2.195385
12
Coordinates from ORCA-job input E -296.717939297522
  B       2.491897      0.542242      6.626822
  B       2.059407      0.425760      5.030163
  B       0.505132      4.454521      0.236471
  B      -0.917822     -2.118600     -0.617586
  B       1.200405      1.560707     -0.713285
  B       0.466355      2.934347     -0.494415
  B      -0.420196     -0.972886     -1.774932
  B      -1.762447     -3.366945     -1.066439
  B       0.385639      0.305357     -1.307869
  B      -2.167458     -3.430585     -2.573571
  B      -0.369464      1.765892     -1.111131
  B      -1.471448     -2.099810     -2.234229
12
Coordinates from ORCA-job input E -296.720229067504
  B       2.481486      0.526357      6.609919
  B       2.054083      0.413818      5.024708
  B       0.510954      4.483763      0.247478
  B      -0.929869     -2.097141     -0.622748
  B       1.201403      1.560275     -0.723137
  B       0.468426      2.950699     -0.489006
  B      -0.415820     -0.975085     -1.785807
  B      -1.771524     -3.370182     -1.040100
  B       0.389952      0.308291     -1.321730
  B      -2.153483     -3.465264     -2.546497
  B      -0.365846      1.775325     -1.101420
  B      -1.469762     -2.110858     -2.251662
12
Coordinates from ORCA-job input E -296.722008559881
  B       2.482396      0.523917      6.613942
  B       2.051499      0.410963      5.025481
  B       0.520736      4.481059      0.249148
  B      -0.943338     -2.063663     -0.664175
  B       1.201593      1.562768     -0.720097
  B       0.476462      2.951429     -0.481373
  B      -0.426483     -0.969438     -1.794280
  B      -1.764893     -3.358984     -1.017798
  B       0.385119      0.312611     -1.323831
  B      -2.136270     -3.512768     -2.519966
  B      -0.365058      1.779844     -1.087056
  B      -1.481762     -2.117740     -2.279995
12
Coordinates from ORCA-job input E -296.724337353839
  B       2.470820      0.499442      6.602480
  B       2.040406      0.386404      5.012321
  B       0.513109      4.484289      0.256679
  B      -0.948166     -2.029481     -0.658502
  B       1.198644      1.565503     -0.736923
  B       0.467948      2.951110     -0.478383
  B      -0.409022     -0.974425     -1.817322
  B      -1.776944     -3.323281     -0.967902
  B       0.392505      0.316950     -1.355868
  B      -2.122673     -3.526362     -2.465745
  B      -0.370401      1.780317     -1.081198
  B      -1.456227     -2.130465     -2.309637
12
Coordinates from ORCA-job input E -296.726360231442
  B       2.482695      0.509048      6.600361
  B       2.057979      0.395611      5.018566
  B       0.480217      4.469777      0.261334
  B      -0.968581     -2.030611     -0.670901
  B       1.204352      1.574475     -0.739139
  B       0.458214      2.940011     -0.464565
  B      -0.372795     -0.980966     -1.826100
  B      -1.856184     -3.278695     -0.946669
  B       0.412434      0.317852     -1.362628
  B      -2.125299     -3.514063     -2.458966
  B      -0.377857      1.754146     -1.057966
  B      -1.395174     -2.156585     -2.353329
12
Coordinates from ORCA-job input E -296.726358404724
  B       2.451995      0.450264      6.571838
  B       2.015582      0.324800      4.964210
  B       0.455427      4.469149      0.288611
  B      -1.004351     -1.923643     -0.681324
  B       1.204777      1.576848     -0.775613
  B       0.431205      2.932651     -0.448036
  B      -0.329053     -0.991465     -1.875649
  B      -1.855884     -3.195022     -0.821710
  B       0.432124      0.337180     -1.457261
  B      -2.091155     -3.561145     -2.296130
  B      -0.371761      1.752090     -1.059402
  B      -1.338907     -2.171708     -2.409535
12
Coordinates from ORCA-job input E -296.726747463541
  B       2.500984      0.534052      6.606228
  B       2.060562      0.384138      5.012735
  B       0.423678      4.423557      0.273542
  B      -0.966693     -1.988053     -0.667174
  B       1.190267      1.559257     -0.762820
  B       0.416873      2.870166     -0.441818
  B      -0.286760     -1.020762     -1.821197
  B      -1.902492     -3.216778     -0.920124
  B       0.436231      0.300560     -1.411284
  B      -2.172539     -3.382225     -2.402776
  B      -0.412898      1.680825     -1.054173
  B      -1.287213     -2.144740     -2.411139
12
Coordinates from ORCA-job input E -296.728163388606
  B       2.527146      0.556187      6.608942
  B       2.091150      0.414248      5.027339
  B       0.417537      4.446933      0.286987
  B      -1.014308     -1.992251     -0.724371
  B       1.211309      1.577840     -0.743000
  B       0.424053      2.903521     -0.418460
  B      -0.297417     -1.038946     -1.800838
  B      -1.988129     -3.189554     -0.945144
  B       0.440186      0.304687     -1.376006
  B      -2.146404     -3.478541     -2.464370
  B      -0.378390      1.702716     -1.025032
  B      -1.286732     -2.206841     -2.426047
12
Coordinates from ORCA-job input E -296.727621621639
  B       2.549660      0.591257      6.613264
  B       2.112787      0.447514      5.030934
  B       0.419749      4.457814      0.282326
  B      -1.066931     -2.102413     -0.673539
  B       1.219895      1.590931     -0.730237
  B       0.430905      2.923162     -0.408926
  B      -0.281055     -1.038583     -1.780238
  B      -2.045485     -3.252403     -1.005687
  B       0.450172      0.317207     -1.359815
  B      -2.162782     -3.458862     -2.548954
  B      -0.364528      1.719592     -1.004202
  B      -1.262387     -2.195216     -2.414925
12
Coordinates from ORCA-job input E -296.729933735254
  B       2.536735      0.579587      6.614712
  B       2.102964      0.435787      5.029295
  B       0.418789      4.452611      0.284443
  B      -1.027592     -2.060817     -0.690672
  B       1.210608      1.574252     -0.742603
  B       0.423590      2.906491     -0.414561
  B      -0.277755     -1.051992     -1.775234
  B      -2.003008     -3.227755     -0.986161
  B       0.442873      0.303999     -1.370679
  B      -2.181804     -3.438346     -2.500175
  B      -0.381778      1.705832     -1.014020
  B      -1.263623     -2.179649     -2.434343
12
Coordinates from ORCA-job input E -296.730369250910
  B       2.557105      0.611614      6.627785
  B       2.117194      0.457325      5.041321
  B       0.422846      4.453374      0.283132
  B      -1.032799     -2.080136     -0.700986
  B       1.209763      1.569338     -0.730871
  B       0.422861      2.899438     -0.408139
  B      -0.278712     -1.065409     -1.750739
  B      -2.018238     -3.239769     -1.023168
  B       0.440263      0.296295     -1.352310
  B      -2.191425     -3.416782     -2.546370
  B      -0.384723      1.697107     -1.002784
  B      -1.264137     -2.182394     -2.436871
12
Coordinates from ORCA-job input E -296.730980950083
  B       2.581372      0.651817      6.641725
  B       2.139356      0.489544      5.059492
  B       0.425969      4.452877      0.280465
  B      -1.050048     -2.123500     -0.704027
  B       1.210010      1.565661     -0.720997
  B       0.422673      2.895394     -0.400179
  B      -0.275798     -1.083125     -1.713723
  B      -2.039671     -3.263645     -1.076172
  B       0.439453      0.287746     -1.328338
  B      -2.210039     -3.385891     -2.605492
  B      -0.386348      1.688802     -0.985359
  B      -1.256929     -2.175680     -2.447395
12
Coordinates from ORCA-job input E -296.731890443794
  B       2.622072      0.715412      6.665040
  B       2.172295      0.539003      5.085585
  B       0.435674      4.455026      0.274686
  B      -1.080008     -2.191385     -0.712562
  B       1.208999      1.554323     -0.703609
  B       0.424719      2.889217     -0.388589
  B      -0.282409     -1.107255     -1.650641
  B      -2.072469     -3.301222     -1.161592
  B       0.430503      0.272320     -1.290150
  B      -2.223961     -3.340003     -2.697065
  B      -0.388079      1.676939     -0.957876
  B      -1.247336     -2.162375     -2.463227
12
Coordinates from ORCA-job input E -296.733182232929
  B       2.692760      0.826453      6.702213
  B       2.228203      0.627320      5.132625
  B       0.470643      4.456965      0.260919
  B      -1.140251     -2.311865     -0.734230
  B       1.203634      1.531683     -0.676369
  B       0.435443      2.878196     -0.370400
  B      -0.317532     -1.146656     -1.534119
  B      -2.114842     -3.374689     -1.319396
  B       0.402626      0.244548     -1.218867
  B      -2.224020     -3.262689     -2.855463
  B      -0.397760      1.661609     -0.902873
  B      -1.238905     -2.130875     -2.484038
12
Coordinates from ORCA-job input E -296.733541810810
  B       2.837412      1.056034      6.763502
  B       2.328328      0.798313      5.218190
  B       0.558636      4.438477      0.209859
  B      -1.242447     -2.535537     -0.801525
  B       1.173951      1.453068     -0.625349
  B       0.447352      2.830263     -0.340098
  B      -0.427883     -1.247963     -1.275831
  B      -2.143747     -3.467235     -1.664131
  B       0.324666      0.159105     -1.060492
  B      -2.187013     -3.069106     -3.147158
  B      -0.440914      1.618062     -0.783715
  B      -1.228342     -2.033483     -2.493252
12
Coordinates from ORCA-job input E -296.732037144112
  B       2.873210      1.111998      6.775194
  B       2.345392      0.837454      5.232453
  B       0.586500      4.458667      0.201485
  B      -1.301925     -2.633800     -0.816982
  B       1.183297      1.456156     -0.605758
  B       0.466482      2.843893     -0.321992
  B      -0.454662     -1.243866     -1.250248
  B      -2.146792     -3.537651     -1.752154
  B       0.306302      0.157183     -1.015158
  B      -2.168120     -3.037207     -3.233139
  B      -0.425370      1.626141     -0.740188
  B      -1.264314     -2.038968     -2.473512
12
Coordinates from ORCA-job input E -296.734382211379
  B       2.779932      0.959781      6.743405
  B       2.275099      0.722928      5.181195
  B       0.559116      4.472321      0.234455
  B      -1.194145     -2.451996     -0.776847
  B       1.189241      1.489449     -0.651439
  B       0.465875      2.869603     -0.339094
  B      -0.408584     -1.177622     -1.407280
  B      -2.098075     -3.475101     -1.518332
  B       0.317536      0.207440     -1.121315
  B      -2.198594     -3.196451     -3.037119
  B      -0.411213      1.659217     -0.809189
  B      -1.276188     -2.079570     -2.498440
12
Coordinates from ORCA-job input E -296.734378353345
  B       2.794315      0.995741      6.748825
  B       2.292852      0.753758      5.204631
  B       0.594940      4.457132      0.232533
  B      -1.207255     -2.470487     -0.793163
  B       1.178796      1.490044     -0.659151
  B       0.468598      2.857514     -0.329472
  B      -0.414755     -1.211050     -1.380090
  B      -2.101415     -3.481991     -1.567844
  B       0.309557      0.206667     -1.106984
  B      -2.202307     -3.182112     -3.074302
  B      -0.444533      1.660517     -0.767125
  B      -1.268792     -2.075733     -2.507859
12
Coordinates from ORCA-job input E -296.735190868466
  B       2.826768      1.050390      6.757667
  B       2.302254      0.787211      5.213094
  B       0.636032      4.464422      0.224235
  B      -1.223079     -2.532461     -0.811799
  B       1.168459      1.455547     -0.636619
  B       0.485925      2.850910     -0.308976
  B      -0.447559     -1.213260     -1.345847
  B      -2.097464     -3.518699     -1.636856
  B       0.256493      0.204447     -1.078060
  B      -2.180839     -3.156722     -3.134178
  B      -0.446742      1.667828     -0.736872
  B      -1.280248     -2.059613     -2.505788
12
Coordinates from ORCA-job input E -296.735579244362
  B       2.825826      1.053833      6.764844
  B       2.300837      0.797472      5.218081
  B       0.673564      4.467478      0.224999
  B      -1.209990     -2.545600     -0.820515
  B       1.157407      1.456144     -0.638397
  B       0.500101      2.857575     -0.302671
  B      -0.468549     -1.205304     -1.361510
  B      -2.071557     -3.547034     -1.640794
  B       0.222607      0.212204     -1.074003
  B      -2.185046     -3.169088     -3.134828
  B      -0.447224      1.680940     -0.718934
  B      -1.297976     -2.058619     -2.516272
12
Coordinates from ORCA-job input E -296.736135309230
  B       2.836976      1.083062      6.767512
  B       2.300484      0.817350      5.224845
  B       0.727138      4.463578      0.225580
  B      -1.202304     -2.563594     -0.836989
  B       1.144150      1.439718     -0.643742
  B       0.517649      2.853151     -0.285126
  B      -0.496036     -1.202576     -1.360254
  B      -2.046086     -3.568820     -1.670354
  B       0.167801      0.216342     -1.055575
  B      -2.175941     -3.177189     -3.158808
  B      -0.459343      1.693750     -0.681279
  B      -1.314489     -2.054773     -2.525810
12
Coordinates from ORCA-job input E -296.736920401557
  B       2.841744      1.115921      6.766343
  B       2.302207      0.847794      5.233959
  B       0.817099      4.450362      0.231603
  B      -1.190380     -2.583172     -0.856335
  B       1.122042      1.430193     -0.667171
  B       0.543807      2.848431     -0.257294
  B      -0.531531     -1.192142     -1.375651
  B      -2.008785     -3.600215     -1.705398
  B       0.091845      0.234224     -1.028320
  B      -2.164670     -3.204565     -3.188332
  B      -0.484139      1.716803     -0.613642
  B      -1.339238     -2.063635     -2.539763
12
Coordinates from ORCA-job input E -296.737088242108
  B       2.895305      1.241823      6.774687
  B       2.325086      0.941464      5.256652
  B       0.901609      4.414710      0.198559
  B      -1.184970     -2.682246     -0.915534
  B       1.089403      1.372233     -0.643268
  B       0.571342      2.811270     -0.228779
  B      -0.610983     -1.239406     -1.278978
  B      -1.981629     -3.632206     -1.873809
  B       0.008806      0.203256     -0.914075
  B      -2.153033     -3.119964     -3.305855
  B      -0.502956      1.701946     -0.519062
  B      -1.357979     -2.012881     -2.550537
12
Coordinates from ORCA-job input E -296.737813316235
  B       2.927725      1.296174      6.814180
  B       2.339037      0.974934      5.297224
  B       0.982555      4.407323      0.172044
  B      -1.194289     -2.698214     -0.958107
  B       1.057585      1.363560     -0.648051
  B       0.571156      2.795453     -0.207029
  B      -0.628180     -1.230028     -1.314661
  B      -1.962966     -3.665595     -1.909554
  B      -0.042030      0.196482     -0.895851
  B      -2.149070     -3.125990     -3.341148
  B      -0.529902      1.698883     -0.427515
  B      -1.371622     -2.012981     -2.581531
12
Coordinates from ORCA-job input E -296.737840310120
  B       2.910012      1.286704      6.790523
  B       2.342131      0.997287      5.281319
  B       1.028433      4.404695      0.185575
  B      -1.191199     -2.725321     -0.959113
  B       1.050470      1.365999     -0.653167
  B       0.593912      2.809425     -0.203101
  B      -0.672672     -1.217052     -1.305818
  B      -1.923578     -3.700483     -1.932533
  B      -0.068206      0.213227     -0.885127
  B      -2.119987     -3.137832     -3.359082
  B      -0.528455      1.719843     -0.401320
  B      -1.420861     -2.016492     -2.558156
12
Coordinates from ORCA-job input E -296.738109949625
  B       2.921461      1.306732      6.803086
  B       2.341711      1.016252      5.293072
  B       1.052172      4.385983      0.177012
  B      -1.183566     -2.726501     -0.974830
  B       1.038992      1.353117     -0.678778
  B       0.593641      2.797974     -0.201155
  B      -0.684152     -1.232882     -1.288998
  B      -1.902550     -3.698846     -1.957349
  B      -0.102266      0.210701     -0.861739
  B      -2.131301     -3.122779     -3.366916
  B      -0.531570      1.712530     -0.372331
  B      -1.412571     -2.002280     -2.571073
12
Coordinates from ORCA-job input E -296.738320851526
  B       2.939639      1.330610      6.820295
  B       2.344500      1.049095      5.305063
  B       1.083200      4.375591      0.172982
  B      -1.187913     -2.750401     -0.994457
  B       1.022188      1.351201     -0.677489
  B       0.596636      2.789259     -0.188435
  B      -0.696304     -1.238002     -1.287251
  B      -1.898590     -3.717746     -1.988669
  B      -0.120314      0.210115     -0.857402
  B      -2.135409     -3.111716     -3.387555
  B      -0.533797      1.710163     -0.339014
  B      -1.413837     -1.998169     -2.578066
12
Coordinates from ORCA-job input E -296.738421055078
  B       2.939899      1.344167      6.819175
  B       2.340037      1.058048      5.306151
  B       1.128793      4.364051      0.175363
  B      -1.164442     -2.749918     -1.009927
  B       1.005126      1.340757     -0.686673
  B       0.612841      2.780618     -0.180948
  B      -0.734683     -1.211795     -1.298890
  B      -1.858214     -3.736321     -1.997216
  B      -0.156551      0.217548     -0.854088
  B      -2.122290     -3.129979     -3.392284
  B      -0.537144      1.713861     -0.302525
  B      -1.453373     -1.991035     -2.578138
12
Coordinates from ORCA-job input E -296.738455338977
  B       2.926517      1.308835      6.802640
  B       2.320394      1.048800      5.289799
  B       1.144276      4.359476      0.212687
  B      -1.163460     -2.741902     -0.989097
  B       1.003445      1.363636     -0.749074
  B       0.625104      2.789261     -0.181403
  B      -0.742227     -1.197170     -1.302882
  B      -1.837719     -3.748199     -1.968676
  B      -0.181428      0.247965     -0.876571
  B      -2.112977     -3.156379     -3.369520
  B      -0.530288      1.732975     -0.299699
  B      -1.451637     -2.007299     -2.568204
12
Coordinates from ORCA-job input E -296.738618076257
  B       2.884580      1.221014      6.775191
  B       2.292859      1.002867      5.246744
  B       1.192090      4.369254      0.252798
  B      -1.123081     -2.681965     -0.963709
  B       0.983358      1.402738     -0.787490
  B       0.642736      2.818587     -0.179116
  B      -0.769371     -1.154532     -1.358014
  B      -1.784032     -3.758038     -1.871831
  B      -0.212317      0.305652     -0.939105
  B      -2.102831     -3.263769     -3.297031
  B      -0.531845      1.782526     -0.309015
  B      -1.472147     -2.044333     -2.569423
12
Coordinates from ORCA-job input E -296.738674150786
  B       2.917162      1.317940      6.800915
  B       2.316686      1.081678      5.279670
  B       1.214391      4.333259      0.222532
  B      -1.120119     -2.752133     -1.009463
  B       0.962077      1.346650     -0.760987
  B       0.648496      2.780755     -0.176018
  B      -0.786445     -1.196715     -1.290866
  B      -1.779180     -3.759579     -1.994379
  B      -0.239761      0.258505     -0.870470
  B      -2.117631     -3.159459     -3.374165
  B      -0.535159      1.745968     -0.262340
  B      -1.480517     -1.996869     -2.564428
12
Coordinates from ORCA-job input E -296.738713939029
  B       2.896454      1.273544      6.778938
  B       2.295354      1.044188      5.259236
  B       1.223712      4.334831      0.254671
  B      -1.108687     -2.715019     -0.985397
  B       0.966065      1.374749     -0.797111
  B       0.659172      2.792106     -0.180764
  B      -0.803607     -1.157550     -1.323282
  B      -1.743502     -3.772964     -1.937897
  B      -0.247051      0.289312     -0.901234
  B      -2.109717     -3.214871     -3.331038
  B      -0.530399      1.765450     -0.274863
  B      -1.497795     -2.013776     -2.561260
12
Coordinates from ORCA-job input E -296.738745897776
  B       2.900041      1.281955      6.782348
  B       2.299175      1.061373      5.260231
  B       1.238799      4.331363      0.251074
  B      -1.108366     -2.725884     -0.994948
  B       0.956579      1.371846     -0.797263
  B       0.661649      2.789973     -0.176383
  B      -0.803733     -1.167160     -1.317536
  B      -1.750936     -3.772402     -1.952547
  B      -0.259226      0.288896     -0.892514
  B      -2.106521     -3.210443     -3.344261
  B      -0.533559      1.766750     -0.254253
  B      -1.493902     -2.016267     -2.563948
12
Coordinates from ORCA-job input E -296.738746847640
  B       2.890447      1.266637      6.771140
  B       2.293368      1.053675      5.244954
  B       1.236976      4.334860      0.268323
  B      -1.103804     -2.717443     -0.988334
  B       0.956245      1.375674     -0.802840
  B       0.666309      2.795346     -0.177103
  B      -0.804204     -1.161533     -1.323543
  B      -1.745776     -3.772615     -1.934369
  B      -0.260735      0.294734     -0.899882
  B      -2.107770     -3.222425     -3.329694
  B      -0.529035      1.773882     -0.266229
  B      -1.492021     -2.020792     -2.562423
12
Coordinates from ORCA-job input E -296.738752259524
  B       2.900047      1.288830      6.775713
  B       2.294318      1.069575      5.254464
  B       1.248142      4.323457      0.262729
  B      -1.104705     -2.727870     -0.996804
  B       0.952340      1.366577     -0.799353
  B       0.668266      2.785603     -0.177109
  B      -0.815569     -1.168270     -1.308342
  B      -1.734144     -3.776246     -1.962645
  B      -0.268047      0.286866     -0.889030
  B      -2.106139     -3.205017     -3.347205
  B      -0.530626      1.765899     -0.252332
  B      -1.503883     -2.009403     -2.560088
12
Coordinates from ORCA-job input E -296.738759187854
  B       2.895237      1.284870      6.770813
  B       2.294253      1.069375      5.248904
  B       1.250025      4.321543      0.268026
  B      -1.102914     -2.726400     -0.995626
  B       0.951478      1.369364     -0.803272
  B       0.669247      2.786350     -0.175882
  B      -0.812399     -1.164056     -1.314062
  B      -1.737387     -3.775648     -1.956201
  B      -0.269204      0.290589     -0.889387
  B      -2.106531     -3.210175     -3.343443
  B      -0.531811      1.767994     -0.248295
  B      -1.499993     -2.013805     -2.561575
12
Coordinates from ORCA-job input E -296.738764405521
  B       2.894719      1.282099      6.766073
  B       2.290999      1.070646      5.243204
  B       1.249780      4.322239      0.275152
  B      -1.104351     -2.724653     -0.994397
  B       0.951508      1.370332     -0.804001
  B       0.670702      2.787137     -0.174283
  B      -0.812057     -1.164162     -1.315260
  B      -1.738594     -3.775933     -1.952556
  B      -0.269181      0.291504     -0.890558
  B      -2.104919     -3.213311     -3.341767
  B      -0.529653      1.769195     -0.249701
  B      -1.498953     -2.015094     -2.561906
12
Coordinates from ORCA-job input E -296.738766880205
  B       2.891725      1.286213      6.759346
  B       2.290457      1.072757      5.236350
  B       1.252148      4.320443      0.281550
  B      -1.103945     -2.726315     -0.994918
  B       0.952465      1.368829     -0.801815
  B       0.672158      2.785784     -0.171605
  B      -0.813652     -1.165451     -1.312119
  B      -1.736884     -3.775620     -1.955202
  B      -0.270461      0.290540     -0.889227
  B      -2.104924     -3.211219     -3.342953
  B      -0.528812      1.767982     -0.248606
  B      -1.500274     -2.013943     -2.560802
12
Coordinates from ORCA-job input E -296.738773170971
  B       2.890993      1.296087      6.747163
  B       2.286827      1.085717      5.225028
  B       1.258154      4.311357      0.294450
  B      -1.104058     -2.729877     -0.998085
  B       0.951686      1.363453     -0.796646
  B       0.675676      2.780985     -0.166336
  B      -0.817074     -1.167683     -1.307952
  B      -1.734101     -3.776234     -1.964230
  B      -0.272356      0.287263     -0.882867
  B      -2.104680     -3.205655     -3.349005
  B      -0.527525      1.765388     -0.240982
  B      -1.503543     -2.010801     -2.560539
12
Coordinates from ORCA-job input E -296.738785776421
  B       2.887787      1.313217      6.726607
  B       2.283889      1.102307      5.204421
  B       1.262386      4.299847      0.314870
  B      -1.108619     -2.732597     -1.002100
  B       0.953844      1.357398     -0.785669
  B       0.677090      2.772501     -0.153159
  B      -0.814084     -1.171101     -1.306832
  B      -1.739618     -3.774628     -1.972562
  B      -0.269348      0.281352     -0.875296
  B      -2.106380     -3.198583     -3.355947
  B      -0.526276      1.757834     -0.229746
  B      -1.500670     -2.007546     -2.564587
12
Coordinates from ORCA-job input E -296.738805657632
  B       2.880614      1.333210      6.692413
  B       2.278104      1.122698      5.169508
  B       1.265744      4.286588      0.347190
  B      -1.115849     -2.736308     -1.004987
  B       0.959920      1.350249     -0.768068
  B       0.679738      2.763328     -0.133061
  B      -0.809265     -1.174883     -1.305797
  B      -1.749856     -3.772485     -1.980160
  B      -0.262715      0.274803     -0.867322
  B      -2.106259     -3.190953     -3.364101
  B      -0.523486      1.749501     -0.218073
  B      -1.496692     -2.005749     -2.567542
12
Coordinates from ORCA-job input E -296.738839532050
  B       2.867718      1.367193      6.638227
  B       2.269515      1.154212      5.113958
  B       1.275376      4.264328      0.396479
  B      -1.123752     -2.741076     -1.011553
  B       0.967756      1.337631     -0.741574
  B       0.685052      2.747125     -0.098561
  B      -0.806131     -1.179390     -1.304780
  B      -1.760995     -3.769075     -1.992983
  B      -0.256714      0.265447     -0.853702
  B      -2.106213     -3.180165     -3.376499
  B      -0.518482      1.735866     -0.196540
  B      -1.493129     -2.002095     -2.572474
12
Coordinates from ORCA-job input E -296.738891387384
  B       2.850250      1.411716      6.563886
  B       2.255333      1.198124      5.037083
  B       1.290362      4.233813      0.462144
  B      -1.133105     -2.749326     -1.020183
  B       0.976586      1.320322     -0.705429
  B       0.694080      2.725700     -0.054706
  B      -0.803267     -1.187118     -1.299503
  B      -1.772032     -3.765408     -2.013096
  B      -0.250089      0.252211     -0.833784
  B      -2.106668     -3.163131     -3.393472
  B      -0.511624      1.718561     -0.165658
  B      -1.489826     -1.995462     -2.577284
12
Coordinates from ORCA-job input E -296.738957066540
  B       2.830938      1.457442      6.489336
  B       2.241970      1.240510      4.960223
  B       1.306504      4.201669      0.526463
  B      -1.140233     -2.756817     -1.029227
  B       0.984574      1.302560     -0.671366
  B       0.703634      2.703119     -0.009934
  B      -0.802095     -1.193501     -1.294256
  B      -1.780029     -3.761344     -2.033455
  B      -0.245362      0.239548     -0.812968
  B      -2.107636     -3.145974     -3.409757
  B      -0.504288      1.701107     -0.133693
  B      -1.487978     -1.988318     -2.581366
12
Coordinates from ORCA-job input E -296.739017727543
  B       2.817332      1.491553      6.437584
  B       2.233346      1.270922      4.908672
  B       1.319886      4.176161      0.573492
  B      -1.143125     -2.761955     -1.036500
  B       0.988206      1.289382     -0.650327
  B       0.711447      2.685806      0.022004
  B      -0.803346     -1.197204     -1.290380
  B      -1.782793     -3.758806     -2.048426
  B      -0.244429      0.231051     -0.800046
  B      -2.108505     -3.133550     -3.420785
  B      -0.499468      1.688984     -0.111663
  B      -1.488550     -1.982344     -2.583627
12
Coordinates from ORCA-job input E -296.739064458956
  B       2.808419      1.514250      6.403745
  B       2.227075      1.291033      4.874082
  B       1.329306      4.159383      0.604553
  B      -1.144276     -2.765076     -1.041942
  B       0.990665      1.280756     -0.636594
  B       0.717405      2.674213      0.043830
  B      -0.805013     -1.199465     -1.288584
  B      -1.783954     -3.757554     -2.058015
  B      -0.244574      0.226083     -0.792026
  B      -2.109199     -3.126086     -3.427628
  B      -0.496149      1.680933     -0.096095
  B      -1.489705     -1.978470     -2.585325
12
Coordinates from ORCA-job input E -296.739130518068
  B       2.797149      1.546673      6.358283
  B       2.219175      1.319090      4.828066
  B       1.341252      4.136545      0.646030
  B      -1.147193     -2.770237     -1.049550
  B       0.994283      1.269018     -0.616887
  B       0.724442      2.658210      0.073124
  B      -0.805892     -1.203483     -1.285714
  B      -1.787116     -3.755362     -2.072604
  B      -0.243414      0.218146     -0.779724
  B      -2.110558     -3.114606     -3.438346
  B      -0.491515      1.669181     -0.074700
  B      -1.490613     -1.973175     -2.587979
12
Coordinates from ORCA-job input E -296.739250818950
  B       2.777604      1.594387      6.284363
  B       2.204899      1.360522      4.751222
  B       1.357492      4.103213      0.709542
  B      -1.152417     -2.778601     -1.060154
  B       1.001987      1.251693     -0.583600
  B       0.734920      2.635163      0.117484
  B      -0.804719     -1.210511     -1.280249
  B      -1.793907     -3.751441     -2.094001
  B      -0.239126      0.205504     -0.758947
  B      -2.112935     -3.095972     -3.453780
  B      -0.483452      1.651116     -0.040501
  B      -1.490347     -1.965072     -2.591377
12
Coordinates from ORCA-job input E -296.739400742278
  B       2.758490      1.641196      6.216576
  B       2.193653      1.398996      4.684078
  B       1.374753      4.067699      0.771845
  B      -1.154249     -2.784901     -1.070304
  B       1.006726      1.234673     -0.558407
  B       0.745096      2.611476      0.158735
  B      -0.805628     -1.214888     -1.275732
  B      -1.796001     -3.747403     -2.113680
  B      -0.237718      0.194372     -0.741746
  B      -2.116175     -3.078802     -3.466930
  B      -0.476497      1.634300     -0.010748
  B      -1.492450     -1.956716     -2.593688
12
Coordinates from ORCA-job input E -296.739541905273
  B       2.744510      1.676615      6.165895
  B       2.184030      1.428360      4.632348
  B       1.387818      4.039702      0.821151
  B      -1.154810     -2.789334     -1.078682
  B       1.010540      1.222654     -0.539370
  B       0.753684      2.594025      0.189801
  B      -0.806282     -1.218293     -1.273666
  B      -1.797926     -3.744941     -2.127372
  B      -0.236735      0.186961     -0.730660
  B      -2.119343     -3.066864     -3.475565
  B      -0.471275      1.621759      0.012126
  B      -1.494211     -1.950644     -2.596005
12
Coordinates from ORCA-job input E -296.739775847438
  B       2.723019      1.724247      6.093208
  B       2.169576      1.467732      4.556442
  B       1.405216      4.003798      0.885074
  B      -1.156277     -2.796837     -1.089827
  B       1.017404      1.206701     -0.509796
  B       0.764856      2.570910      0.233031
  B      -0.805934     -1.224159     -1.269102
  B      -1.801005     -3.741131     -2.147803
  B      -0.233627      0.175840     -0.711388
  B      -2.124038     -3.048733     -3.488404
  B      -0.462564      1.603901      0.046681
  B      -1.496626     -1.942267     -2.598117
12
Coordinates from ORCA-job input E -296.740073953809
  B       2.701677      1.769923      6.026591
  B       2.158007      1.504217      4.489442
  B       1.423190      3.964882      0.950159
  B      -1.154352     -2.801625     -1.099723
  B       1.021478      1.191564     -0.489212
  B       0.775509      2.547402      0.272655
  B      -0.806922     -1.226829     -1.265847
  B      -1.799802     -3.737166     -2.165008
  B      -0.232963      0.166658     -0.697104
  B      -2.129825     -3.032841     -3.497866
  B      -0.455230      1.587722      0.075069
  B      -1.500766     -1.933906     -2.599158
12
Coordinates from ORCA-job input E -296.740379322281
  B       2.686356      1.805563      5.976630
  B       2.149389      1.533089      4.439601
  B       1.437322      3.931950      1.005442
  B      -1.152708     -2.803823     -1.107755
  B       1.024416      1.181691     -0.474956
  B       0.784072      2.530089      0.302607
  B      -0.807645     -1.228258     -1.266588
  B      -1.799793     -3.734918     -2.175818
  B      -0.232441      0.161227     -0.689504
  B      -2.134944     -3.023690     -3.503749
  B      -0.450144      1.575740      0.095793
  B      -1.503879     -1.928661     -2.601704
12
Coordinates from ORCA-job input E -296.740639282521
  B       2.677910      1.833897      5.945917
  B       2.144725      1.555333      4.408886
  B       1.447651      3.906327      1.045195
  B      -1.151026     -2.806190     -1.114685
  B       1.025751      1.174226     -0.467317
  B       0.789885      2.516965      0.322625
  B      -0.809002     -1.229834     -1.267102
  B      -1.799236     -3.733494     -2.185248
  B      -0.232868      0.157144     -0.685254
  B      -2.139436     -3.016330     -3.508803
  B      -0.447168      1.566647      0.109240
  B      -1.507186     -1.924690     -2.603454
12
Coordinates from ORCA-job input E -296.742550908532
  B       2.637210      1.949456      5.804820
  B       2.120774      1.648137      4.267236
  B       1.494914      3.792660      1.222524
  B      -1.145376     -2.811779     -1.142118
  B       1.031679      1.150268     -0.430021
  B       0.815947      2.464931      0.412608
  B      -0.815085     -1.231587     -1.276618
  B      -1.795488     -3.730060     -2.218884
  B      -0.234206      0.143923     -0.667888
  B      -2.158548     -2.996111     -3.527564
  B      -0.429510      1.532510      0.170986
  B      -1.522311     -1.912347     -2.615080
12
Coordinates from ORCA-job input E -296.743158080848
  B       2.631332      2.025151      5.728924
  B       2.117250      1.696772      4.180933
  B       1.482245      3.736827      1.309631
  B      -1.174090     -2.819891     -1.111092
  B       1.034220      1.115363     -0.428852
  B       0.805802      2.418347      0.436332
  B      -0.804635     -1.252083     -1.250363
  B      -1.833459     -3.689548     -2.259966
  B      -0.215355      0.105476     -0.655021
  B      -2.121608     -2.913891     -3.553838
  B      -0.438603      1.468610      0.190048
  B      -1.483100     -1.891132     -2.586737
12
Coordinates from ORCA-job input E -296.745817790637
  B       2.616467      2.167645      5.658441
  B       2.106288      1.787540      4.126595
  B       1.485861      3.645070      1.368358
  B      -1.158592     -2.865433     -1.179479
  B       1.057385      1.070941     -0.385962
  B       0.809555      2.356012      0.477154
  B      -0.773612     -1.285009     -1.201754
  B      -1.843683     -3.669398     -2.339441
  B      -0.189800      0.065220     -0.609988
  B      -2.180013     -2.824145     -3.585412
  B      -0.434050      1.395671      0.238141
  B      -1.495806     -1.844114     -2.566655
12
Coordinates from ORCA-job input E -296.743684753810
  B       2.598103      2.184748      5.629491
  B       2.104458      1.812866      4.125657
  B       1.522832      3.576823      1.441693
  B      -1.159079     -2.842478     -1.263435
  B       1.065841      1.092670     -0.368546
  B       0.834580      2.358156      0.521351
  B      -0.789370     -1.261178     -1.261640
  B      -1.791099     -3.703613     -2.269608
  B      -0.197963      0.094071     -0.628050
  B      -2.212221     -2.911940     -3.550587
  B      -0.416712      1.458914      0.268955
  B      -1.559370     -1.859038     -2.645281
12
Coordinates from ORCA-job input E -296.749364336826
  B       2.637082      2.278618      5.643234
  B       2.134369      1.882621      4.137928
  B       1.548342      3.577466      1.497505
  B      -1.180504     -2.869068     -1.276088
  B       1.067262      1.082339     -0.331935
  B       0.858041      2.368693      0.567917
  B      -0.803553     -1.281392     -1.243597
  B      -1.838613     -3.739671     -2.374142
  B      -0.219184      0.081824     -0.594774
  B      -2.232827     -2.954920     -3.645681
  B      -0.404013      1.452279      0.295633
  B      -1.566401     -1.878790     -2.676001
12
Coordinates from ORCA-job input E -296.753416674134
  B       2.629916      2.308532      5.625385
  B       2.124216      1.891978      4.109604
  B       1.515116      3.531931      1.492783
  B      -1.161764     -2.868026     -1.249884
  B       1.060475      1.053144     -0.347296
  B       0.836086      2.319417      0.549886
  B      -0.786985     -1.291807     -1.231300
  B      -1.844644     -3.700141     -2.385206
  B      -0.200890      0.056711     -0.600958
  B      -2.219070     -2.852943     -3.616324
  B      -0.412468      1.392706      0.276090
  B      -1.539988     -1.841502     -2.622780
12
Coordinates from ORCA-job input E -296.757243204342
  B       2.639102      2.347154      5.616580
  B       2.127132      1.916159      4.095948
  B       1.529440      3.495663      1.538077
  B      -1.163132     -2.869046     -1.252491
  B       1.051452      1.039395     -0.348512
  B       0.841050      2.303495      0.566981
  B      -0.798134     -1.293284     -1.248151
  B      -1.839628     -3.697756     -2.382770
  B      -0.213570      0.052679     -0.607152
  B      -2.210772     -2.840903     -3.621892
  B      -0.422773      1.384909      0.275613
  B      -1.540167     -1.838463     -2.632230
12
Coordinates from ORCA-job input E -296.764098686797
  B       2.651672      2.426541      5.600416
  B       2.136097      1.969146      4.080025
  B       1.527560      3.427705      1.603329
  B      -1.169880     -2.873672     -1.275835
  B       1.052363      1.027082     -0.338501
  B       0.844494      2.272636      0.598558
  B      -0.799580     -1.298136     -1.257534
  B      -1.852643     -3.688727     -2.410720
  B      -0.210877      0.040018     -0.607993
  B      -2.218288     -2.829718     -3.634037
  B      -0.417407      1.361341      0.282842
  B      -1.543510     -1.834216     -2.640549
12
Coordinates from ORCA-job input E -296.776464488711
  B       2.667895      2.536475      5.571864
  B       2.143327      2.037279      4.050229
  B       1.537544      3.341299      1.682381
  B      -1.172932     -2.888148     -1.296607
  B       1.046561      0.993601     -0.327805
  B       0.850588      2.229595      0.637430
  B      -0.801870     -1.314286     -1.255014
  B      -1.860220     -3.677889     -2.447298
  B      -0.218402      0.017176     -0.598788
  B      -2.223599     -2.786404     -3.665590
  B      -0.425782      1.327238      0.295749
  B      -1.543110     -1.815938     -2.646550
12
Coordinates from ORCA-job input E -296.797037796905
  B       2.683213      2.671429      5.536535
  B       2.150610      2.120333      4.009933
  B       1.527529      3.223890      1.770415
  B      -1.181238     -2.898978     -1.336847
  B       1.050656      0.966501     -0.308408
  B       0.855814      2.176332      0.687316
  B      -0.795012     -1.329259     -1.247804
  B      -1.880998     -3.655905     -2.501085
  B      -0.209908     -0.009005     -0.586617
  B      -2.236599     -2.744395     -3.686455
  B      -0.420083      1.276336      0.312060
  B      -1.543986     -1.797279     -2.649043
12
Coordinates from ORCA-job input E -296.819302405255
  B       2.703298      2.772756      5.510592
  B       2.156162      2.180816      3.978328
  B       1.550881      3.149149      1.857534
  B      -1.189895     -2.912902     -1.357264
  B       1.039772      0.941095     -0.293505
  B       0.865504      2.143680      0.732137
  B      -0.806158     -1.344705     -1.255429
  B      -1.885711     -3.654434     -2.532544
  B      -0.222988     -0.023437     -0.579472
  B      -2.236534     -2.719526     -3.721181
  B      -0.427255      1.258907      0.327201
  B      -1.547076     -1.791400     -2.666396
12
Coordinates from ORCA-job input E -296.838054295511
  B       2.716327      2.843578      5.490674
  B       2.159693      2.223563      3.955014
  B       1.564622      3.092908      1.925570
  B      -1.198083     -2.918194     -1.375979
  B       1.034567      0.929674     -0.281624
  B       0.873308      2.122060      0.767962
  B      -0.813442     -1.351195     -1.265671
  B      -1.892538     -3.652647     -2.556598
  B      -0.228293     -0.031711     -0.578015
  B      -2.238031     -2.715225     -3.738297
  B      -0.426528      1.248713      0.338420
  B      -1.551603     -1.791524     -2.681457
12
Coordinates from ORCA-job input E -296.851114825520
  B       2.723360      2.887502      5.474273
  B       2.161181      2.250205      3.938800
  B       1.574465      3.056078      1.970789
  B      -1.202853     -2.921294     -1.386591
  B       1.030999      0.922512     -0.273759
  B       0.878838      2.108898      0.791977
  B      -0.818491     -1.355250     -1.272772
  B      -1.896097     -3.652136     -2.570687
  B      -0.231897     -0.036272     -0.576995
  B      -2.238658     -2.712229     -3.749881
  B      -0.426227      1.244032      0.346380
  B      -1.554620     -1.792045     -2.691535
12
Coordinates from ORCA-job input E -296.870866448452
  B       2.727739      2.948129      5.440668
  B       2.160276      2.286812      3.910645
  B       1.586666      3.000509      2.036139
  B      -1.206994     -2.923819     -1.400092
  B       1.026463      0.910049     -0.263560
  B       0.885874      2.087054      0.825280
  B      -0.822057     -1.359542     -1.278178
  B      -1.900202     -3.647154     -2.589310
  B      -0.234695     -0.044179     -0.574141
  B      -2.240337     -2.701969     -3.763770
  B      -0.425962      1.231986      0.356542
  B      -1.556771     -1.787876     -2.700222
12
Coordinates from ORCA-job input E -296.896586253145
  B       2.724833      3.022062      5.384452
  B       2.154610      2.331039      3.867214
  B       1.597011      2.923400      2.115291
  B      -1.208660     -2.926024     -1.415944
  B       1.023771      0.893072     -0.250029
  B       0.894459      2.057040      0.866953
  B      -0.821425     -1.364967     -1.277914
  B      -1.904882     -3.635207     -2.612515
  B      -0.233788     -0.055522     -0.566894
  B      -2.244180     -2.679527     -3.777448
  B      -0.424510      1.211317      0.370201
  B      -1.557238     -1.776682     -2.703368
12
Coordinates from ORCA-job input E -296.928778995023
  B       2.730597      3.119486      5.302277
  B       2.157680      2.398171      3.820145
  B       1.607191      2.791638      2.220647
  B      -1.220099     -2.925724     -1.434389
  B       1.020864      0.888675     -0.213695
  B       0.912069      2.025979      0.944050
  B      -0.837161     -1.366085     -1.302992
  B      -1.909836     -3.633097     -2.638018
  B      -0.239594     -0.054355     -0.559389
  B      -2.240028     -2.682006     -3.807097
  B      -0.415832      1.220931      0.406380
  B      -1.565851     -1.783614     -2.737920
12
Coordinates from ORCA-job input E -296.941254499110
  B       2.705239      3.145455      5.207397
  B       2.145131      2.419302      3.762824
  B       1.615542      2.706863      2.301859
  B      -1.217248     -2.911574     -1.429077
  B       1.023269      0.880323     -0.203224
  B       0.917115      2.005322      0.982890
  B      -0.836096     -1.350449     -1.307273
  B      -1.902878     -3.620407     -2.634870
  B      -0.237104     -0.047980     -0.556752
  B      -2.234035     -2.675096     -3.807548
  B      -0.418550      1.219131      0.419351
  B      -1.560383     -1.770890     -2.735576
12
Coordinates from ORCA-job input E -296.945317478558
  B       2.704719      3.189425      5.169549
  B       2.156817      2.455718      3.754075
  B       1.577770      2.640325      2.295050
  B      -1.223765     -2.911279     -1.439674
  B       1.038332      0.885409     -0.173362
  B       0.911666      1.988057      1.016134
  B      -0.829860     -1.358581     -1.307227
  B      -1.921448     -3.604076     -2.656512
  B      -0.221241     -0.065111     -0.550653
  B      -2.234573     -2.658862     -3.814936
  B      -0.397663      1.214535      0.452722
  B      -1.560756     -1.775559     -2.745166
12
Coordinates from ORCA-job input E -296.947373635675
  B       2.689308      3.207225      5.125202
  B       2.166287      2.486507      3.750995
  B       1.574832      2.589492      2.313400
  B      -1.209366     -2.930992     -1.426957
  B       1.043836      0.860729     -0.157221
  B       0.902578      1.974661      1.016362
  B      -0.827407     -1.371173     -1.307916
  B      -1.914826     -3.598828     -2.657878
  B      -0.214667     -0.061071     -0.539356
  B      -2.245778     -2.620641     -3.830504
  B      -0.404413      1.222315      0.455374
  B      -1.560384     -1.758223     -2.741501
12
Coordinates from ORCA-job input E -296.949044612752
  B       2.685528      3.204633      5.106803
  B       2.184588      2.504048      3.750747
  B       1.556416      2.550231      2.346857
  B      -1.228381     -2.895450     -1.435258
  B       1.053522      0.873960     -0.157431
  B       0.875897      1.968735      1.019309
  B      -0.814951     -1.340406     -1.318567
  B      -1.922969     -3.588898     -2.643741
  B      -0.184744     -0.052952     -0.561352
  B      -2.242742     -2.651652     -3.809064
  B      -0.409632      1.191626      0.443593
  B      -1.552534     -1.763873     -2.741894
12
Coordinates from ORCA-job input E -296.950367935857
  B       2.724115      3.263306      5.138682
  B       2.215776      2.540053      3.770129
  B       1.551039      2.518509      2.358809
  B      -1.235643     -2.890212     -1.442620
  B       1.048978      0.846034     -0.147941
  B       0.864787      1.951787      1.036005
  B      -0.823269     -1.330278     -1.344804
  B      -1.928916     -3.594409     -2.639751
  B      -0.210409     -0.074292     -0.584199
  B      -2.229008     -2.654167     -3.816185
  B      -0.434368      1.174210      0.437206
  B      -1.543083     -1.750540     -2.765330
12
Coordinates from ORCA-job input E -296.951668465501
  B       2.774861      3.337546      5.144979
  B       2.259813      2.599504      3.780930
  B       1.548759      2.507999      2.377776
  B      -1.269599     -2.909828     -1.455818
  B       1.032834      0.830139     -0.097007
  B       0.836017      1.935723      1.067503
  B      -0.834094     -1.359345     -1.344330
  B      -1.958510     -3.589439     -2.684323
  B      -0.204566     -0.087794     -0.564625
  B      -2.212557     -2.642218     -3.881719
  B      -0.439439      1.157271      0.457288
  B      -1.533520     -1.779557     -2.800655
12
Coordinates from ORCA-job input E -296.953008903211
  B       2.786248      3.358619      5.112569
  B       2.274554      2.612618      3.758565
  B       1.535117      2.488582      2.385579
  B      -1.287475     -2.896585     -1.458200
  B       1.037265      0.815847     -0.065802
  B       0.812987      1.911350      1.103647
  B      -0.832245     -1.345289     -1.358842
  B      -1.970166     -3.586105     -2.683779
  B      -0.193011     -0.078251     -0.562725
  B      -2.197367     -2.649674     -3.896813
  B      -0.453127      1.141492      0.470805
  B      -1.512779     -1.772604     -2.805004
12
Coordinates from ORCA-job input E -296.954039343774
  B       2.832171      3.386156      5.097278
  B       2.308727      2.636352      3.757173
  B       1.544257      2.463777      2.423655
  B      -1.316864     -2.870511     -1.459143
  B       1.005724      0.789360     -0.053103
  B       0.788024      1.889350      1.139214
  B      -0.854979     -1.320981     -1.380167
  B      -1.966013     -3.587182     -2.676829
  B      -0.230227     -0.070858     -0.567520
  B      -2.141193     -2.688767     -3.914956
  B      -0.478448      1.148218      0.473976
  B      -1.491180     -1.774916     -2.839577
12
Coordinates from ORCA-job input E -296.955004161958
  B       2.883016      3.505869      5.041653
  B       2.345087      2.701866      3.712458
  B       1.533401      2.449488      2.416823
  B      -1.372957     -2.890581     -1.487864
  B       0.998935      0.703171      0.047719
  B       0.740993      1.830253      1.179068
  B      -0.861719     -1.357306     -1.328459
  B      -1.988528     -3.551869     -2.759930
  B      -0.244588     -0.134652     -0.519163
  B      -2.078697     -2.600774     -3.970326
  B      -0.502347      1.091525      0.508049
  B      -1.452595     -1.746991     -2.840027
12
Coordinates from ORCA-job input E -296.956266502398
  B       2.945849      3.527836      5.059802
  B       2.393444      2.730709      3.736465
  B       1.526960      2.429165      2.452548
  B      -1.400180     -2.861297     -1.488409
  B       0.978892      0.714693      0.078340
  B       0.706506      1.819038      1.241687
  B      -0.879695     -1.327525     -1.407531
  B      -1.990353     -3.576498     -2.741205
  B      -0.247195     -0.108291     -0.550103
  B      -2.061242     -2.678860     -3.995902
  B      -0.528455      1.110769      0.501337
  B      -1.444531     -1.779738     -2.887030
12
Coordinates from ORCA-job input E -296.957152036911
  B       3.010017      3.577305      4.979137
  B       2.436796      2.766145      3.684692
  B       1.520681      2.410937      2.469553
  B      -1.475690     -2.843344     -1.496111
  B       0.936530      0.665868      0.148595
  B       0.650715      1.781044      1.308136
  B      -0.898160     -1.335904     -1.375640
  B      -1.995400     -3.554588     -2.783047
  B      -0.268465     -0.132737     -0.509299
  B      -1.954351     -2.652871     -4.043812
  B      -0.574377      1.092692      0.523498
  B      -1.388296     -1.774547     -2.905703
12
Coordinates from ORCA-job input E -296.957251142419
  B       3.031675      3.624827      4.944307
  B       2.450652      2.788652      3.676431
  B       1.540161      2.395252      2.494283
  B      -1.463686     -2.851020     -1.515019
  B       0.922374      0.597585      0.216802
  B       0.629217      1.754567      1.327202
  B      -0.911581     -1.321489     -1.395054
  B      -1.999433     -3.542733     -2.802726
  B      -0.304712     -0.130227     -0.489470
  B      -1.938296     -2.668928     -4.061231
  B      -0.574350      1.111261      0.527279
  B      -1.382019     -1.757747     -2.922801
12
Coordinates from ORCA-job input E -296.956833343411
  B       3.137334      3.719378      4.882250
  B       2.532145      2.866394      3.608600
  B       1.506834      2.359893      2.496037
  B      -1.590630     -2.817243     -1.535770
  B       0.878413      0.560993      0.313794
  B       0.532467      1.704801      1.433625
  B      -0.924765     -1.349505     -1.373134
  B      -2.028998     -3.503895     -2.870614
  B      -0.306978     -0.200736     -0.456645
  B      -1.802221     -2.615839     -4.128424
  B      -0.637777      1.051948      0.554166
  B      -1.295825     -1.776189     -2.923885
12
Coordinates from ORCA-job input E -296.958212800474
  B       3.096692      3.668571      4.880618
  B       2.515771      2.839751      3.599904
  B       1.516386      2.371723      2.483701
  B      -1.558821     -2.817854     -1.530790
  B       0.885255      0.565306      0.301012
  B       0.560606      1.721457      1.415655
  B      -0.928173     -1.335680     -1.384160
  B      -2.010503     -3.518073     -2.847117
  B      -0.315445     -0.167039     -0.440991
  B      -1.823310     -2.639211     -4.109639
  B      -0.626288      1.079001      0.568175
  B      -1.312171     -1.767952     -2.936368
12
Coordinates from ORCA-job input E -296.958602589003
  B       3.074216      3.689473      4.871531
  B       2.516623      2.853958      3.595678
  B       1.537798      2.386524      2.482889
  B      -1.568416     -2.834572     -1.543679
  B       0.886483      0.528969      0.323714
  B       0.578283      1.717315      1.405608
  B      -0.935783     -1.350907     -1.365171
  B      -2.008091     -3.513820     -2.877814
  B      -0.324211     -0.185156     -0.425543
  B      -1.825836     -2.611486     -4.118657
  B      -0.613361      1.076921      0.573548
  B      -1.317704     -1.757219     -2.922103
12
Coordinates from ORCA-job input E -296.958801738604
  B       3.039013      3.707427      4.884622
  B       2.517048      2.868306      3.588371
  B       1.546462      2.394168      2.471454
  B      -1.548710     -2.848099     -1.550318
  B       0.895377      0.506050      0.333847
  B       0.599956      1.708400      1.396039
  B      -0.929970     -1.358630     -1.362559
  B      -2.035256     -3.492485     -2.880641
  B      -0.324127     -0.203488     -0.413480
  B      -1.847804     -2.592086     -4.114419
  B      -0.597819      1.059374      0.571105
  B      -1.314170     -1.748938     -2.924022
12
Coordinates from ORCA-job input E -296.958971884721
  B       2.957955      3.750477      4.900831
  B       2.529940      2.909502      3.577810
  B       1.570578      2.413850      2.440345
  B      -1.586177     -2.855310     -1.566377
  B       0.924121      0.449545      0.321334
  B       0.656795      1.682336      1.370797
  B      -0.959570     -1.381678     -1.328614
  B      -2.026702     -3.482389     -2.916364
  B      -0.328335     -0.244227     -0.382985
  B      -1.840767     -2.541861     -4.119908
  B      -0.551194      1.012590      0.607668
  B      -1.346644     -1.712836     -2.904538
12
Coordinates from ORCA-job input E -296.959528176958
  B       2.859347      3.789146      4.922748
  B       2.552781      2.932936      3.576924
  B       1.603104      2.427654      2.431145
  B      -1.578187     -2.857106     -1.577623
  B       0.956745      0.414758      0.351864
  B       0.697901      1.669397      1.364134
  B      -0.951601     -1.394057     -1.340312
  B      -2.049065     -3.475532     -2.922204
  B      -0.285460     -0.270766     -0.384097
  B      -1.919095     -2.510806     -4.121585
  B      -0.532203      0.990800      0.613777
  B      -1.354268     -1.716425     -2.914771
12
Coordinates from ORCA-job input E -296.959869341889
  B       2.803110      3.803725      4.905234
  B       2.580278      2.942475      3.556456
  B       1.626672      2.431851      2.432802
  B      -1.575987     -2.868784     -1.579516
  B       0.954077      0.404068      0.367307
  B       0.713107      1.661255      1.381178
  B      -0.940451     -1.406277     -1.337775
  B      -2.071792     -3.453616     -2.935236
  B      -0.280028     -0.283798     -0.372816
  B      -1.915444     -2.495245     -4.138665
  B      -0.527433      0.980071      0.629492
  B      -1.366110     -1.715725     -2.908462
12
Coordinates from ORCA-job input E -296.960137542210
  B       2.686093      3.875135      4.859145
  B       2.628106      2.963291      3.533729
  B       1.671663      2.424499      2.428655
  B      -1.592719     -2.884952     -1.604525
  B       0.969700      0.350083      0.386170
  B       0.751383      1.625151      1.397003
  B      -0.961082     -1.416691     -1.312808
  B      -2.081486     -3.433197     -2.980984
  B      -0.284235     -0.318603     -0.333540
  B      -1.927168     -2.432721     -4.142350
  B      -0.497214      0.944643      0.667146
  B      -1.363042     -1.696637     -2.897641
12
Coordinates from ORCA-job input E -296.960497021259
  B       2.477398      3.859194      4.827742
  B       2.663308      2.978777      3.509218
  B       1.703016      2.416231      2.410286
  B      -1.594076     -2.869620     -1.588574
  B       1.037025      0.339292      0.361572
  B       0.794520      1.592305      1.381811
  B      -0.921594     -1.433278     -1.298246
  B      -2.131514     -3.380286     -2.954836
  B      -0.236614     -0.336691     -0.336005
  B      -1.968139     -2.389989     -4.119914
  B      -0.443986      0.900447      0.679758
  B      -1.379346     -1.676380     -2.872812
12
Coordinates from ORCA-job input E -296.961487157996
  B       2.290774      3.880221      4.731970
  B       2.715824      2.985275      3.501622
  B       1.748855      2.404544      2.410280
  B      -1.596664     -2.866002     -1.596089
  B       1.073488      0.311102      0.382254
  B       0.844822      1.558686      1.399069
  B      -0.909502     -1.435996     -1.295740
  B      -2.142122     -3.360301     -2.962691
  B      -0.201944     -0.367108     -0.316406
  B      -2.003336     -2.341321     -4.107371
  B      -0.409911      0.869130      0.712445
  B      -1.410284     -1.638231     -2.859343
12
Coordinates from ORCA-job input E -296.964350636316
  B       2.061234      3.827263      4.604346
  B       2.764340      2.997589      3.494274
  B       1.800384      2.403651      2.417058
  B      -1.589835     -2.858692     -1.585717
  B       1.119235      0.296227      0.371075
  B       0.900303      1.535458      1.411384
  B      -0.891426     -1.438254     -1.273341
  B      -2.174216     -3.319430     -2.952522
  B      -0.170427     -0.375011     -0.301916
  B      -2.039326     -2.291962     -4.092518
  B      -0.361825      0.846654      0.742356
  B      -1.418442     -1.623492     -2.834479
12
Coordinates from ORCA-job input E -296.968846034653
  B       1.913507      3.753712      4.494771
  B       2.795635      2.995081      3.497387
  B       1.831143      2.402911      2.423865
  B      -1.583753     -2.848735     -1.574390
  B       1.145264      0.301360      0.375301
  B       0.929565      1.530079      1.416902
  B      -0.877711     -1.428289     -1.266296
  B      -2.184117     -3.305244     -2.934631
  B      -0.145606     -0.372080     -0.296718
  B      -2.060551     -2.271807     -4.069621
  B      -0.338933      0.849967      0.753983
  B      -1.424442     -1.606954     -2.820554
12
Coordinates from ORCA-job input E -296.973669192722
  B       1.826794      3.694266      4.413833
  B       2.815942      2.992973      3.500896
  B       1.850695      2.405007      2.432363
  B      -1.578181     -2.840135     -1.565838
  B       1.156994      0.307353      0.377957
  B       0.944876      1.530757      1.423819
  B      -0.870787     -1.419548     -1.260966
  B      -2.186857     -3.298842     -2.922668
  B      -0.134378     -0.365708     -0.291574
  B      -2.070403     -2.263757     -4.058599
  B      -0.327572      0.856101      0.763838
  B      -1.427122     -1.598467     -2.813060
12
Coordinates from ORCA-job input E -296.980187166617
  B       1.745785      3.630059      4.326589
  B       2.833076      2.991996      3.505623
  B       1.867452      2.407923      2.441459
  B      -1.572602     -2.831466     -1.556994
  B       1.168283      0.313476      0.381269
  B       0.958077      1.531861      1.430902
  B      -0.863900     -1.410773     -1.254564
  B      -2.188496     -3.291275     -2.910780
  B      -0.123750     -0.359401     -0.285868
  B      -2.078273     -2.254704     -4.046764
  B      -0.316956      0.861765      0.773562
  B      -1.428697     -1.589461     -2.804435
12
Coordinates from ORCA-job input E -296.992813689853
  B       1.635148      3.527960      4.185120
  B       2.850861      2.993598      3.515537
  B       1.885915      2.412990      2.455141
  B      -1.564163     -2.818350     -1.543266
  B       1.186260      0.322130      0.387640
  B       0.974766      1.532396      1.440995
  B      -0.852540     -1.398485     -1.242687
  B      -2.190181     -3.276596     -2.893012
  B      -0.106998     -0.351577     -0.276469
  B      -2.087961     -2.237407     -4.027346
  B      -0.301726      0.867941      0.787347
  B      -1.429381     -1.574601     -2.789000
12
Coordinates from ORCA-job input E -297.014679854774
  B       1.501968      3.365539      3.956658
  B       2.862597      3.003069      3.537644
  B       1.900648      2.423858      2.478160
  B      -1.551672     -2.799637     -1.523268
  B       1.211088      0.335474      0.400659
  B       0.992999      1.533366      1.457622
  B      -0.835400     -1.382033     -1.222899
  B      -2.190680     -3.252337     -2.868506
  B      -0.083052     -0.341597     -0.260734
  B      -2.097817     -2.208653     -3.998950
  B      -0.282852      0.875006      0.808105
  B      -1.427827     -1.552055     -2.764490
12
Coordinates from ORCA-job input E -297.005410142750
  B       1.395345      3.146756      3.658722
  B       2.881090      3.027738      3.590215
  B       1.911354      2.452521      2.522761
  B      -1.537253     -2.778360     -1.503470
  B       1.219143      0.358184      0.419346
  B       1.008797      1.550156      1.492997
  B      -0.824756     -1.358566     -1.210059
  B      -2.186782     -3.239958     -2.844071
  B      -0.067355     -0.321579     -0.241709
  B      -2.103928     -2.195650     -3.979832
  B      -0.269043      0.891849      0.845624
  B      -1.426611     -1.533090     -2.750526
12
Coordinates from ORCA-job input E -297.023497596192
  B       1.416157      3.304470      3.857916
  B       2.891357      3.028865      3.582582
  B       1.912051      2.439615      2.494275
  B      -1.552061     -2.795477     -1.520698
  B       1.220533      0.338060      0.397709
  B       1.023874      1.536194      1.472918
  B      -0.833212     -1.377273     -1.229152
  B      -2.204282     -3.251533     -2.861419
  B      -0.067390     -0.340626     -0.260744
  B      -2.115507     -2.207680     -3.995441
  B      -0.257402      0.872431      0.828692
  B      -1.434118     -1.547046     -2.766640
12
Coordinates from ORCA-job input E -297.025165986287
  B       1.402821      3.371313      3.804671
  B       2.839159      3.068240      3.659930
  B       1.894989      2.446911      2.514191
  B      -1.538503     -2.815332     -1.536794
  B       1.258526      0.297033      0.368696
  B       1.077098      1.494968      1.459176
  B      -0.829586     -1.399736     -1.219723
  B      -2.217828     -3.233796     -2.874139
  B      -0.043875     -0.366214     -0.267048
  B      -2.165887     -2.164557     -3.983548
  B      -0.214533      0.830333      0.825096
  B      -1.462381     -1.529163     -2.750507
12
Coordinates from ORCA-job input E -297.027186311071
  B       1.352220      3.436198      3.716739
  B       2.810989      3.067193      3.717656
  B       1.893881      2.449418      2.537583
  B      -1.521022     -2.817855     -1.554541
  B       1.286633      0.280920      0.356669
  B       1.136883      1.461175      1.460826
  B      -0.826366     -1.398671     -1.229895
  B      -2.216387     -3.231782     -2.882854
  B      -0.029366     -0.385675     -0.264467
  B      -2.213493     -2.138754     -3.967617
  B      -0.176896      0.788581      0.854095
  B      -1.497075     -1.510748     -2.744194
12
Coordinates from ORCA-job input E -297.028196443173
  B       1.372835      3.514715      3.658830
  B       2.805226      3.037193      3.748405
  B       1.877376      2.434086      2.563563
  B      -1.493319     -2.827418     -1.570808
  B       1.287232      0.289527      0.338249
  B       1.148121      1.438816      1.474798
  B      -0.828644     -1.396623     -1.234143
  B      -2.199675     -3.241486     -2.895220
  B      -0.041793     -0.383194     -0.259227
  B      -2.239835     -2.127377     -3.964950
  B      -0.175436      0.768710      0.883208
  B      -1.512088     -1.506949     -2.742706
12
Coordinates from ORCA-job input E -297.029583777172
  B       1.413064      3.630325      3.581339
  B       2.784831      3.009105      3.779841
  B       1.837898      2.419633      2.592199
  B      -1.461778     -2.846227     -1.601410
  B       1.288211      0.294486      0.323600
  B       1.180346      1.394035      1.485654
  B      -0.830015     -1.402576     -1.234693
  B      -2.173187     -3.248627     -2.926403
  B      -0.059089     -0.393509     -0.241002
  B      -2.269015     -2.098908     -3.954781
  B      -0.171102      0.730258      0.925775
  B      -1.540166     -1.487995     -2.730120
12
Coordinates from ORCA-job input E -297.030460677025
  B       1.475632      3.708873      3.553386
  B       2.782846      2.974279      3.793815
  B       1.801011      2.403679      2.634647
  B      -1.420076     -2.855741     -1.619208
  B       1.262653      0.312410      0.291462
  B       1.204771      1.367460      1.498280
  B      -0.834798     -1.397123     -1.238701
  B      -2.159781     -3.260219     -2.933741
  B      -0.113683     -0.363324     -0.232200
  B      -2.289397     -2.108401     -3.960793
  B      -0.174786      0.721449      0.955653
  B      -1.534393     -1.503343     -2.742601
12
Coordinates from ORCA-job input E -297.030693340889
  B       1.557940      3.745152      3.494448
  B       2.817146      2.960580      3.752545
  B       1.777617      2.384651      2.655525
  B      -1.392131     -2.856738     -1.638355
  B       1.220712      0.317789      0.321674
  B       1.185298      1.349675      1.520536
  B      -0.869834     -1.369841     -1.236178
  B      -2.068424     -3.282978     -2.977141
  B      -0.173368     -0.359453     -0.190550
  B      -2.255667     -2.119204     -3.969340
  B      -0.219135      0.699543      1.000679
  B      -1.580155     -1.469176     -2.733841
12
Coordinates from ORCA-job input E -297.030493390451
  B       1.608496      3.738464      3.558279
  B       2.875249      2.940593      3.710158
  B       1.797755      2.367511      2.657355
  B      -1.384929     -2.847828     -1.633012
  B       1.174530      0.349157      0.325481
  B       1.120123      1.366812      1.541834
  B      -0.888462     -1.353199     -1.251519
  B      -2.034404     -3.311779     -2.969402
  B      -0.207822     -0.334777     -0.201537
  B      -2.236167     -2.162337     -3.980637
  B      -0.265052      0.734878      1.002357
  B      -1.559318     -1.487495     -2.759358
12
Coordinates from ORCA-job input E -297.030949795403
  B       1.547441      3.679798      3.587327
  B       2.868713      2.966018      3.705793
  B       1.801541      2.396345      2.639290
  B      -1.397834     -2.849552     -1.621048
  B       1.190128      0.326459      0.320322
  B       1.159499      1.368449      1.523768
  B      -0.883334     -1.363169     -1.240707
  B      -2.077743     -3.291130     -2.953663
  B      -0.204270     -0.325346     -0.211311
  B      -2.233779     -2.151497     -3.984939
  B      -0.235846      0.748526      0.992496
  B      -1.534516     -1.504902     -2.757328
12
Coordinates from ORCA-job input E -297.031055757541
  B       1.529960      3.711359      3.547746
  B       2.857590      3.006565      3.691709
  B       1.790429      2.397998      2.639752
  B      -1.412455     -2.855542     -1.632660
  B       1.208727      0.298175      0.333475
  B       1.174991      1.345675      1.530664
  B      -0.876700     -1.382957     -1.224926
  B      -2.086064     -3.265423     -2.977840
  B      -0.188993     -0.360214     -0.185738
  B      -2.225106     -2.110398     -3.990634
  B      -0.222594      0.696541      1.009470
  B      -1.549784     -1.481781     -2.741020
12
Coordinates from ORCA-job input E -297.031140661628
  B       1.536565      3.687955      3.590055
  B       2.884341      3.011802      3.657951
  B       1.790815      2.399113      2.632088
  B      -1.424503     -2.852685     -1.628227
  B       1.193358      0.306192      0.337414
  B       1.165981      1.350537      1.529150
  B      -0.885843     -1.378514     -1.225361
  B      -2.078126     -3.275592     -2.977777
  B      -0.204112     -0.354872     -0.182246
  B      -2.206515     -2.120851     -3.994773
  B      -0.240662      0.714074      1.010032
  B      -1.531299     -1.487158     -2.748307
12
Coordinates from ORCA-job input E -297.031201989518
  B       1.561670      3.679839      3.610561
  B       2.912545      3.008343      3.635707
  B       1.802078      2.396974      2.634546
  B      -1.412714     -2.852118     -1.627033
  B       1.171366      0.308839      0.345427
  B       1.136679      1.357879      1.540900
  B      -0.903714     -1.367507     -1.228300
  B      -2.054788     -3.285046     -2.979594
  B      -0.227294     -0.340772     -0.184790
  B      -2.189925     -2.141365     -4.006811
  B      -0.259211      0.726460      1.015927
  B      -1.536693     -1.491525     -2.756539
12
Coordinates from ORCA-job input E -297.031295245271
  B       1.554870      3.659297      3.622669
  B       2.918937      3.017626      3.619508
  B       1.799268      2.402919      2.633320
  B      -1.424975     -2.848117     -1.622777
  B       1.172745      0.304194      0.346945
  B       1.138126      1.361590      1.537635
  B      -0.908591     -1.365487     -1.225188
  B      -2.051969     -3.285358     -2.980694
  B      -0.227975     -0.344749     -0.180393
  B      -2.180198     -2.140672     -4.007751
  B      -0.258273      0.729700      1.011563
  B      -1.531964     -1.490943     -2.754838
