12
Optimized coordinates extracted from calculations\B12\compact_3d\d_3.5\mult_1\output.out
B        1.55486973       3.65929703       3.62266946
B        2.91893686       3.01762635       3.61950805
B        1.79926758       2.40291908       2.63332048
B       -1.42497476      -2.84811745      -1.62277672
B        1.17274529       0.30419418       0.34694471
B        1.13812619       1.36159001       1.53763498
B       -0.90859098      -1.36548725      -1.22518835
B       -2.05196881      -3.28535821      -2.98069445
B       -0.22797531      -0.34474852      -0.18039312
B       -2.18019825      -2.14067226      -4.00775063
B       -0.25827330       0.72969995       1.01156312
B       -1.53196424      -1.49094291      -2.75483755
