12
Coordinates from ORCA-job input
  B          -0.08315419218246     -0.00085033371142      4.84694860006364
  B           3.81941221653993     -0.00007421123848      2.27879086996954
  B          -1.93178482169856      3.29497978548408      2.08602438219315
  B          -1.93324166011101     -3.29945009804497      2.09384653219961
  B           2.34668010970426      3.79538005160649     -0.10450962869940
  B          -2.26885214991102      3.75599958570716      0.03371443899985
  B           2.34140995324891     -3.79477758128722     -0.10799387967950
  B          -2.26666587303610     -3.75460058778579      0.03781446394598
  B           3.59836154263396      0.00075296348253     -2.55326192550483
  B          -3.59538480239707      0.00020632613236     -2.40831255146431
  B          -0.01469214249895      3.15187832365168     -3.10110985226790
  B          -0.01208818029189     -3.14944422399643     -3.10195146975585
