12
Coordinates from ORCA-job input E -295.203722059097
  B       0.000000      0.000000      5.032779
  B       3.792664      0.000000      2.300775
  B      -1.896332      3.278404      2.300775
  B      -1.896332     -3.278404      2.300775
  B       2.314168      3.792664     -0.109816
  B      -2.314168      3.792664     -0.109816
  B       2.314168     -3.792664     -0.109816
  B      -2.314168     -3.792664     -0.109816
  B       3.599816      0.000000     -2.552548
  B      -3.599816      0.000000     -2.552548
  B       0.000000      3.149839     -3.195373
  B       0.000000     -3.149839     -3.195373
12
Coordinates from ORCA-job input E -295.220112897369
  B      -0.024106     -0.000531      4.979741
  B       3.800761      0.000028      2.294243
  B      -1.907078      3.282719      2.239813
  B      -1.907649     -3.284133      2.241532
  B       2.323683      3.793495     -0.108530
  B      -2.301029      3.782514     -0.068966
  B       2.322449     -3.793296     -0.109450
  B      -2.300397     -3.781817     -0.067281
  B       3.599582      0.000224     -2.552939
  B      -3.598488      0.000096     -2.511133
  B      -0.004191      3.150420     -3.168591
  B      -0.003536     -3.149718     -3.168438
12
Coordinates from ORCA-job input E -295.237202112210
  B      -0.047908     -0.000787      4.926376
  B       3.808803      0.000017      2.287925
  B      -1.917481      3.287432      2.178431
  B      -1.918489     -3.290165      2.182433
  B       2.333144      3.794351     -0.106969
  B      -2.288103      3.772088     -0.027883
  B       2.330424     -3.793969     -0.108866
  B      -2.286859     -3.770991     -0.025062
  B       3.599221      0.000443     -2.553152
  B      -3.597281      0.000168     -2.469901
  B      -0.008424      3.151016     -3.141641
  B      -0.007048     -3.149603     -3.141691
