12
Optimized coordinates extracted from calculations\B12\compact_3d\d_2.5\mult_3\output.out
B       -0.08315419      -0.00085033       4.84694860
B        3.81941222      -0.00007421       2.27879087
B       -1.93178482       3.29497979       2.08602438
B       -1.93324166      -3.29945010       2.09384653
B        2.34668011       3.79538005      -0.10450963
B       -2.26885215       3.75599959       0.03371444
B        2.34140995      -3.79477758      -0.10799388
B       -2.26666587      -3.75460059       0.03781446
B        3.59836154       0.00075296      -2.55326193
B       -3.59538480       0.00020633      -2.40831255
B       -0.01469214       3.15187832      -3.10110985
B       -0.01208818      -3.14944422      -3.10195147
