12
B12 compact_3d; neutral charge=0; multiplicity=3; 3d initial geometry; nominal d=2.5 A; Compact non-planar B12 cage-like cluster.
B        0.00000000       0.00000000       5.03277895
B        3.79266364       0.00000000       2.30077547
B       -1.89633182       3.27840417       2.30077547
B       -1.89633182      -3.27840417       2.30077547
B        2.31416765       3.79266364      -0.10981583
B       -2.31416765       3.79266364      -0.10981583
B        2.31416765      -3.79266364      -0.10981583
B       -2.31416765      -3.79266364      -0.10981583
B        3.59981634       0.00000000      -2.55254834
B       -3.59981634       0.00000000      -2.55254834
B        0.00000000       3.14983930      -3.19537269
B        0.00000000      -3.14983930      -3.19537269
