12
B12 quasi_planar_buckled_double_ring; neutral charge=0; multiplicity=3; quasi_planar initial geometry; nominal d=4.5 A; Low-amplitude buckled B6@B6 control motif.
B        4.50000000      -0.00000000       0.36000000
B        2.25000000       3.89711432      -0.36000000
B       -2.25000000       3.89711432       0.36000000
B       -4.50000000       0.00000000      -0.36000000
B       -2.25000000      -3.89711432       0.36000000
B        2.25000000      -3.89711432      -0.36000000
B        6.75000000       3.89711432       0.54000000
B        0.00000000       7.79422863      -0.54000000
B       -6.75000000       3.89711432       0.54000000
B       -6.75000000      -3.89711432      -0.54000000
B       -0.00000000      -7.79422863       0.54000000
B        6.75000000      -3.89711432      -0.54000000
