12
B12 icosahedron; neutral charge=0; multiplicity=3; 3D initial geometry; nominal d=5.0 A; Regular icosahedral B12 vertex shell.
B        0.00000000      -2.50000000      -4.04508497
B        0.00000000      -2.50000000       4.04508497
B        0.00000000       2.50000000      -4.04508497
B        0.00000000       2.50000000       4.04508497
B       -2.50000000      -4.04508497       0.00000000
B       -2.50000000       4.04508497       0.00000000
B        2.50000000      -4.04508497       0.00000000
B        2.50000000       4.04508497       0.00000000
B       -4.04508497       0.00000000      -2.50000000
B       -4.04508497       0.00000000       2.50000000
B        4.04508497       0.00000000      -2.50000000
B        4.04508497       0.00000000       2.50000000
