12
B12 planar_triangular_patch; neutral charge=0; multiplicity=3; planar initial geometry; nominal d=3.5 A; Compact planar triangular-lattice B12 control motif.
B       -5.83333333      -3.03108891       0.00000000
B       -2.33333333      -3.03108891       0.00000000
B        1.16666667      -3.03108891       0.00000000
B        4.66666667      -3.03108891       0.00000000
B       -4.08333333       0.00000000       0.00000000
B       -0.58333333       0.00000000       0.00000000
B        2.91666667       0.00000000       0.00000000
B        6.41666667       0.00000000       0.00000000
B       -5.83333333       3.03108891       0.00000000
B       -2.33333333       3.03108891       0.00000000
B        1.16666667       3.03108891       0.00000000
B        4.66666667       3.03108891       0.00000000
