12
B12 distorted_icosahedron_02; neutral charge=0; multiplicity=5; 3d initial geometry; nominal d=3.0 A; Low-symmetry distorted icosahedron variant 02.
B        0.00995947      -1.56734467      -2.50850113
B        0.08784069      -1.55379648       2.57712185
B       -0.01811926       1.36175875      -2.31376918
B        0.06063007       1.49929109       2.57031410
B       -1.59578136      -2.42393687       0.08749990
B       -1.65780320       2.38413431      -0.02311661
B        1.55903645      -2.49510657      -0.07314693
B        1.60561475       2.54174180      -0.07487428
B       -2.48875457       0.08169406      -1.52908768
B       -2.45559798       0.05193513       1.42425308
B        2.43834273       0.01811724      -1.58886340
B        2.45463219       0.10151221       1.45217029
