12
B12 quasi_planar_buckled_double_ring; neutral charge=0; multiplicity=3; quasi_planar initial geometry; nominal d=4.0 A; Low-amplitude buckled B6@B6 control motif.
B        4.00000000       0.00000000       0.32000000
B        2.00000000       3.46410162      -0.32000000
B       -2.00000000       3.46410162       0.32000000
B       -4.00000000       0.00000000      -0.32000000
B       -2.00000000      -3.46410162       0.32000000
B        2.00000000      -3.46410162      -0.32000000
B        6.00000000       3.46410162       0.48000000
B        0.00000000       6.92820323      -0.48000000
B       -6.00000000       3.46410162       0.48000000
B       -6.00000000      -3.46410162      -0.48000000
B       -0.00000000      -6.92820323       0.48000000
B        6.00000000      -3.46410162      -0.48000000
