12
B12 random_3d_02; neutral charge=0; multiplicity=1; 3D initial geometry; nominal d=5.0 A; Random 3D B12 cloud with controlled minimum distance 02.
B        0.04887920      -2.85283329       5.35896702
B        1.80900755      -0.84306686      -6.15859898
B       -1.91486205       0.55221992      -1.59908327
B        8.06903054       6.95098049       1.81849404
B       -5.11215564      -2.71986077      -8.31113766
B        4.32798102      -7.02011963      -3.37415376
B        2.28541407      -5.38930232       0.90021846
B       -2.99310556      -0.37608645       6.53488341
B        6.37324756       7.36844130       6.28505023
B       -4.13029625      -5.16383231       4.74294418
B       -6.22329103       8.50424509      -0.01445932
B       -2.53984939       0.98921483      -6.18312434
