12
Coordinates from ORCA-job input E -295.289111112352
  B       4.000000     -0.000000      1.240000
  B       2.000000      3.464102      1.240000
  B      -2.000000      3.464102      1.240000
  B      -4.000000      0.000000      1.240000
  B      -2.000000     -3.464102      1.240000
  B       2.000000     -3.464102      1.240000
  B       3.256256      1.880000     -1.240000
  B       0.000000      3.760000     -1.240000
  B      -3.256256      1.880000     -1.240000
  B      -3.256256     -1.880000     -1.240000
  B      -0.000000     -3.760000     -1.240000
  B       3.256256     -1.880000     -1.240000
12
Coordinates from ORCA-job input E -295.305305043363
  B       3.987934      0.000963      1.214219
  B       1.995573      3.453827      1.216661
  B      -1.992446      3.453097      1.215631
  B      -3.986784     -0.000095      1.215761
  B      -1.994101     -3.453127      1.215803
  B       1.995045     -3.452338      1.216116
  B       3.245262      1.875682     -1.215294
  B      -0.001176      3.749037     -1.215424
  B      -3.244637      1.873954     -1.214762
  B      -3.248193     -1.875712     -1.219857
  B      -0.001520     -3.750513     -1.214574
  B       3.245044     -1.874774     -1.214280
12
Coordinates from ORCA-job input E -295.321978222264
  B       3.975700      0.001965      1.188385
  B       1.991065      3.443453      1.193320
  B      -1.984802      3.441999      1.191369
  B      -3.973509     -0.000079      1.191515
  B      -1.988134     -3.442155      1.191588
  B       1.990084     -3.440447      1.192164
  B       3.234261      1.871375     -1.190670
  B      -0.002326      3.738111     -1.190785
  B      -3.233000      1.868014     -1.189529
  B      -3.240234     -1.871491     -1.199893
  B      -0.002973     -3.741182     -1.188931
  B       3.233867     -1.869565     -1.188533
12
Coordinates from ORCA-job input E -295.347876538518
  B       3.955845      0.003426      1.149996
  B       1.983471      3.426576      1.158609
  B      -1.972687      3.424206      1.155438
  B      -3.952355      0.000199      1.155477
  B      -1.978380     -3.424688      1.155585
  B       1.982027     -3.421425      1.156472
  B       3.216826      1.864307     -1.154178
  B      -0.004032      3.720662     -1.154104
  B      -3.214707      1.858840     -1.152115
  B      -3.227376     -1.864614     -1.170271
  B      -0.004938     -3.726239     -1.150594
  B       3.216305     -1.861251     -1.150314
12
Coordinates from ORCA-job input E -295.388760088359
  B       3.922716      0.005505      1.093386
  B       1.970236      3.398397      1.107365
  B      -1.953059      3.395010      1.102606
  B      -3.917851      0.001150      1.102174
  B      -1.961940     -3.396303      1.102337
  B       1.968554     -3.390312      1.103532
  B       3.188527      1.852357     -1.100516
  B      -0.006509      3.692095     -1.099844
  B      -3.185343      1.844445     -1.097091
  B      -3.205981     -1.853073     -1.126418
  B      -0.007420     -3.701636     -1.093521
  B       3.188071     -1.847634     -1.094011
12
Coordinates from ORCA-job input E -295.433920037614
  B       3.886475      0.007664      1.035391
  B       1.955472      3.367889      1.054975
  B      -1.931795      3.363605      1.048672
  B      -3.880729      0.002668      1.047103
  B      -1.943825     -3.366192      1.047332
  B       1.953960     -3.356818      1.048738
  B       3.158128      1.839512     -1.045793
  B      -0.008845      3.661665     -1.044049
  B      -3.154016      1.829578     -1.040865
  B      -3.183130     -1.840820     -1.081077
  B      -0.009570     -3.675651     -1.034098
  B       3.157876     -1.833099     -1.036329
12
Coordinates from ORCA-job input E -295.482065796622
  B       3.848102      0.009730      0.978573
  B       1.939452      3.335934      1.003646
  B      -1.909563      3.330982      0.995789
  B      -3.841984      0.004601      0.992347
  B      -1.924461     -3.335196      0.992672
  B       1.938524     -3.321997      0.994200
  B       3.126432      1.826109     -0.992262
  B      -0.010927      3.630205     -0.989030
  B      -3.121652      1.814649     -0.985910
  B      -3.159120     -1.828030     -1.035481
  B      -0.011289     -3.648862     -0.974790
  B       3.126486     -1.818123     -0.979754
12
Coordinates from ORCA-job input E -295.533406871432
  B       3.807205      0.011582      0.923429
  B       1.921845      3.302158      0.953655
  B      -1.886260      3.296899      0.944227
  B      -3.801163      0.006766      0.938211
  B      -1.903609     -3.302880      0.938721
  B       1.921880     -3.285540      0.940136
  B       3.093081      1.811939     -0.940214
  B      -0.012777      3.597277     -0.935092
  B      -3.087981      1.799444     -0.932768
  B      -3.133171     -1.814295     -0.989473
  B      -0.012568     -3.620705     -0.916098
  B       3.093518     -1.802644     -0.924735
12
Coordinates from ORCA-job input E -295.588232513013
  B       3.763503      0.013111      0.870343
  B       1.902394      3.266237      0.905207
  B      -1.861780      3.261183      0.894234
  B      -3.757894      0.008942      0.885136
  B      -1.881094     -3.268901      0.886025
  B       1.903650     -3.247102      0.886733
  B       3.057784      1.796820     -0.889847
  B      -0.014434      3.562445     -0.882482
  B      -3.052792      1.783764     -0.881962
  B      -3.104544     -1.799249     -0.943214
  B      -0.013411     -3.590629     -0.858569
  B       3.058619     -1.786621     -0.871604
12
Coordinates from ORCA-job input E -295.646897408387
  B       3.716827      0.014239      0.819543
  B       1.880949      3.227917      0.858463
  B      -1.835966      3.223679      0.845972
  B      -3.711936      0.010902      0.833657
  B      -1.856818     -3.233075      0.835265
  B       1.883476     -3.206296      0.834195
  B       3.020339      1.780608     -0.841283
  B      -0.015927      3.525302     -0.831378
  B      -3.015927      1.767451     -0.833925
  B      -3.072672     -1.782632     -0.897175
  B      -0.013817     -3.558114     -0.802746
  B       3.021471     -1.769981     -0.820589
12
Coordinates from ORCA-job input E -295.709754398046
  B       3.667056      0.014934      0.771067
  B       1.857478      3.187075      0.813590
  B      -1.808612      3.184213      0.799491
  B      -3.663170      0.012456      0.784254
  B      -1.830790     -3.195403      0.787146
  B       1.861079     -3.162826      0.782850
  B       2.980614      1.763166     -0.794553
  B      -0.017243      3.485554     -0.781959
  B      -2.977248      1.750413     -0.788879
  B      -3.037234     -1.764311     -0.851960
  B      -0.013729     -3.522732     -0.749194
  B       2.981797     -1.752538     -0.771852
12
Coordinates from ORCA-job input E -295.777100093958
  B       3.614049      0.015234      0.724776
  B       1.832047      3.143769      0.770780
  B      -1.779582      3.142552      0.754718
  B      -3.611586      0.013530      0.737209
  B      -1.803169     -3.156053      0.742221
  B       1.836356     -3.116704      0.733236
  B       2.938553      1.744329     -0.749614
  B      -0.018312      3.443120     -0.734489
  B      -2.936616      1.732636     -0.746709
  B      -2.998206     -1.744206     -0.808089
  B      -0.013019     -3.484251     -0.698463
  B       2.939485     -1.733955     -0.725576
12
Coordinates from ORCA-job input E -295.848988593579
  B       3.557626      0.015259      0.680482
  B       1.804802      3.098235      0.730243
  B      -1.748950      3.098365      0.711508
  B      -3.557187      0.014259      0.692447
  B      -1.774253     -3.115268      0.700776
  B       1.809420     -3.068423      0.686071
  B       2.894170      1.723921     -0.706437
  B      -0.019100      3.398176     -0.689314
  B      -2.893903      1.714094     -0.706920
  B      -2.955812     -1.722118     -0.765835
  B      -0.011543     -3.442698     -0.650970
  B       2.894731     -1.713802     -0.682051
12
Coordinates from ORCA-job input E -295.925226029889
  B       3.497680      0.015195      0.638146
  B       1.775900      3.050791      0.692177
  B      -1.717211      3.051157      0.669815
  B      -3.499853      0.015067      0.649517
  B      -1.744477     -3.073240      0.662841
  B       1.780487     -3.018854      0.642025
  B       2.847613      1.701795     -0.665154
  B      -0.019665      3.351080     -0.646936
  B      -2.848940      1.694513     -0.668664
  B      -2.910443     -1.697521     -0.725227
  B      -0.009176     -3.398291     -0.606934
  B       2.848087     -1.691694     -0.641605
12
Coordinates from ORCA-job input E -296.008115467372
  B       3.434440      0.015091      0.598049
  B       1.745586      3.001804      0.656920
  B      -1.685248      3.000576      0.629859
  B      -3.439455      0.016656      0.608134
  B      -1.713904     -3.030235      0.628230
  B       1.749844     -2.968419      0.600866
  B       2.799247      1.677785     -0.626224
  B      -0.020411      3.302184     -0.607943
  B      -2.801558      1.673452     -0.631317
  B      -2.862660     -1.669751     -0.686477
  B      -0.005732     -3.351237     -0.566007
  B       2.799850     -1.667906     -0.604089
12
Coordinates from ORCA-job input E -296.103538514306
  B       3.371992      0.015259      0.561596
  B       1.716168      2.953638      0.625201
  B      -1.653984      2.949921      0.591782
  B      -3.378887      0.017437      0.569978
  B      -1.681962     -2.986795      0.590569
  B       1.720231     -2.917167      0.561248
  B       2.749550      1.653636     -0.590559
  B      -0.021604      3.252270     -0.572599
  B      -2.753539      1.654012     -0.596209
  B      -2.812491     -1.643540     -0.647712
  B      -0.005879     -3.302883     -0.524765
  B       2.750406     -1.645788     -0.568531
12
Coordinates from ORCA-job input E -296.200550546248
  B       3.308623      0.014321      0.527026
  B       1.686433      2.903617      0.594718
  B      -1.624704      2.897977      0.557379
  B      -3.316090      0.020755      0.533808
  B      -1.650594     -2.941252      0.555433
  B       1.689822     -2.862901      0.523875
  B       2.699236      1.629331     -0.558437
  B      -0.019802      3.198382     -0.538647
  B      -2.703951      1.630661     -0.561833
  B      -2.762848     -1.619186     -0.613857
  B      -0.007684     -3.251680     -0.484949
  B       2.701559     -1.620026     -0.534514
12
Coordinates from ORCA-job input E -296.307354691584
  B       3.247807      0.014619      0.484589
  B       1.658066      2.857048      0.561722
  B      -1.596704      2.846326      0.520134
  B      -3.257517      0.022459      0.491045
  B      -1.626143     -2.899246      0.515175
  B       1.658587     -2.812055      0.483054
  B       2.654027      1.608267     -0.523932
  B      -0.014522      3.148153     -0.500167
  B      -2.656071      1.606917     -0.522672
  B      -2.715997     -1.597208     -0.574992
  B      -0.011186     -3.203678     -0.437764
  B       2.659654     -1.591602     -0.496192
12
Coordinates from ORCA-job input E -296.415516342764
  B       3.189674      0.016209      0.442830
  B       1.631405      2.811621      0.525495
  B      -1.570386      2.796627      0.482869
  B      -3.201847      0.022951      0.450526
  B      -1.602708     -2.857927      0.477983
  B       1.628211     -2.763974      0.445659
  B       2.614972      1.585134     -0.486758
  B      -0.014120      3.100698     -0.460163
  B      -2.611672      1.584628     -0.484931
  B      -2.670947     -1.574365     -0.538299
  B      -0.014812     -3.156154     -0.394599
  B       2.622230     -1.565447     -0.460612
12
Coordinates from ORCA-job input E -296.516197824503
  B       3.134956      0.013809      0.402834
  B       1.603387      2.766984      0.486460
  B      -1.547113      2.750972      0.447463
  B      -3.149921      0.025664      0.413073
  B      -1.580697     -2.817556      0.443762
  B       1.599100     -2.717938      0.410445
  B       2.579168      1.558922     -0.449715
  B      -0.014916      3.055017     -0.419913
  B      -2.570977      1.564275     -0.448131
  B      -2.628652     -1.552889     -0.505170
  B      -0.013755     -3.108852     -0.354941
  B       2.589420     -1.538411     -0.426166
12
Coordinates from ORCA-job input E -296.606078950396
  B       3.078029      0.011344      0.366001
  B       1.572588      2.718867      0.449848
  B      -1.523641      2.701208      0.415431
  B      -3.093676      0.027966      0.377592
  B      -1.559550     -2.771364      0.412333
  B       1.568671     -2.669354      0.378724
  B       2.540335      1.529225     -0.415650
  B      -0.013720      3.004210     -0.382935
  B      -2.527313      1.540011     -0.413717
  B      -2.583563     -1.529088     -0.473251
  B      -0.012364     -3.056126     -0.319610
  B       2.554205     -1.506900     -0.394766
12
Coordinates from ORCA-job input E -296.682816658906
  B       3.022406      0.009355      0.331272
  B       1.540535      2.671296      0.415556
  B      -1.500865      2.650871      0.386349
  B      -3.036390      0.028419      0.342789
  B      -1.542665     -2.721993      0.382894
  B       1.538527     -2.621695      0.349903
  B       2.502513      1.497648     -0.383993
  B      -0.011099      2.952850     -0.348252
  B      -2.484169      1.512560     -0.381604
  B      -2.538008     -1.504512     -0.441124
  B      -0.011526     -3.001515     -0.287553
  B       2.520741     -1.473282     -0.366237
12
Coordinates from ORCA-job input E -296.756896728973
  B       2.971915      0.008902      0.298597
  B       1.509750      2.627043      0.383314
  B      -1.479214      2.603269      0.359375
  B      -2.980951      0.026723      0.307800
  B      -1.531182     -2.672882      0.355105
  B       1.512166     -2.576893      0.322945
  B       2.468051      1.466722     -0.353747
  B      -0.008664      2.904084     -0.315045
  B      -2.444608      1.482655     -0.351726
  B      -2.495072     -1.479813     -0.408430
  B      -0.013368     -2.948132     -0.257838
  B       2.491176     -1.441677     -0.340350
12
Coordinates from ORCA-job input E -296.803342731036
  B       2.928419      0.010805      0.269770
  B       1.494224      2.586213      0.352519
  B      -1.447027      2.567930      0.336834
  B      -2.931844      0.024400      0.267572
  B      -1.524688     -2.631130      0.333973
  B       1.488325     -2.542806      0.297901
  B       2.428479      1.463182     -0.323471
  B       0.000029      2.860553     -0.282036
  B      -2.419039      1.430801     -0.326480
  B      -2.467185     -1.448871     -0.377641
  B      -0.016395     -2.905335     -0.229159
  B       2.466702     -1.415741     -0.319781
12
Coordinates from ORCA-job input E -296.835062422387
  B       2.907068      0.019960      0.239677
  B       1.475944      2.577549      0.329389
  B      -1.454641      2.543197      0.307941
  B      -2.907275      0.005693      0.238065
  B      -1.527698     -2.608292      0.311190
  B       1.480382     -2.523647      0.271582
  B       2.424525      1.442405     -0.294451
  B       0.013725      2.844360     -0.253043
  B      -2.394984      1.428435     -0.301986
  B      -2.451125     -1.438700     -0.344809
  B      -0.023123     -2.879778     -0.202233
  B       2.457202     -1.411182     -0.301321
12
Coordinates from ORCA-job input E -296.857515098927
  B       2.901167      0.002123      0.213529
  B       1.489828      2.572005      0.307657
  B      -1.440951      2.552122      0.285718
  B      -2.899450      0.013723      0.208871
  B      -1.533779     -2.603060      0.289312
  B       1.472134     -2.524339      0.250541
  B       2.418365      1.454832     -0.269706
  B      -0.005173      2.846200     -0.226082
  B      -2.402432      1.404548     -0.281252
  B      -2.441651     -1.444329     -0.320418
  B      -0.026401     -2.870157     -0.175687
  B       2.468343     -1.403667     -0.282482
12
Coordinates from ORCA-job input E -296.877403052430
  B       2.912476      0.014763      0.192089
  B       1.492544      2.598541      0.287350
  B      -1.460636      2.571189      0.268068
  B      -2.916887      0.003351      0.183685
  B      -1.539457     -2.629994      0.275133
  B       1.488687     -2.541239      0.229005
  B       2.437715      1.460597     -0.246534
  B       0.014043      2.871689     -0.202579
  B      -2.418056      1.415507     -0.264235
  B      -2.460960     -1.445904     -0.300582
  B      -0.032194     -2.885572     -0.152058
  B       2.482727     -1.432928     -0.269341
12
Coordinates from ORCA-job input E -296.892591050253
  B       2.924495     -0.002770      0.171001
  B       1.501114      2.618836      0.272276
  B      -1.483939      2.591284      0.243269
  B      -2.933381      0.000928      0.167082
  B      -1.558196     -2.646179      0.259634
  B       1.491646     -2.563677      0.208257
  B       2.450183      1.466077     -0.225364
  B       0.006717      2.893766     -0.182345
  B      -2.423317      1.448637     -0.247459
  B      -2.469357     -1.469031     -0.278424
  B      -0.014492     -2.896393     -0.132215
  B       2.508527     -1.441476     -0.255712
12
Coordinates from ORCA-job input E -296.906630394152
  B       2.919471     -0.001672      0.150200
  B       1.502878      2.628569      0.258054
  B      -1.479115      2.607673      0.223110
  B      -2.930789      0.012041      0.143785
  B      -1.551324     -2.656373      0.242942
  B       1.507879     -2.562671      0.188469
  B       2.452641      1.458973     -0.203745
  B      -0.005019      2.903440     -0.160198
  B      -2.431871      1.435064     -0.231382
  B      -2.463736     -1.472177     -0.257731
  B      -0.032187     -2.892345     -0.111692
  B       2.511173     -1.460522     -0.241813
12
Coordinates from ORCA-job input E -296.917236933603
  B       2.926437     -0.007522      0.133157
  B       1.518237      2.645147      0.238952
  B      -1.490143      2.627295      0.209595
  B      -2.943626     -0.000317      0.120673
  B      -1.550732     -2.683901      0.232548
  B       1.502894     -2.587801      0.172276
  B       2.451155      1.483364     -0.183930
  B       0.016700      2.920736     -0.141580
  B      -2.447710      1.431140     -0.218128
  B      -2.485451     -1.460172     -0.240689
  B      -0.030905     -2.906248     -0.091389
  B       2.533144     -1.461720     -0.231485
12
Coordinates from ORCA-job input E -296.927150781068
  B       2.931824     -0.000055      0.119094
  B       1.519436      2.665458      0.226443
  B      -1.503104      2.647954      0.188369
  B      -2.951968      0.005849      0.106896
  B      -1.581368     -2.689117      0.218797
  B       1.512938     -2.607054      0.152085
  B       2.459670      1.480091     -0.163501
  B       0.015953      2.937659     -0.125206
  B      -2.453830      1.446413     -0.204493
  B      -2.485645     -1.490278     -0.217510
  B      -0.009796     -2.909384     -0.079328
  B       2.545890     -1.487537     -0.221648
12
Coordinates from ORCA-job input E -296.933792408553
  B       2.925537     -0.024131      0.102687
  B       1.517416      2.671137      0.218200
  B      -1.517010      2.660006      0.163319
  B      -2.948245      0.002278      0.095183
  B      -1.565666     -2.703855      0.205287
  B       1.539064     -2.605791      0.135390
  B       2.452965      1.465704     -0.145736
  B      -0.018509      2.942228     -0.110703
  B      -2.435596      1.486577     -0.191146
  B      -2.479740     -1.488718     -0.197692
  B      -0.028940     -2.907128     -0.066325
  B       2.558724     -1.498307     -0.208466
12
Coordinates from ORCA-job input E -296.941462254267
  B       2.932115     -0.030117      0.086789
  B       1.520999      2.699954      0.204318
  B      -1.526111      2.696214      0.153305
  B      -2.963099      0.018747      0.077587
  B      -1.558429     -2.730775      0.193520
  B       1.534417     -2.636197      0.123584
  B       2.462404      1.458341     -0.131546
  B      -0.007232      2.969971     -0.094150
  B      -2.468152      1.470166     -0.179561
  B      -2.484675     -1.491190     -0.184338
  B      -0.024242     -2.922541     -0.051335
  B       2.582003     -1.502574     -0.198173
12
Coordinates from ORCA-job input E -296.943974412469
  B       2.898018     -0.017132      0.084792
  B       1.528414      2.675635      0.186327
  B      -1.519414      2.686260      0.138234
  B      -2.933669      0.011457      0.065391
  B      -1.561850     -2.708400      0.182857
  B       1.522482     -2.627449      0.102158
  B       2.414511      1.493273     -0.110633
  B       0.025225      2.947934     -0.085856
  B      -2.454272      1.441905     -0.167603
  B      -2.466529     -1.481682     -0.162088
  B      -0.002375     -2.894941     -0.045596
  B       2.549458     -1.526862     -0.187984
12
Coordinates from ORCA-job input E -296.950348047424
  B       2.924964     -0.010651      0.072386
  B       1.532208      2.706527      0.181234
  B      -1.523090      2.715806      0.122991
  B      -2.954510     -0.006045      0.057137
  B      -1.590124     -2.727635      0.174705
  B       1.542450     -2.660539      0.093433
  B       2.442422      1.477998     -0.099303
  B      -0.010308      2.972141     -0.073994
  B      -2.457289      1.466079     -0.160816
  B      -2.491973     -1.484798     -0.147551
  B      -0.011904     -2.915932     -0.038450
  B       2.597152     -1.532949     -0.181773
12
Coordinates from ORCA-job input E -296.950905333752
  B       2.911324     -0.053316      0.064555
  B       1.505827      2.717479      0.177847
  B      -1.553539      2.713173      0.114159
  B      -2.952358      0.033080      0.056095
  B      -1.551797     -2.732957      0.166086
  B       1.555506     -2.655086      0.089768
  B       2.431512      1.442432     -0.097479
  B      -0.003465      2.973688     -0.068953
  B      -2.459057      1.496657     -0.152060
  B      -2.463038     -1.497184     -0.143246
  B      -0.019749     -2.912582     -0.035205
  B       2.598833     -1.525387     -0.171567
12
Coordinates from ORCA-job input E -296.956401103286
  B       2.900854     -0.034987      0.058679
  B       1.525508      2.712833      0.166964
  B      -1.553669      2.734166      0.100104
  B      -2.956128      0.024906      0.046352
  B      -1.548244     -2.745228      0.158776
  B       1.551082     -2.666086      0.073342
  B       2.425649      1.443713     -0.080983
  B      -0.011046      2.977602     -0.060756
  B      -2.463701      1.494172     -0.143628
  B      -2.468825     -1.484196     -0.127152
  B       0.002548     -2.911778     -0.028847
  B       2.595971     -1.545118     -0.162851
12
Coordinates from ORCA-job input E -296.957316130306
  B       2.920819     -0.027607      0.059493
  B       1.527090      2.721984      0.153442
  B      -1.538261      2.746837      0.095707
  B      -2.959848     -0.000711      0.044525
  B      -1.590294     -2.735380      0.148529
  B       1.570840     -2.682386      0.066546
  B       2.418553      1.482004     -0.074562
  B      -0.000091      2.985496     -0.056928
  B      -2.466744      1.476287     -0.136701
  B      -2.484645     -1.491570     -0.115591
  B      -0.020397     -2.917836     -0.032007
  B       2.622979     -1.557118     -0.152454
12
Coordinates from ORCA-job input E -296.960752805304
  B       2.897390     -0.042624      0.051388
  B       1.500256      2.727396      0.146873
  B      -1.541477      2.745184      0.076502
  B      -2.935616      0.013193      0.037294
  B      -1.561965     -2.729396      0.139771
  B       1.554878     -2.689079      0.050275
  B       2.395230      1.450237     -0.061892
  B      -0.016345      2.977266     -0.047557
  B      -2.447391      1.484317     -0.126479
  B      -2.459673     -1.469796     -0.098027
  B       0.001481     -2.905343     -0.026764
  B       2.613233     -1.561356     -0.141384
12
Coordinates from ORCA-job input E -296.961049740960
  B       2.902415     -0.037607      0.049270
  B       1.543583      2.705457      0.139900
  B      -1.585061      2.748139      0.071487
  B      -2.969715      0.046746      0.038106
  B      -1.544762     -2.746117      0.132607
  B       1.571215     -2.689206      0.046199
  B       2.417094      1.431257     -0.055300
  B      -0.021934      2.979164     -0.050793
  B      -2.482312      1.508786     -0.117618
  B      -2.466485     -1.478299     -0.094613
  B       0.005010     -2.915492     -0.028301
  B       2.630952     -1.552828     -0.130946
12
Coordinates from ORCA-job input E -296.964102035288
  B       2.890437     -0.061504      0.047289
  B       1.523645      2.719380      0.128787
  B      -1.566037      2.781282      0.063149
  B      -2.970568      0.027945      0.035467
  B      -1.538423     -2.746660      0.123343
  B       1.579352     -2.691716      0.035093
  B       2.395205      1.432513     -0.049221
  B      -0.017353      2.998259     -0.044501
  B      -2.480994      1.512414     -0.110968
  B      -2.460476     -1.482735     -0.081765
  B       0.019388     -2.915087     -0.030296
  B       2.625822     -1.574092     -0.116377
12
Coordinates from ORCA-job input E -296.964900864792
  B       2.907280     -0.045980      0.048829
  B       1.489578      2.722079      0.119867
  B      -1.557978      2.753497      0.055579
  B      -2.937591      0.034645      0.035512
  B      -1.553640     -2.714853      0.115845
  B       1.570338     -2.720204      0.026821
  B       2.379944      1.454302     -0.044113
  B      -0.032453      2.986775     -0.042896
  B      -2.463841      1.497613     -0.102972
  B      -2.454570     -1.455591     -0.071067
  B       0.003306     -2.920783     -0.034792
  B       2.649628     -1.591500     -0.106614
12
Coordinates from ORCA-job input E -296.967310524462
  B       2.895395     -0.057425      0.046010
  B       1.502868      2.701940      0.109929
  B      -1.568612      2.765076      0.045842
  B      -2.953986      0.028095      0.035209
  B      -1.544319     -2.705878      0.106453
  B       1.584359     -2.700069      0.016087
  B       2.380604      1.421737     -0.036639
  B      -0.024028      2.989656     -0.041122
  B      -2.483895      1.503525     -0.094347
  B      -2.458537     -1.455934     -0.058617
  B       0.017318     -2.912413     -0.039446
  B       2.652833     -1.578309     -0.089359
12
Coordinates from ORCA-job input E -296.968454415633
  B       2.889016     -0.071984      0.047388
  B       1.500082      2.697133      0.099150
  B      -1.573841      2.791380      0.043648
  B      -2.978047      0.050826      0.039067
  B      -1.503749     -2.727238      0.097478
  B       1.594155     -2.711191      0.011520
  B       2.377908      1.419619     -0.035188
  B      -0.030089      3.023180     -0.043521
  B      -2.509270      1.546920     -0.086013
  B      -2.457425     -1.472669     -0.054492
  B       0.034105     -2.944871     -0.046797
  B       2.657154     -1.601107     -0.072241
12
Coordinates from ORCA-job input E -296.970763797657
  B       2.903482     -0.090500      0.048561
  B       1.489448      2.683400      0.085766
  B      -1.592103      2.778563      0.036602
  B      -2.975085      0.058829      0.040709
  B      -1.502459     -2.688728      0.086241
  B       1.610788     -2.710829      0.001620
  B       2.383534      1.405606     -0.031764
  B      -0.044869      3.033434     -0.043632
  B      -2.536358      1.544475     -0.074396
  B      -2.465731     -1.445620     -0.042743
  B       0.047231     -2.950624     -0.057185
  B       2.682122     -1.618007     -0.049779
12
Coordinates from ORCA-job input E -296.972032310555
  B       2.901569     -0.067534      0.050433
  B       1.472565      2.652880      0.077016
  B      -1.568167      2.757142      0.033243
  B      -2.953148      0.040356      0.044273
  B      -1.500148     -2.644808      0.078267
  B       1.588728     -2.702096     -0.003035
  B       2.381736      1.401832     -0.031541
  B      -0.034040      3.031457     -0.044048
  B      -2.545210      1.536410     -0.068612
  B      -2.466274     -1.448585     -0.035270
  B       0.030528     -2.957814     -0.066791
  B       2.691860     -1.599239     -0.033934
12
Coordinates from ORCA-job input E -296.974326105460
  B       2.907124     -0.085233      0.050926
  B       1.449493      2.626925      0.060310
  B      -1.573100      2.755859      0.027772
  B      -2.964508      0.069273      0.045903
  B      -1.478799     -2.629043      0.064595
  B       1.618096     -2.707038     -0.010899
  B       2.379510      1.390338     -0.031625
  B      -0.046231      3.052588     -0.042606
  B      -2.581069      1.567965     -0.053845
  B      -2.486063     -1.433299     -0.026465
  B       0.057515     -2.991241     -0.076783
  B       2.718032     -1.617093     -0.007283
12
Coordinates from ORCA-job input E -296.974760044780
  B       2.923270     -0.115188      0.050299
  B       1.448780      2.630043      0.049635
  B      -1.602331      2.759116      0.026416
  B      -2.961240      0.069689      0.045546
  B      -1.438104     -2.601213      0.053461
  B       1.607283     -2.716004     -0.012233
  B       2.402031      1.389258     -0.034950
  B      -0.065827      3.095125     -0.040189
  B      -2.619659      1.583021     -0.043509
  B      -2.475992     -1.437326     -0.023832
  B       0.062862     -3.001299     -0.080144
  B       2.718926     -1.655222      0.009499
12
Coordinates from ORCA-job input E -296.976436275598
  B       2.918476     -0.108496      0.047888
  B       1.426338      2.599623      0.036320
  B      -1.586626      2.755954      0.019460
  B      -2.961138      0.083368      0.042941
  B      -1.436624     -2.583351      0.041734
  B       1.622034     -2.716166     -0.020282
  B       2.390123      1.379448     -0.033574
  B      -0.064570      3.090187     -0.034737
  B      -2.633005      1.599729     -0.030870
  B      -2.489491     -1.432208     -0.014894
  B       0.076905     -3.020341     -0.083849
  B       2.737579     -1.647747      0.029861
12
Coordinates from ORCA-job input E -296.977135172995
  B       2.918092     -0.113249      0.043200
  B       1.412987      2.577647      0.025937
  B      -1.586001      2.754704      0.015274
  B      -2.957096      0.089854      0.037476
  B      -1.424629     -2.563925      0.031868
  B       1.625611     -2.720378     -0.024850
  B       2.388171      1.375998     -0.034482
  B      -0.070479      3.093473     -0.027205
  B      -2.647333      1.613593     -0.020438
  B      -2.491879     -1.430287     -0.009936
  B       0.088385     -3.025302     -0.081792
  B       2.744172     -1.652129      0.044949
12
Coordinates from ORCA-job input E -296.977833200508
  B       2.920047     -0.120311      0.033537
  B       1.392687      2.550874      0.011939
  B      -1.593264      2.755273      0.010021
  B      -2.952034      0.096274      0.026634
  B      -1.409014     -2.535889      0.018114
  B       1.631570     -2.729153     -0.030081
  B       2.397141      1.371508     -0.036982
  B      -0.079194      3.096829     -0.013140
  B      -2.667651      1.631976     -0.005776
  B      -2.496140     -1.427720     -0.004784
  B       0.101580     -3.027508     -0.074175
  B       2.754274     -1.662154      0.064694
12
Coordinates from ORCA-job input E -296.978207327482
  B       2.921967     -0.124531      0.023984
  B       1.380771      2.524875      0.002438
  B      -1.599429      2.753848      0.005020
  B      -2.948806      0.098698      0.016184
  B      -1.395601     -2.511875      0.008105
  B       1.639541     -2.732990     -0.034233
  B       2.409608      1.368524     -0.038030
  B      -0.085718      3.093853     -0.000109
  B      -2.685337      1.640083      0.004876
  B      -2.504689     -1.421968     -0.001133
  B       0.106491     -3.021492     -0.064455
  B       2.761203     -1.667025      0.077354
12
Coordinates from ORCA-job input E -296.978360232562
  B       2.922671     -0.126263      0.014358
  B       1.370979      2.507291     -0.001158
  B      -1.606164      2.754370      0.003278
  B      -2.948750      0.102589      0.006005
  B      -1.392087     -2.499643      0.003618
  B       1.644632     -2.736352     -0.034475
  B       2.426061      1.371093     -0.038953
  B      -0.090065      3.085742      0.011609
  B      -2.693316      1.646551      0.009225
  B      -2.510958     -1.421999     -0.001171
  B       0.112033     -3.012542     -0.052232
  B       2.764965     -1.670836      0.079897
12
Coordinates from ORCA-job input E -296.978453955859
  B       2.924174     -0.124259      0.008637
  B       1.373848      2.503404      0.000380
  B      -1.609220      2.755832      0.004008
  B      -2.952364      0.100969      0.000228
  B      -1.397507     -2.502035      0.004014
  B       1.646683     -2.736298     -0.032027
  B       2.437701      1.375463     -0.038426
  B      -0.090403      3.075329      0.017503
  B      -2.692500      1.643422      0.007887
  B      -2.515381     -1.422559     -0.003559
  B       0.110366     -3.000313     -0.042520
  B       2.764602     -1.668955      0.073876
12
Coordinates from ORCA-job input E -296.978553418244
  B       2.929873     -0.120038     -0.000067
  B       1.382593      2.499362      0.005335
  B      -1.613202      2.757401      0.008434
  B      -2.960844      0.098742     -0.008148
  B      -1.410282     -2.508967      0.006652
  B       1.648032     -2.735041     -0.024018
  B       2.458417      1.385824     -0.037938
  B      -0.091109      3.057392      0.025050
  B      -2.690691      1.637558      0.002833
  B      -2.524004     -1.426273     -0.010312
  B       0.107400     -2.981607     -0.026474
  B       2.763817     -1.664353      0.058651
12
Coordinates from ORCA-job input E -296.978594420430
  B       2.934411     -0.117192     -0.003148
  B       1.387070      2.500019      0.009323
  B      -1.614216      2.755459      0.011219
  B      -2.966034      0.096961     -0.010686
  B      -1.415906     -2.512754      0.009016
  B       1.646318     -2.731750     -0.019007
  B       2.467948      1.390097     -0.036783
  B      -0.089418      3.047163      0.026487
  B      -2.688778      1.633646     -0.001143
  B      -2.527856     -1.427229     -0.014091
  B       0.104137     -2.974332     -0.019589
  B       2.762325     -1.660089      0.048400
12
Coordinates from ORCA-job input E -296.978654724411
  B       2.944408     -0.112952     -0.007671
  B       1.393081      2.497690      0.014358
  B      -1.614741      2.751365      0.015271
  B      -2.973787      0.095374     -0.013979
  B      -1.420858     -2.512384      0.011320
  B       1.643083     -2.725813     -0.011276
  B       2.480778      1.395036     -0.034762
  B      -0.088484      3.034214      0.027997
  B      -2.690981      1.630696     -0.005921
  B      -2.534455     -1.429172     -0.019556
  B       0.100595     -2.969431     -0.010017
  B       2.761361     -1.654623      0.034236
12
Coordinates from ORCA-job input E -296.978754631190
  B       2.966355     -0.106482     -0.016140
  B       1.398604      2.486367      0.021513
  B      -1.615759      2.738843      0.020547
  B      -2.987577      0.093873     -0.019692
  B      -1.422274     -2.501027      0.013094
  B       1.635818     -2.712499      0.001153
  B       2.504594      1.401372     -0.029314
  B      -0.087336      3.012512      0.030579
  B      -2.702976      1.630249     -0.012158
  B      -2.547833     -1.429587     -0.027667
  B       0.096663     -2.967741      0.007026
  B       2.761719     -1.645879      0.011058
12
Coordinates from ORCA-job input E -296.978806254730
  B       2.979010     -0.103697     -0.019169
  B       1.400785      2.481787      0.023975
  B      -1.615506      2.731751      0.020230
  B      -2.994269      0.094165     -0.021084
  B      -1.419923     -2.492578      0.012663
  B       1.631625     -2.704485      0.004228
  B       2.510836      1.400947     -0.023991
  B      -0.086715      3.004784      0.030375
  B      -2.711555      1.631442     -0.013866
  B      -2.551865     -1.428292     -0.028662
  B       0.094971     -2.973389      0.013603
  B       2.762606     -1.642434      0.001699
12
Coordinates from ORCA-job input E -296.978842162139
  B       2.988055     -0.103111     -0.020967
  B       1.400633      2.478718      0.024299
  B      -1.615345      2.726351      0.016739
  B      -2.998335      0.095566     -0.021702
  B      -1.416121     -2.486484      0.010813
  B       1.628111     -2.699283      0.003239
  B       2.511906      1.398985     -0.017378
  B      -0.086963      3.000908      0.029856
  B      -2.718982      1.634221     -0.013371
  B      -2.551739     -1.425113     -0.026092
  B       0.094959     -2.979882      0.017469
  B       2.763820     -1.640875     -0.002903
12
Coordinates from ORCA-job input E -296.978859730507
  B       2.990218     -0.103064     -0.020816
  B       1.401015      2.480299      0.023575
  B      -1.615004      2.725170      0.013030
  B      -2.999024      0.096623     -0.021184
  B      -1.415715     -2.487669      0.009268
  B       1.627007     -2.697662      0.000439
  B       2.509120      1.397329     -0.012869
  B      -0.086836      3.000851      0.028996
  B      -2.720561      1.635138     -0.012313
  B      -2.548318     -1.423292     -0.022533
  B       0.094338     -2.983109      0.017673
  B       2.763761     -1.640613     -0.003266
12
Coordinates from ORCA-job input E -296.978874601720
  B       2.990858     -0.102924     -0.019716
  B       1.402691      2.484207      0.022726
  B      -1.614322      2.724847      0.009045
  B      -2.999289      0.097538     -0.019797
  B      -1.417761     -2.493633      0.007652
  B       1.625726     -2.696923     -0.002611
  B       2.506318      1.397018     -0.007969
  B      -0.086303      3.001041      0.027385
  B      -2.720218      1.634865     -0.011429
  B      -2.543493     -1.421671     -0.018474
  B       0.093180     -2.984546      0.016951
  B       2.762613     -1.639820     -0.003764
12
Coordinates from ORCA-job input E -296.978883543710
  B       2.990664     -0.102142     -0.018025
  B       1.404933      2.488219      0.022343
  B      -1.613285      2.724609      0.006650
  B      -2.999061      0.097742     -0.017900
  B      -1.421420     -2.500783      0.006645
  B       1.624707     -2.696151     -0.004237
  B       2.505117      1.397911     -0.004426
  B      -0.085344      3.000918      0.025314
  B      -2.718676      1.633854     -0.011324
  B      -2.539583     -1.421298     -0.015842
  B       0.091340     -2.984536      0.015833
  B       2.760608     -1.638345     -0.005030
12
Coordinates from ORCA-job input E -296.978889232843
  B       2.990642     -0.101097     -0.016099
  B       1.406824      2.490777      0.022063
  B      -1.612375      2.724048      0.005546
  B      -2.998699      0.097567     -0.015785
  B      -1.424580     -2.506492      0.005859
  B       1.623565     -2.695626     -0.004660
  B       2.506028      1.399523     -0.002047
  B      -0.084379      3.000714      0.023038
  B      -2.717886      1.632912     -0.011481
  B      -2.537480     -1.421471     -0.014434
  B       0.089802     -2.984119      0.014527
  B       2.758538     -1.636736     -0.006527
