12
Coordinates from ORCA-job input E -296.978889232843
  B           2.99064169878778     -0.10109677686987     -0.01609863978272
  B           1.40682443393256      2.49077741156572      0.02206263283468
  B          -1.61237469735427      2.72404750695540      0.00554572736488
  B          -2.99869911164489      0.09756748901155     -0.01578527153767
  B          -1.42457955155887     -2.50649184701280      0.00585933900627
  B           1.62356483457997     -2.69562565893822     -0.00466014119516
  B           2.50602783019615      1.39952276153593     -0.00204703032310
  B          -0.08437867575634      3.00071358969141      0.02303791934918
  B          -2.71788630903327      1.63291163085415     -0.01148146500006
  B          -2.53748020868059     -1.42147146511896     -0.01443357696376
  B           0.08980151171592     -2.98411896112247      0.01452742756460
  B           2.75853824481584     -1.63673568055185     -0.00652692131714
