12
Optimized coordinates extracted from calculations/B12/bilayer_3d/d_4.0/mult_3/output.out
B        2.99064170      -0.10109678      -0.01609864
B        1.40682443       2.49077741       0.02206263
B       -1.61237470       2.72404751       0.00554573
B       -2.99869911       0.09756749      -0.01578527
B       -1.42457955      -2.50649185       0.00585934
B        1.62356483      -2.69562566      -0.00466014
B        2.50602783       1.39952276      -0.00204703
B       -0.08437868       3.00071359       0.02303792
B       -2.71788631       1.63291163      -0.01148147
B       -2.53748021      -1.42147147      -0.01443358
B        0.08980151      -2.98411896       0.01452743
B        2.75853824      -1.63673568      -0.00652692
