12
B12 random_3d_03; neutral charge=0; multiplicity=5; 3d initial geometry; nominal d=2.0 A; Random 3D B12 cloud with controlled minimum distance 03.
B        2.72723167       3.39438194       2.12019895
B        0.58463880      -2.39242647       2.75011094
B       -2.10348223      -1.46481745       1.20556537
B        2.91774821      -1.82488772      -1.42139885
B        0.86587472       2.03059809      -3.40527450
B       -1.76435675      -0.02993558       2.65824251
B       -1.84808209       0.39765154      -3.07893412
B       -3.07158235      -3.44413455       0.35930439
B        1.15715175       2.10724795      -0.50583569
B        2.26100083      -1.64956217       1.82633355
B       -1.53635515       3.35130898       0.02318011
B       -0.18978740      -0.47542456      -2.53149266
