12
B12 distorted_cage; neutral charge=0; multiplicity=5; 3D initial geometry; nominal d=2.0 A; Anisotropically deformed 3D cage.
B       -0.07138898      -0.90642191      -1.84818146
B       -0.07817162      -0.84977603       1.94501979
B        0.02687012       0.86743235      -1.93886802
B       -0.06292213       0.93198491       1.84452044
B       -0.90938060      -1.49676728      -0.07119284
B       -1.10368453       1.35520060       0.00379162
B        0.99807299      -1.53060585       0.05791227
B        1.29254925       1.34736200       0.04141083
B       -1.81510372       0.08026027      -1.16526244
B       -1.78708392      -0.07444637       1.13602702
B        1.76618817       0.17537991      -1.21662550
B        1.74405496       0.10039742       1.21144829
