12
B12 compact_3d; neutral charge=0; multiplicity=5; 3d initial geometry; nominal d=4.5 A; Compact non-planar B12 cage-like cluster.
B        0.00000000       0.00000000       9.05900210
B        6.82679456       0.00000000       4.14139585
B       -3.41339728       5.90112750       4.14139585
B       -3.41339728      -5.90112750       4.14139585
B        4.16550177       6.82679456      -0.19766849
B       -4.16550177       6.82679456      -0.19766849
B        4.16550177      -6.82679456      -0.19766849
B       -4.16550177      -6.82679456      -0.19766849
B        6.47966941       0.00000000      -4.59458702
B       -6.47966941       0.00000000      -4.59458702
B        0.00000000       5.66971074      -5.75167084
B        0.00000000      -5.66971074      -5.75167084
