12
B12 distorted_icosahedron_02; neutral charge=0; multiplicity=5; 3D initial geometry; nominal d=5.0 A; Low-symmetry distorted icosahedron variant 02.
B        0.01659912      -2.61224112      -4.18083522
B        0.14640115      -2.58966079       4.29520308
B       -0.03019876       2.26959792      -3.85628196
B        0.10105012       2.49881849       4.28385683
B       -2.65963560      -4.03989479       0.14583317
B       -2.76300533       3.97355719      -0.03852769
B        2.59839409      -4.15851094      -0.12191155
B        2.67602459       4.23623634      -0.12479047
B       -4.14792428       0.13615676      -2.54847946
B       -4.09266329       0.08655854       2.37375513
B        4.06390455       0.03019539      -2.64810567
B        4.09105364       0.16918702       2.42028381
