12
Coordinates from ORCA-job input E -295.392300697973
  B       0.000000      0.000000      4.026223
  B       3.034131      0.000000      1.840620
  B      -1.517065      2.622723      1.840620
  B      -1.517065     -2.622723      1.840620
  B       1.851334      3.034131     -0.087853
  B      -1.851334      3.034131     -0.087853
  B       1.851334     -3.034131     -0.087853
  B      -1.851334     -3.034131     -0.087853
  B       2.879853      0.000000     -2.042039
  B      -2.879853      0.000000     -2.042039
  B       0.000000      2.519871     -2.556298
  B       0.000000     -2.519871     -2.556298
12
Coordinates from ORCA-job input E -295.414388182416
  B      -0.016433     -0.000314      3.976760
  B       3.028524     -0.000217      1.828717
  B      -1.519394      2.620422      1.787894
  B      -1.519704     -2.621056      1.788251
  B       1.845460      3.026802     -0.093614
  B      -1.832543      3.019705     -0.063294
  B       1.845650     -3.027070     -0.093903
  B      -1.832567     -3.019749     -0.062931
  B       2.873119      0.000548     -2.039039
  B      -2.868995      0.000267     -2.004935
  B      -0.001481      2.518398     -2.512946
  B      -0.001637     -2.517737     -2.510960
12
Coordinates from ORCA-job input E -295.435017441204
  B      -0.032069     -0.001791      3.926787
  B       3.021268     -0.004145      1.816310
  B      -1.520139      2.617873      1.735348
  B      -1.521576     -2.620486      1.737570
  B       1.839603      3.019266     -0.102190
  B      -1.813406      3.006020     -0.041597
  B       1.841128     -3.018888     -0.097784
  B      -1.813310     -3.006262     -0.040357
  B       2.865175      0.002817     -2.033706
  B      -2.857670      0.000722     -1.968525
  B      -0.004555      2.520578     -2.469125
  B      -0.004450     -2.515703     -2.462730
12
Coordinates from ORCA-job input E -295.466454076708
  B      -0.057544     -0.003151      3.847292
  B       3.015823     -0.010182      1.798433
  B      -1.523573      2.618340      1.650519
  B      -1.526393     -2.623830      1.660603
  B       1.835491      3.010482     -0.111918
  B      -1.783716      2.985915     -0.005950
  B       1.837998     -3.009378     -0.101023
  B      -1.785030     -2.988413     -0.006386
  B       2.853938      0.006819     -2.026072
  B      -2.843672      0.001332     -1.912172
  B      -0.012428      2.525855     -2.402637
  B      -0.010895     -2.513788     -2.390691
12
Coordinates from ORCA-job input E -295.494512110864
  B      -0.090132     -0.007618      3.740773
  B       3.001756     -0.016621      1.771524
  B      -1.522450      2.614888      1.543152
  B      -1.529264     -2.627281      1.547917
  B       1.822639      2.994586     -0.131796
  B      -1.742957      2.961657      0.031630
  B       1.828914     -2.992790     -0.108953
  B      -1.742103     -2.963137      0.036478
  B       2.833802      0.012827     -2.014100
  B      -2.822807      0.002009     -1.836635
  B      -0.016818      2.531585     -2.304086
  B      -0.020580     -2.510104     -2.275903
12
Coordinates from ORCA-job input E -295.513549867666
  B      -0.083881     -0.024993      3.738864
  B       2.923338     -0.020697      1.743014
  B      -1.490549      2.559118      1.574431
  B      -1.504157     -2.579795      1.498960
  B       1.750654      2.953665     -0.187922
  B      -1.741010      2.948444      0.004221
  B       1.773443     -2.948754     -0.150188
  B      -1.716773     -2.919465      0.061584
  B       2.818235      0.009638     -2.009687
  B      -2.775383      0.004064     -1.823805
  B       0.032655      2.507332     -2.255820
  B       0.013427     -2.488556     -2.193653
12
Coordinates from ORCA-job input E -295.531483202957
  B      -0.078858     -0.021889      3.734934
  B       2.872841     -0.020204      1.720542
  B      -1.475427      2.522789      1.576707
  B      -1.490529     -2.547527      1.496004
  B       1.700997      2.924981     -0.230443
  B      -1.744092      2.934944      0.013665
  B       1.731863     -2.921838     -0.184757
  B      -1.710597     -2.903019      0.061546
  B       2.813914      0.006398     -2.010522
  B      -2.743778      0.006873     -1.818678
  B       0.077094      2.489430     -2.212606
  B       0.046572     -2.470939     -2.146391
12
Coordinates from ORCA-job input E -295.545278561817
  B      -0.076260     -0.018029      3.730645
  B       2.839929     -0.019342      1.704758
  B      -1.466980      2.502213      1.574827
  B      -1.482499     -2.528833      1.496785
  B       1.668542      2.906309     -0.259605
  B      -1.745149      2.925702      0.023601
  B       1.703916     -2.904901     -0.208178
  B      -1.707200     -2.895202      0.059568
  B       2.811738      0.004425     -2.011459
  B      -2.722699      0.008797     -1.814240
  B       0.107223      2.479166     -2.181258
  B       0.069439     -2.460305     -2.115443
12
Coordinates from ORCA-job input E -295.566625294672
  B      -0.072944     -0.015915      3.721582
  B       2.791298     -0.018274      1.680752
  B      -1.454043      2.473400      1.575430
  B      -1.471173     -2.503762      1.490707
  B       1.619448      2.878394     -0.303965
  B      -1.745519      2.914124      0.032726
  B       1.662996     -2.879463     -0.242442
  B      -1.699473     -2.881836      0.061672
  B       2.806756      0.002116     -2.011656
  B      -2.691217      0.011490     -1.806289
  B       0.151802      2.465152     -2.133488
  B       0.102070     -2.445426     -2.065028
12
Coordinates from ORCA-job input E -295.598294486316
  B      -0.066328     -0.016442      3.708585
  B       2.721596     -0.015964      1.648908
  B      -1.431900      2.430459      1.579014
  B      -1.453813     -2.468121      1.477942
  B       1.552292      2.838651     -0.361839
  B      -1.744208      2.897230      0.039843
  B       1.603237     -2.840472     -0.290574
  B      -1.686224     -2.860284      0.067625
  B       2.795205      0.000343     -2.008233
  B      -2.647521      0.014105     -1.796719
  B       0.211533      2.444346     -2.072446
  B       0.146131     -2.423851     -1.992107
12
Coordinates from ORCA-job input E -295.632172241460
  B      -0.058051     -0.014953      3.695049
  B       2.651190     -0.010797      1.617532
  B      -1.409509      2.389829      1.580615
  B      -1.435664     -2.433218      1.469151
  B       1.486235      2.797132     -0.417984
  B      -1.742026      2.878926      0.049507
  B       1.541861     -2.800255     -0.339544
  B      -1.673196     -2.840763      0.070653
  B       2.781979     -0.000740     -2.002425
  B      -2.604061      0.015999     -1.788788
  B       0.272056      2.421867     -2.010658
  B       0.189186     -2.403025     -1.923107
12
Coordinates from ORCA-job input E -295.657594858968
  B      -0.050899     -0.009308      3.683583
  B       2.599760     -0.004334      1.594954
  B      -1.394715      2.363930      1.577874
  B      -1.421795     -2.408215      1.468829
  B       1.439671      2.765144     -0.457264
  B      -1.739828      2.863722      0.062681
  B       1.497799     -2.771549     -0.374637
  B      -1.664784     -2.829935      0.067700
  B       2.772168     -0.001409     -1.996591
  B      -2.572887      0.017197     -1.783934
  B       0.316741      2.403962     -1.963492
  B       0.218768     -2.389206     -1.879702
12
Coordinates from ORCA-job input E -295.675725453718
  B      -0.044714      0.006833      3.674948
  B       2.564689      0.003695      1.581063
  B      -1.387812      2.351725      1.563334
  B      -1.410984     -2.390126      1.487987
  B       1.415441      2.745298     -0.475098
  B      -1.735640      2.846709      0.089735
  B       1.467729     -2.754512     -0.398468
  B      -1.663965     -2.832903      0.048476
  B       2.765664     -0.002149     -1.992116
  B      -2.553030      0.017385     -1.782668
  B       0.344548      2.389945     -1.934789
  B       0.238074     -2.381902     -1.862405
12
Coordinates from ORCA-job input E -295.699431459936
  B      -0.034265      0.016156      3.653207
  B       2.507818      0.011224      1.558930
  B      -1.369492      2.324064      1.554008
  B      -1.392695     -2.365000      1.488624
  B       1.377313      2.712537     -0.501865
  B      -1.727475      2.827929      0.103865
  B       1.418812     -2.720945     -0.433899
  B      -1.650944     -2.822402      0.038893
  B       2.748892     -0.001451     -1.980237
  B      -2.521986      0.016563     -1.777554
  B       0.380194      2.369321     -1.890868
  B       0.263828     -2.367994     -1.813105
12
Coordinates from ORCA-job input E -295.738869191285
  B      -0.016510      0.038994      3.612735
  B       2.414690      0.030207      1.521529
  B      -1.341197      2.287973      1.542806
  B      -1.356012     -2.320151      1.492752
  B       1.316288      2.652846     -0.539728
  B      -1.713527      2.805887      0.126871
  B       1.362160     -2.679827     -0.477609
  B      -1.623731     -2.805946      0.009017
  B       2.721442     -0.014765     -1.952834
  B      -2.485435      0.018372     -1.772000
  B       0.428038      2.342005     -1.808490
  B       0.293794     -2.355597     -1.755048
12
Coordinates from ORCA-job input E -295.768193435502
  B      -0.008174      0.081549      3.567500
  B       2.324313      0.040365      1.514952
  B      -1.290653      2.186320      1.556338
  B      -1.317172     -2.241856      1.488120
  B       1.279266      2.602079     -0.549597
  B      -1.698291      2.736313      0.134149
  B       1.291741     -2.624271     -0.509541
  B      -1.594492     -2.756524     -0.026971
  B       2.684515     -0.015739     -1.928996
  B      -2.431983      0.017630     -1.748912
  B       0.450745      2.290000     -1.790335
  B       0.310185     -2.315866     -1.706709
12
Coordinates from ORCA-job input E -295.793700865169
  B      -0.000558      0.109163      3.535210
  B       2.273130      0.048445      1.522916
  B      -1.247490      2.116106      1.561625
  B      -1.286736     -2.189374      1.484162
  B       1.273301      2.581987     -0.529372
  B      -1.675337      2.685426      0.130999
  B       1.257517     -2.595970     -0.505882
  B      -1.566831     -2.723403     -0.068699
  B       2.646342     -0.010911     -1.905103
  B      -2.409071      0.011217     -1.739488
  B       0.442438      2.259249     -1.802934
  B       0.293296     -2.291934     -1.683436
12
Coordinates from ORCA-job input E -295.836532849645
  B       0.005550      0.137165      3.477414
  B       2.214806      0.058415      1.541243
  B      -1.178857      2.009201      1.574732
  B      -1.247644     -2.118752      1.446042
  B       1.269376      2.555769     -0.496084
  B      -1.635075      2.611941      0.104097
  B       1.231071     -2.562180     -0.474409
  B      -1.516544     -2.658092     -0.111146
  B       2.583949      0.000300     -1.865624
  B      -2.386173      0.004351     -1.720175
  B       0.414157      2.221657     -1.822856
  B       0.245385     -2.259773     -1.653235
12
Coordinates from ORCA-job input E -295.882097355786
  B       0.003893      0.170125      3.402516
  B       2.154012      0.070635      1.552234
  B      -1.115815      1.913849      1.576993
  B      -1.208958     -2.052342      1.399804
  B       1.263631      2.523953     -0.462555
  B      -1.590156      2.540075      0.088656
  B       1.206024     -2.531394     -0.448039
  B      -1.457675     -2.592339     -0.149859
  B       2.521891      0.006270     -1.826499
  B      -2.360882     -0.001594     -1.688534
  B       0.385472      2.185853     -1.826620
  B       0.198562     -2.233091     -1.618096
12
Coordinates from ORCA-job input E -295.931347666284
  B      -0.002281      0.207286      3.325218
  B       2.097236      0.084862      1.564151
  B      -1.053982      1.823016      1.575461
  B      -1.171460     -1.984412      1.356900
  B       1.257524      2.490240     -0.424180
  B      -1.540705      2.465020      0.079841
  B       1.182718     -2.500798     -0.425169
  B      -1.398320     -2.529413     -0.191782
  B       2.461711      0.009111     -1.791405
  B      -2.337113     -0.004672     -1.658776
  B       0.351101      2.147210     -1.827981
  B       0.153570     -2.207449     -1.582277
12
Coordinates from ORCA-job input E -295.992129308574
  B      -0.007936      0.244885      3.245978
  B       2.038077      0.099161      1.575128
  B      -0.991554      1.733771      1.574567
  B      -1.134440     -1.913345      1.318582
  B       1.247368      2.457721     -0.387949
  B      -1.489991      2.388758      0.072773
  B       1.158569     -2.470238     -0.405424
  B      -1.341928     -2.469284     -0.235721
  B       2.404789      0.011050     -1.757870
  B      -2.311699     -0.008343     -1.630296
  B       0.317627      2.107831     -1.824212
  B       0.111119     -2.181967     -1.545556
12
Coordinates from ORCA-job input E -296.053022861819
  B      -0.020390      0.276824      3.152017
  B       1.980825      0.112564      1.578356
  B      -0.934289      1.658766      1.575755
  B      -1.103312     -1.870484      1.255047
  B       1.240054      2.433045     -0.352247
  B      -1.440347      2.329729      0.064388
  B       1.133432     -2.445568     -0.387135
  B      -1.274401     -2.415617     -0.258826
  B       2.347925      0.010522     -1.726983
  B      -2.280209     -0.005671     -1.591601
  B       0.283928      2.077698     -1.819839
  B       0.066785     -2.161809     -1.488932
12
Coordinates from ORCA-job input E -296.106672763504
  B      -0.030252      0.305197      3.079607
  B       1.941247      0.125175      1.579377
  B      -0.894379      1.608799      1.577538
  B      -1.083034     -1.838463      1.221624
  B       1.232491      2.415550     -0.330587
  B      -1.403545      2.285568      0.065658
  B       1.117304     -2.431285     -0.372249
  B      -1.232296     -2.384785     -0.282674
  B       2.311985      0.010868     -1.706716
  B      -2.258859     -0.004887     -1.566438
  B       0.263169      2.057585     -1.808374
  B       0.036169     -2.149321     -1.456767
12
Coordinates from ORCA-job input E -296.139105275073
  B      -0.030703      0.325876      3.032434
  B       1.912956      0.131905      1.583974
  B      -0.868812      1.571875      1.579296
  B      -1.064339     -1.802226      1.214905
  B       1.224039      2.402230     -0.321162
  B      -1.385082      2.250641      0.071466
  B       1.104172     -2.422872     -0.362292
  B      -1.206753     -2.364713     -0.308358
  B       2.290629      0.011386     -1.692242
  B      -2.247633     -0.003733     -1.558427
  B       0.254362      2.042386     -1.796676
  B       0.017165     -2.142756     -1.442917
12
Coordinates from ORCA-job input E -296.173846387539
  B      -0.034545      0.349390      2.972255
  B       1.885651      0.138432      1.583330
  B      -0.848841      1.542844      1.569413
  B      -1.049218     -1.769203      1.200505
  B       1.210789      2.385406     -0.320239
  B      -1.364363      2.214259      0.087900
  B       1.093696     -2.416152     -0.353171
  B      -1.182291     -2.345533     -0.326295
  B       2.272576      0.010816     -1.678353
  B      -2.236948     -0.001322     -1.542107
  B       0.251036      2.029985     -1.764821
  B       0.002458     -2.138921     -1.428415
12
Coordinates from ORCA-job input E -296.225045743377
  B      -0.041306      0.382808      2.875299
  B       1.840695      0.150020      1.580022
  B      -0.815706      1.495179      1.555146
  B      -1.030536     -1.720251      1.176143
  B       1.188056      2.358555     -0.320682
  B      -1.330993      2.157936      0.112687
  B       1.079263     -2.403560     -0.338880
  B      -1.151399     -2.315873     -0.343938
  B       2.246339      0.012520     -1.657731
  B      -2.218185      0.002534     -1.513655
  B       0.248582      2.010472     -1.715859
  B      -0.014808     -2.130341     -1.408553
12
Coordinates from ORCA-job input E -296.291825717231
  B      -0.040571      0.414483      2.738737
  B       1.766196      0.165149      1.579149
  B      -0.762603      1.421384      1.530312
  B      -1.000826     -1.642987      1.150219
  B       1.151707      2.318856     -0.317051
  B      -1.280250      2.074063      0.133079
  B       1.057042     -2.379119     -0.316866
  B      -1.116856     -2.269346     -0.360151
  B       2.205451      0.021481     -1.624259
  B      -2.186763      0.009167     -1.474458
  B       0.241674      1.978455     -1.652223
  B      -0.034201     -2.111585     -1.386487
12
Coordinates from ORCA-job input E -296.364069516593
  B      -0.022222      0.413545      2.616754
  B       1.678598      0.174301      1.584143
  B      -0.709945      1.346546      1.489930
  B      -0.960943     -1.555579      1.137708
  B       1.109634      2.276208     -0.308552
  B      -1.228226      1.988046      0.127440
  B       1.032333     -2.345928     -0.293509
  B      -1.094481     -2.212746     -0.359736
  B       2.160540      0.038131     -1.585811
  B      -2.149199      0.019762     -1.435980
  B       0.229969      1.940504     -1.597670
  B      -0.046058     -2.082788     -1.374716
12
Coordinates from ORCA-job input E -296.406472791248
  B      -0.003624      0.395951      2.547763
  B       1.613846      0.181187      1.586627
  B      -0.676569      1.299981      1.453775
  B      -0.931305     -1.502695      1.131067
  B       1.081908      2.249319     -0.300581
  B      -1.190357      1.935260      0.109374
  B       1.016251     -2.322211     -0.279216
  B      -1.086659     -2.174603     -0.344963
  B       2.130885      0.053422     -1.560797
  B      -2.125426      0.029183     -1.411828
  B       0.221145      1.917455     -1.562347
  B      -0.050096     -2.062251     -1.368872
12
Coordinates from ORCA-job input E -296.470430037351
  B       0.031501      0.342599      2.454767
  B       1.526954      0.176744      1.591502
  B      -0.631431      1.230356      1.406946
  B      -0.887168     -1.428858      1.126413
  B       1.051009      2.217788     -0.276109
  B      -1.143193      1.870818      0.052695
  B       0.995391     -2.281294     -0.259992
  B      -1.092627     -2.114014     -0.293262
  B       2.090165      0.083750     -1.521815
  B      -2.095959      0.042203     -1.386600
  B       0.199342      1.886362     -1.532790
  B      -0.043984     -2.026454     -1.361756
12
Coordinates from ORCA-job input E -296.529973814428
  B       0.061793      0.280876      2.383818
  B       1.461169      0.158057      1.598938
  B      -0.604519      1.175623      1.345542
  B      -0.829802     -1.346327      1.126942
  B       1.012597      2.179273     -0.254120
  B      -1.099736      1.808155     -0.005485
  B       0.981333     -2.242841     -0.236484
  B      -1.088465     -2.047249     -0.252612
  B       2.041404      0.111281     -1.481549
  B      -2.062453      0.062992     -1.364051
  B       0.175634      1.847960     -1.504505
  B      -0.048957     -1.987800     -1.356434
12
Coordinates from ORCA-job input E -296.572135920043
  B       0.063885      0.227449      2.358191
  B       1.436059      0.139914      1.598414
  B      -0.594424      1.132789      1.308048
  B      -0.786562     -1.281998      1.139848
  B       0.993155      2.153320     -0.234821
  B      -1.069310      1.768327     -0.057589
  B       0.971637     -2.213182     -0.224575
  B      -1.083808     -1.998047     -0.220441
  B       2.004357      0.132430     -1.461092
  B      -2.038445      0.077754     -1.356076
  B       0.155652      1.819385     -1.496745
  B      -0.052197     -1.958140     -1.353161
12
Coordinates from ORCA-job input E -296.631804507429
  B       0.057058      0.147493      2.347457
  B       1.414922      0.111612      1.598007
  B      -0.589842      1.077633      1.250617
  B      -0.722999     -1.193579      1.164528
  B       0.965753      2.113942     -0.214652
  B      -1.027002      1.712601     -0.133082
  B       0.956970     -2.169041     -0.210966
  B      -1.068197     -1.926658     -0.183161
  B       1.943227      0.162412     -1.435269
  B      -1.996599      0.100928     -1.345712
  B       0.130118      1.774458     -1.490292
  B      -0.063409     -1.911800     -1.347475
12
Coordinates from ORCA-job input E -296.686450337560
  B       0.036516      0.080814      2.324600
  B       1.390473      0.091390      1.585839
  B      -0.577729      1.011177      1.204964
  B      -0.667242     -1.105895      1.188589
  B       0.936529      2.069272     -0.195753
  B      -0.979692      1.652430     -0.197298
  B       0.940447     -2.121317     -0.199433
  B      -1.047502     -1.854833     -0.149102
  B       1.879118      0.192225     -1.412121
  B      -1.945193      0.123373     -1.329014
  B       0.108976      1.725942     -1.482261
  B      -0.074700     -1.864579     -1.339012
12
Coordinates from ORCA-job input E -296.735488922791
  B       0.012490      0.007283      2.318989
  B       1.370091      0.075538      1.568136
  B      -0.576401      0.952516      1.153175
  B      -0.620372     -1.033573      1.224594
  B       0.902741      2.014908     -0.187158
  B      -0.938585      1.590064     -0.255917
  B       0.921368     -2.065598     -0.195978
  B      -1.025234     -1.779464     -0.111318
  B       1.804191      0.227919     -1.389810
  B      -1.870545      0.149712     -1.299549
  B       0.105169      1.670039     -1.488147
  B      -0.084913     -1.809343     -1.337017
12
Coordinates from ORCA-job input E -296.781766424193
  B       0.012576     -0.023234      2.324830
  B       1.330451      0.085501      1.554572
  B      -0.555037      0.889427      1.138094
  B      -0.586849     -0.980318      1.243748
  B       0.872980      1.954136     -0.170877
  B      -0.909220      1.516208     -0.303007
  B       0.892940     -2.007459     -0.198546
  B      -1.006055     -1.713332     -0.106844
  B       1.723994      0.261170     -1.361870
  B      -1.777844      0.170055     -1.268306
  B       0.106347      1.600528     -1.509842
  B      -0.104281     -1.752681     -1.341953
12
Coordinates from ORCA-job input E -296.834841732001
  B       0.005676     -0.039336      2.357303
  B       1.283712      0.101591      1.532762
  B      -0.546007      0.844746      1.137763
  B      -0.571168     -0.944381      1.257570
  B       0.850173      1.885790     -0.170123
  B      -0.884300      1.440987     -0.336505
  B       0.867887     -1.946861     -0.218535
  B      -0.990076     -1.650025     -0.100913
  B       1.649242      0.293972     -1.350510
  B      -1.679105      0.183180     -1.216747
  B       0.124824      1.525612     -1.532103
  B      -0.110859     -1.695274     -1.359961
12
Coordinates from ORCA-job input E -296.887604344652
  B       0.008639     -0.038110      2.405901
  B       1.247533      0.120213      1.518774
  B      -0.536392      0.836677      1.144183
  B      -0.567550     -0.931986      1.260452
  B       0.829285      1.815257     -0.168596
  B      -0.850083      1.385775     -0.353727
  B       0.847581     -1.887345     -0.240055
  B      -0.975908     -1.601008     -0.105387
  B       1.561895      0.322775     -1.337164
  B      -1.596365      0.172001     -1.185853
  B       0.148233      1.441364     -1.545128
  B      -0.116868     -1.635612     -1.393400
12
Coordinates from ORCA-job input E -296.935072372993
  B       0.008687     -0.017477      2.449090
  B       1.213914      0.149100      1.494355
  B      -0.527759      0.847466      1.176068
  B      -0.575757     -0.925156      1.281535
  B       0.819263      1.742939     -0.155404
  B      -0.818649      1.346523     -0.339345
  B       0.835029     -1.829811     -0.266519
  B      -0.965380     -1.563595     -0.128431
  B       1.479901      0.342167     -1.333561
  B      -1.522473      0.129256     -1.172597
  B       0.179569      1.350990     -1.560251
  B      -0.126344     -1.572402     -1.444940
12
Coordinates from ORCA-job input E -296.971481264892
  B       0.003216     -0.000820      2.456111
  B       1.194746      0.175380      1.448915
  B      -0.527008      0.850350      1.196603
  B      -0.586281     -0.914889      1.284012
  B       0.809416      1.663461     -0.130140
  B      -0.807719      1.305492     -0.327205
  B       0.826810     -1.770668     -0.285144
  B      -0.943862     -1.500523     -0.141664
  B       1.424848      0.317822     -1.318208
  B      -1.439736      0.096207     -1.148648
  B       0.172731      1.267739     -1.559424
  B      -0.127161     -1.489553     -1.475208
12
Coordinates from ORCA-job input E -297.007616686052
  B       0.002551      0.025071      2.466659
  B       1.183935      0.197296      1.398163
  B      -0.532085      0.879844      1.223577
  B      -0.600960     -0.915865      1.295095
  B       0.803067      1.589485     -0.105407
  B      -0.810620      1.291162     -0.299200
  B       0.829106     -1.723081     -0.305242
  B      -0.927836     -1.454245     -0.168106
  B       1.391319      0.261928     -1.298355
  B      -1.371927      0.057999     -1.137761
  B       0.148642      1.200333     -1.554797
  B      -0.115192     -1.409927     -1.514628
12
Coordinates from ORCA-job input E -297.043625992156
  B       0.005076      0.045908      2.460372
  B       1.169744      0.214144      1.344993
  B      -0.536261      0.904376      1.247805
  B      -0.606889     -0.909720      1.311032
  B       0.796589      1.515098     -0.075312
  B      -0.820909      1.281629     -0.275207
  B       0.830776     -1.675968     -0.321348
  B      -0.909519     -1.405720     -0.196081
  B       1.361814      0.201291     -1.273988
  B      -1.309178      0.021273     -1.133319
  B       0.121714      1.135701     -1.546930
  B      -0.102956     -1.328014     -1.542017
12
Coordinates from ORCA-job input E -297.078885606198
  B       0.008583      0.054779      2.438224
  B       1.170351      0.226242      1.281996
  B      -0.552229      0.948985      1.264738
  B      -0.610815     -0.920819      1.333220
  B       0.794144      1.448687     -0.046098
  B      -0.849853      1.308357     -0.254476
  B       0.848286     -1.643773     -0.331898
  B      -0.898371     -1.378385     -0.206093
  B       1.355185      0.125380     -1.245685
  B      -1.279598     -0.002883     -1.142992
  B       0.093709      1.091887     -1.524844
  B      -0.079394     -1.258458     -1.566091
12
Coordinates from ORCA-job input E -297.110530470596
  B       0.021781      0.052731      2.403460
  B       1.148851      0.226043      1.226205
  B      -0.553999      0.965925      1.261897
  B      -0.596955     -0.920721      1.337717
  B       0.779587      1.376486     -0.028171
  B      -0.880256      1.319763     -0.253619
  B       0.865524     -1.591164     -0.332583
  B      -0.881478     -1.336967     -0.206125
  B       1.340921      0.043231     -1.199402
  B      -1.261677      0.003599     -1.142745
  B       0.066448      1.033242     -1.500240
  B      -0.048747     -1.172169     -1.566395
12
Coordinates from ORCA-job input E -297.135255713368
  B       0.039876      0.031382      2.380977
  B       1.140071      0.218898      1.168404
  B      -0.567041      0.991337      1.253921
  B      -0.589165     -0.943667      1.354955
  B       0.780797      1.327350     -0.035704
  B      -0.927053      1.349053     -0.266339
  B       0.897066     -1.538245     -0.328812
  B      -0.890884     -1.315635     -0.193054
  B       1.356461     -0.021642     -1.148505
  B      -1.281722      0.001791     -1.145373
  B       0.069710      0.981117     -1.479102
  B      -0.028115     -1.081739     -1.561370
12
Coordinates from ORCA-job input E -297.153409183422
  B       0.068969      0.023311      2.354174
  B       1.120994      0.211454      1.125648
  B      -0.543322      0.983270      1.244501
  B      -0.577634     -0.969968      1.357835
  B       0.765872      1.298125     -0.045117
  B      -0.953803      1.355202     -0.294320
  B       0.915239     -1.488331     -0.298375
  B      -0.901436     -1.300222     -0.198330
  B       1.381564     -0.064997     -1.075376
  B      -1.312848      0.020944     -1.150348
  B       0.059728      0.922734     -1.471591
  B      -0.023323     -0.991521     -1.548703
12
Coordinates from ORCA-job input E -297.167897003820
  B       0.088382     -0.003657      2.330163
  B       1.118615      0.202377      1.067086
  B      -0.540588      0.996532      1.228993
  B      -0.586112     -1.013868      1.353237
  B       0.760681      1.296037     -0.082963
  B      -0.983386      1.368086     -0.303735
  B       0.922625     -1.461218     -0.263314
  B      -0.923789     -1.291947     -0.183749
  B       1.426871     -0.067217     -1.019151
  B      -1.346833      0.022186     -1.131899
  B       0.084683      0.861689     -1.462085
  B      -0.021149     -0.909001     -1.532580
12
Coordinates from ORCA-job input E -297.179577914404
  B       0.117857     -0.039011      2.297644
  B       1.114652      0.179962      1.040196
  B      -0.512278      0.991007      1.219255
  B      -0.561563     -1.031076      1.362171
  B       0.742346      1.330144     -0.099083
  B      -1.005939      1.398006     -0.327150
  B       0.905821     -1.462029     -0.199874
  B      -0.931764     -1.296831     -0.204736
  B       1.472535     -0.071457     -0.952161
  B      -1.400226      0.040468     -1.144797
  B       0.066914      0.834715     -1.477683
  B      -0.008355     -0.873899     -1.513783
12
Coordinates from ORCA-job input E -297.190064724498
  B       0.138675     -0.030969      2.296887
  B       1.111558      0.173963      0.991586
  B      -0.469951      0.990153      1.217309
  B      -0.574983     -1.061486      1.302219
  B       0.723517      1.372659     -0.111322
  B      -0.987002      1.394785     -0.318418
  B       0.868448     -1.456321     -0.150602
  B      -0.942252     -1.307640     -0.223115
  B       1.492009     -0.057054     -0.891695
  B      -1.420656      0.037299     -1.124388
  B       0.046223      0.796175     -1.484729
  B       0.014413     -0.851563     -1.503733
12
Coordinates from ORCA-job input E -297.198078551671
  B       0.138944     -0.049109      2.242562
  B       1.100840      0.145966      0.914533
  B      -0.451962      0.999465      1.205871
  B      -0.562719     -1.053494      1.284042
  B       0.717525      1.414459     -0.115835
  B      -0.974992      1.385255     -0.297796
  B       0.822970     -1.443064     -0.104051
  B      -0.960569     -1.316527     -0.237351
  B       1.513169     -0.022091     -0.824755
  B      -1.426730      0.013269     -1.079713
  B       0.059507      0.784619     -1.479985
  B       0.024015     -0.858748     -1.507521
12
Coordinates from ORCA-job input E -297.199275778130
  B       0.148367     -0.067937      2.264089
  B       1.087012      0.093093      0.909336
  B      -0.447880      1.044498      1.203842
  B      -0.517139     -1.069133      1.274565
  B       0.696675      1.469730     -0.146461
  B      -0.978836      1.403315     -0.294925
  B       0.767298     -1.436485     -0.079089
  B      -0.936164     -1.347919     -0.254580
  B       1.491923     -0.033153     -0.796245
  B      -1.406777      0.035228     -1.076100
  B       0.046768      0.776194     -1.490818
  B       0.048753     -0.867432     -1.513613
12
Coordinates from ORCA-job input E -297.201380240931
  B       0.147233     -0.045067      2.265563
  B       1.093694      0.103634      0.910759
  B      -0.442567      1.041137      1.229017
  B      -0.521856     -1.064841      1.261111
  B       0.747044      1.492047     -0.139849
  B      -0.982317      1.386763     -0.303988
  B       0.763400     -1.445803     -0.083384
  B      -0.972942     -1.369439     -0.280081
  B       1.503676     -0.010401     -0.794270
  B      -1.430944      0.003525     -1.068281
  B       0.048635      0.788274     -1.481264
  B       0.046946     -0.879829     -1.515333
12
Coordinates from ORCA-job input E -297.200574834785
  B       0.143429     -0.033513      2.241530
  B       1.066626      0.091952      0.928964
  B      -0.427126      1.031849      1.220595
  B      -0.494776     -1.049741      1.229831
  B       0.741862      1.454178     -0.136474
  B      -0.988390      1.383652     -0.300359
  B       0.750498     -1.411929     -0.090377
  B      -0.959469     -1.345232     -0.280209
  B       1.495829     -0.021846     -0.788751
  B      -1.437351     -0.021374     -1.049887
  B       0.063160      0.768888     -1.477946
  B       0.045708     -0.846884     -1.496917
12
Coordinates from ORCA-job input E -297.201657457749
  B       0.111849     -0.010317      2.248450
  B       1.068464      0.095830      0.908927
  B      -0.447491      1.049003      1.221775
  B      -0.499071     -1.064408      1.263890
  B       0.738209      1.437730     -0.135665
  B      -0.978743      1.362454     -0.286256
  B       0.776584     -1.429688     -0.107701
  B      -0.962864     -1.369715     -0.272260
  B       1.505319     -0.020276     -0.809166
  B      -1.424673      0.030607     -1.031912
  B       0.061137      0.765941     -1.474683
  B       0.051281     -0.847164     -1.525399
12
Coordinates from ORCA-job input E -297.202582259736
  B       0.113163     -0.023094      2.265725
  B       1.071601      0.083240      0.920158
  B      -0.444897      1.068923      1.220642
  B      -0.486441     -1.066484      1.249602
  B       0.737646      1.469353     -0.134074
  B      -0.971673      1.397440     -0.289236
  B       0.768131     -1.441571     -0.110108
  B      -0.958850     -1.391624     -0.272191
  B       1.503259     -0.018929     -0.805497
  B      -1.430515      0.011798     -1.047347
  B       0.055161      0.795735     -1.479428
  B       0.043414     -0.884787     -1.518247
12
Coordinates from ORCA-job input E -297.203641956854
  B       0.116193     -0.026272      2.270192
  B       1.070456      0.077573      0.922585
  B      -0.440439      1.059055      1.220230
  B      -0.478736     -1.061381      1.245729
  B       0.746670      1.463686     -0.139694
  B      -0.977119      1.387222     -0.305920
  B       0.766863     -1.428642     -0.108503
  B      -0.967375     -1.373730     -0.282310
  B       1.504267     -0.017567     -0.791287
  B      -1.432712      0.000048     -1.037151
  B       0.050093      0.778166     -1.482021
  B       0.041839     -0.858159     -1.511848
12
Coordinates from ORCA-job input E -297.203957656481
  B       0.107652     -0.012716      2.255048
  B       1.061311      0.077389      0.922452
  B      -0.438340      1.057437      1.221331
  B      -0.469972     -1.063958      1.238310
  B       0.747178      1.454160     -0.137249
  B      -0.976156      1.386866     -0.298435
  B       0.762529     -1.429747     -0.109061
  B      -0.962705     -1.379959     -0.277905
  B       1.503472     -0.015968     -0.792077
  B      -1.433349      0.005355     -1.027629
  B       0.054871      0.778421     -1.481211
  B       0.043508     -0.857280     -1.513575
12
Coordinates from ORCA-job input E -297.204327568281
  B       0.097105     -0.007223      2.260717
  B       1.059950      0.069016      0.927437
  B      -0.440729      1.062032      1.214550
  B      -0.456335     -1.067487      1.237603
  B       0.745306      1.455802     -0.138181
  B      -0.974391      1.387515     -0.302543
  B       0.762718     -1.433102     -0.114924
  B      -0.965674     -1.382931     -0.279159
  B       1.506740     -0.017529     -0.792194
  B      -1.433479      0.007833     -1.012019
  B       0.055160      0.782859     -1.484006
  B       0.043630     -0.856783     -1.517281
12
Coordinates from ORCA-job input E -297.204678568158
  B       0.085531     -0.001827      2.265342
  B       1.059717      0.059241      0.930398
  B      -0.442054      1.071708      1.211966
  B      -0.439918     -1.073133      1.235627
  B       0.749007      1.453022     -0.140857
  B      -0.973867      1.402207     -0.305649
  B       0.763413     -1.434961     -0.121668
  B      -0.967194     -1.392631     -0.283519
  B       1.505663     -0.016071     -0.785378
  B      -1.438633      0.006079     -1.000110
  B       0.052730      0.781080     -1.486621
  B       0.045605     -0.854713     -1.519530
12
Coordinates from ORCA-job input E -297.204985145964
  B       0.070865      0.002682      2.264039
  B       1.058795      0.050646      0.939707
  B      -0.441988      1.073527      1.205870
  B      -0.425442     -1.076916      1.230218
  B       0.751782      1.449673     -0.142977
  B      -0.971473      1.410431     -0.310964
  B       0.763093     -1.434077     -0.126616
  B      -0.968459     -1.396230     -0.283794
  B       1.505500     -0.011969     -0.783343
  B      -1.437287      0.003890     -0.979208
  B       0.051437      0.781836     -1.491546
  B       0.043178     -0.853494     -1.521388
12
Coordinates from ORCA-job input E -297.205310591805
  B       0.052938      0.009146      2.257803
  B       1.062130      0.038187      0.948236
  B      -0.439746      1.072679      1.193778
  B      -0.407149     -1.085455      1.221961
  B       0.752380      1.445239     -0.143051
  B      -0.969238      1.425748     -0.322672
  B       0.761875     -1.430788     -0.127545
  B      -0.971999     -1.407905     -0.282328
  B       1.505068     -0.004623     -0.774738
  B      -1.435807      0.005559     -0.948311
  B       0.050114      0.782387     -1.498155
  B       0.039435     -0.850175     -1.524979
12
Coordinates from ORCA-job input E -297.205408343480
  B       0.026607      0.022527      2.244818
  B       1.067752      0.018741      0.965557
  B      -0.439010      1.081348      1.184466
  B      -0.398247     -1.086439      1.210350
  B       0.749015      1.438234     -0.144698
  B      -0.965491      1.449866     -0.322549
  B       0.768801     -1.423471     -0.138439
  B      -0.975452     -1.419847     -0.289364
  B       1.502848     -0.000618     -0.776948
  B      -1.427908     -0.001062     -0.898762
  B       0.046985      0.773561     -1.497723
  B       0.044101     -0.852840     -1.536707
12
Coordinates from ORCA-job input E -297.205825181411
  B       0.014880      0.020275      2.248986
  B       1.072262      0.012487      0.976888
  B      -0.437452      1.074182      1.172685
  B      -0.393139     -1.091793      1.208256
  B       0.752399      1.431023     -0.143396
  B      -0.966284      1.470229     -0.340792
  B       0.760970     -1.417465     -0.137729
  B      -0.971108     -1.441237     -0.286921
  B       1.497600      0.013262     -0.778065
  B      -1.413454      0.004998     -0.868079
  B       0.047022      0.776802     -1.511881
  B       0.036303     -0.852764     -1.539953
12
Coordinates from ORCA-job input E -297.206270723968
  B       0.017523      0.017084      2.247643
  B       1.074567      0.008301      0.976400
  B      -0.431474      1.073473      1.162253
  B      -0.399907     -1.089269      1.200483
  B       0.747639      1.431773     -0.141619
  B      -0.966764      1.484400     -0.350632
  B       0.754364     -1.407747     -0.131900
  B      -0.972935     -1.463201     -0.290602
  B       1.497040      0.015857     -0.772611
  B      -1.401997      0.002435     -0.845342
  B       0.046050      0.778929     -1.510417
  B       0.035894     -0.852035     -1.543655
12
Coordinates from ORCA-job input E -297.207150998732
  B       0.015251      0.018631      2.245748
  B       1.075630      0.000590      0.982373
  B      -0.425990      1.078632      1.149856
  B      -0.419795     -1.074172      1.179920
  B       0.743612      1.422799     -0.140099
  B      -0.970698      1.516830     -0.361527
  B       0.745260     -1.385774     -0.132273
  B      -0.969001     -1.511967     -0.305009
  B       1.493144      0.015805     -0.768552
  B      -1.367116     -0.003624     -0.778624
  B       0.041618      0.778169     -1.509503
  B       0.038086     -0.855919     -1.562308
12
Coordinates from ORCA-job input E -297.207733641532
  B       0.017166      0.021554      2.247193
  B       1.066605      0.004193      0.987018
  B      -0.423447      1.092016      1.152709
  B      -0.442887     -1.051909      1.161918
  B       0.744434      1.413463     -0.142846
  B      -0.968098      1.533031     -0.360623
  B       0.738591     -1.372863     -0.140531
  B      -0.960482     -1.553369     -0.319798
  B       1.486173      0.006949     -0.768331
  B      -1.336296     -0.019063     -0.731332
  B       0.037880      0.778814     -1.505840
  B       0.040361     -0.852816     -1.579537
12
Coordinates from ORCA-job input E -297.207946415564
  B       0.015314      0.023011      2.243730
  B       1.057566      0.005157      0.984692
  B      -0.425591      1.103155      1.160288
  B      -0.446181     -1.047775      1.156444
  B       0.749761      1.410383     -0.145462
  B      -0.966935      1.532622     -0.355438
  B       0.738410     -1.375082     -0.144399
  B      -0.953530     -1.558958     -0.323038
  B       1.483103      0.002073     -0.766402
  B      -1.331305     -0.025463     -0.717528
  B       0.037343      0.780289     -1.511550
  B       0.042047     -0.849412     -1.581337
12
Coordinates from ORCA-job input E -297.208007517242
  B       0.009486      0.027586      2.237047
  B       1.055349      0.002867      0.992412
  B      -0.427506      1.108149      1.158278
  B      -0.443267     -1.050107      1.155151
  B       0.749502      1.404606     -0.143977
  B      -0.963669      1.537606     -0.359999
  B       0.742649     -1.381475     -0.151336
  B      -0.950347     -1.566507     -0.323534
  B       1.478897      0.002448     -0.764119
  B      -1.323689     -0.027698     -0.701062
  B       0.037211      0.784900     -1.519124
  B       0.035385     -0.842376     -1.579737
12
Coordinates from ORCA-job input E -297.208005901732
  B       0.017119      0.022769      2.236810
  B       1.052431      0.010099      0.985395
  B      -0.430577      1.113397      1.164019
  B      -0.446529     -1.053882      1.157776
  B       0.752221      1.408202     -0.144964
  B      -0.963065      1.528645     -0.357126
  B       0.748587     -1.389280     -0.149281
  B      -0.950447     -1.557825     -0.323010
  B       1.481360     -0.000961     -0.763343
  B      -1.334000     -0.025940     -0.717858
  B       0.037244      0.785459     -1.517632
  B       0.035656     -0.840684     -1.570788
12
Coordinates from ORCA-job input E -297.208065017612
  B       0.013675      0.022594      2.237396
  B       1.055254      0.005684      0.986500
  B      -0.430367      1.108312      1.159227
  B      -0.444971     -1.053778      1.155975
  B       0.749716      1.405611     -0.145760
  B      -0.964230      1.534416     -0.359484
  B       0.746129     -1.385736     -0.145711
  B      -0.952181     -1.559270     -0.323178
  B       1.482770      0.002421     -0.763792
  B      -1.329917     -0.023329     -0.706734
  B       0.035559      0.785089     -1.521339
  B       0.038561     -0.842014     -1.573099
12
Coordinates from ORCA-job input E -297.208091350244
  B       0.013318      0.022909      2.237163
  B       1.057251      0.006679      0.988405
  B      -0.431660      1.105093      1.156772
  B      -0.446232     -1.053467      1.156187
  B       0.746323      1.403226     -0.145096
  B      -0.962295      1.536418     -0.360645
  B       0.747869     -1.387043     -0.145537
  B      -0.953622     -1.560438     -0.323937
  B       1.483896      0.003265     -0.765738
  B      -1.328475     -0.021506     -0.702643
  B       0.035125      0.786329     -1.523579
  B       0.038502     -0.841464     -1.571351
12
Coordinates from ORCA-job input E -297.208244872458
  B       0.012289      0.019407      2.231254
  B       1.068338      0.012503      0.996269
  B      -0.442215      1.089278      1.141431
  B      -0.455235     -1.054896      1.153929
  B       0.730755      1.389029     -0.146979
  B      -0.952072      1.547674     -0.367569
  B       0.759932     -1.398599     -0.139731
  B      -0.962785     -1.562038     -0.328003
  B       1.493402      0.011102     -0.775112
  B      -1.321738     -0.010281     -0.675978
  B       0.028604      0.791752     -1.535515
  B       0.040722     -0.834931     -1.553996
12
Coordinates from ORCA-job input E -297.208176065667
  B       0.011215      0.012544      2.221492
  B       1.084531      0.024713      1.004690
  B      -0.460349      1.062861      1.118333
  B      -0.470987     -1.057047      1.150364
  B       0.708821      1.366151     -0.150881
  B      -0.935846      1.560424     -0.374586
  B       0.783004     -1.419239     -0.128547
  B      -0.976678     -1.557616     -0.334858
  B       1.509752      0.022507     -0.790262
  B      -1.314913      0.010244     -0.638466
  B       0.016017      0.800767     -1.555286
  B       0.045433     -0.826310     -1.521993
12
Coordinates from ORCA-job input E -297.208471661252
  B       0.013543      0.015828      2.225967
  B       1.074578      0.019416      0.998068
  B      -0.455431      1.079187      1.131936
  B      -0.464777     -1.053857      1.148404
  B       0.724039      1.375556     -0.150566
  B      -0.944057      1.555124     -0.370466
  B       0.772594     -1.409555     -0.133176
  B      -0.966463     -1.561553     -0.334736
  B       1.500742      0.014341     -0.781319
  B      -1.317980     -0.000079     -0.653395
  B       0.019522      0.796297     -1.543810
  B       0.043690     -0.830704     -1.536907
12
Coordinates from ORCA-job input E -297.208605873218
  B       0.014126      0.013805      2.224566
  B       1.074305      0.021231      0.995116
  B      -0.461762      1.076833      1.131130
  B      -0.468099     -1.053123      1.145572
  B       0.726296      1.373800     -0.152625
  B      -0.941118      1.556941     -0.370836
  B       0.776356     -1.412198     -0.129926
  B      -0.963434     -1.559871     -0.336991
  B       1.501610      0.013090     -0.782598
  B      -1.318753      0.002383     -0.646444
  B       0.016037      0.796804     -1.545367
  B       0.044436     -0.829693     -1.531596
12
Coordinates from ORCA-job input E -297.208838450992
  B       0.014929      0.009018      2.219932
  B       1.077705      0.026263      0.989987
  B      -0.480444      1.063552      1.123469
  B      -0.478201     -1.049368      1.136824
  B       0.730743      1.369139     -0.156789
  B      -0.934009      1.563904     -0.373232
  B       0.785876     -1.418872     -0.120194
  B      -0.955384     -1.555408     -0.343403
  B       1.506301      0.009853     -0.788589
  B      -1.320957      0.010261     -0.621580
  B       0.008365      0.798620     -1.549825
  B       0.045075     -0.826962     -1.516598
12
Coordinates from ORCA-job input E -297.208955957024
  B       0.014718      0.007786      2.217847
  B       1.079308      0.028805      0.989018
  B      -0.489815      1.055743      1.118101
  B      -0.486265     -1.043153      1.129718
  B       0.734306      1.369062     -0.158382
  B      -0.929320      1.568799     -0.374387
  B       0.787189     -1.418346     -0.116168
  B      -0.949493     -1.559846     -0.348119
  B       1.506945      0.007295     -0.792395
  B      -1.316780      0.010874     -0.601494
  B       0.005680      0.799051     -1.549795
  B       0.043527     -0.826070     -1.513944
12
Coordinates from ORCA-job input E -297.209170589109
  B       0.014572      0.008392      2.215671
  B       1.084156      0.032229      0.991570
  B      -0.503228      1.041665      1.107848
  B      -0.497328     -1.032460      1.120416
  B       0.742251      1.374378     -0.157537
  B      -0.924452      1.573811     -0.376418
  B       0.785680     -1.414676     -0.112910
  B      -0.937412     -1.565136     -0.354561
  B       1.506840      0.001811     -0.799270
  B      -1.314164      0.009885     -0.574599
  B       0.006351      0.798222     -1.543988
  B       0.036734     -0.828121     -1.516221
12
Coordinates from ORCA-job input E -297.209345820738
  B       0.013894      0.009755      2.213581
  B       1.087366      0.033441      0.997030
  B      -0.513664      1.030173      1.097456
  B      -0.508237     -1.022160      1.112122
  B       0.749218      1.381203     -0.154020
  B      -0.920888      1.578374     -0.380544
  B       0.782806     -1.409173     -0.112613
  B      -0.926645     -1.573551     -0.359714
  B       1.504496     -0.002330     -0.807283
  B      -1.306055      0.006251     -0.546210
  B       0.010120      0.797183     -1.539453
  B       0.027588     -0.829168     -1.520351
12
Coordinates from ORCA-job input E -297.209471262617
  B       0.015357      0.010963      2.210754
  B       1.091681      0.034484      1.002515
  B      -0.528576      1.014862      1.082431
  B      -0.525354     -1.009031      1.101141
  B       0.758630      1.388960     -0.148405
  B      -0.914601      1.581710     -0.386920
  B       0.782116     -1.404454     -0.109924
  B      -0.913231     -1.580889     -0.367077
  B       1.500965     -0.006214     -0.819149
  B      -1.296234      0.001614     -0.510565
  B       0.012336      0.798069     -1.533708
  B       0.016910     -0.830074     -1.521094
12
Coordinates from ORCA-job input E -297.209532612039
  B       0.018985      0.011952      2.210650
  B       1.091142      0.031228      1.002810
  B      -0.532287      1.013944      1.080525
  B      -0.532604     -1.004663      1.098437
  B       0.762059      1.394045     -0.144395
  B      -0.912151      1.582233     -0.391353
  B       0.779450     -1.400472     -0.109086
  B      -0.908729     -1.587534     -0.369302
  B       1.496680     -0.006875     -0.822499
  B      -1.291703     -0.003127     -0.500141
  B       0.014450      0.798764     -1.532257
  B       0.014706     -0.829496     -1.523388
12
Coordinates from ORCA-job input E -297.209594717564
  B       0.024564      0.012175      2.210430
  B       1.093607      0.025979      1.001010
  B      -0.539595      1.009866      1.077412
  B      -0.542003     -0.997571      1.095758
  B       0.763668      1.395095     -0.138208
  B      -0.910481      1.583380     -0.396731
  B       0.778241     -1.398044     -0.106196
  B      -0.902474     -1.591332     -0.371719
  B       1.494450     -0.007301     -0.827754
  B      -1.290343     -0.004634     -0.488910
  B       0.015241      0.801726     -1.534372
  B       0.015126     -0.829341     -1.520721
12
Coordinates from ORCA-job input E -297.209615377866
  B       0.031508      0.015027      2.207101
  B       1.096762      0.018038      0.998799
  B      -0.544072      1.012432      1.075417
  B      -0.549152     -0.994441      1.092551
  B       0.763576      1.392132     -0.135126
  B      -0.908832      1.582756     -0.400573
  B       0.777262     -1.397186     -0.103721
  B      -0.902650     -1.593806     -0.374386
  B       1.493805     -0.002382     -0.826393
  B      -1.288719     -0.007501     -0.482977
  B       0.011451      0.802137     -1.532480
  B       0.019063     -0.827204     -1.518212
12
Coordinates from ORCA-job input E -297.209634546858
  B       0.031503      0.015298      2.208089
  B       1.099142      0.016553      0.997318
  B      -0.545646      1.011002      1.077650
  B      -0.549295     -0.989722      1.092529
  B       0.762994      1.393103     -0.133601
  B      -0.908662      1.582344     -0.399049
  B       0.775268     -1.396052     -0.105059
  B      -0.900264     -1.594564     -0.373102
  B       1.494829     -0.002987     -0.827402
  B      -1.293307     -0.006747     -0.485687
  B       0.013087      0.802240     -1.532242
  B       0.020352     -0.830467     -1.519443
12
Coordinates from ORCA-job input E -297.209640024842
  B       0.030024      0.014964      2.206264
  B       1.099536      0.017483      0.998892
  B      -0.546947      1.008829      1.075914
  B      -0.549635     -0.989977      1.090337
  B       0.762703      1.392744     -0.134820
  B      -0.909232      1.584487     -0.398440
  B       0.776366     -1.396968     -0.105050
  B      -0.900259     -1.594103     -0.372805
  B       1.496002     -0.003556     -0.826973
  B      -1.289082     -0.005302     -0.481205
  B       0.011694      0.801254     -1.533762
  B       0.018829     -0.829855     -1.518354
12
Coordinates from ORCA-job input E -297.209645700931
  B       0.031194      0.015283      2.206595
  B       1.099453      0.017363      0.999219
  B      -0.545721      1.009600      1.076978
  B      -0.548627     -0.992021      1.092640
  B       0.762793      1.393193     -0.135724
  B      -0.909059      1.582943     -0.398311
  B       0.776815     -1.397334     -0.106039
  B      -0.901277     -1.592207     -0.372085
  B       1.495984     -0.002773     -0.824994
  B      -1.292271     -0.005480     -0.486755
  B       0.011836      0.801037     -1.533181
  B       0.018881     -0.829603     -1.518342
12
Coordinates from ORCA-job input E -297.209649116916
  B       0.032291      0.015926      2.206665
  B       1.099645      0.015962      0.998652
  B      -0.547165      1.008827      1.076600
  B      -0.549952     -0.990027      1.092147
  B       0.763096      1.393530     -0.135375
  B      -0.908283      1.582843     -0.398390
  B       0.776079     -1.396929     -0.106266
  B      -0.900890     -1.593574     -0.371900
  B       1.495858     -0.002259     -0.824947
  B      -1.291360     -0.006280     -0.485974
  B       0.011557      0.801530     -1.532736
  B       0.019124     -0.829547     -1.518477
12
Coordinates from ORCA-job input E -297.209652391898
  B       0.033631      0.016722      2.206647
  B       1.099662      0.014940      0.998223
  B      -0.548913      1.007415      1.076270
  B      -0.550643     -0.988650      1.091834
  B       0.763541      1.394773     -0.135004
  B      -0.908012      1.582906     -0.398041
  B       0.775284     -1.396880     -0.106915
  B      -0.900181     -1.594077     -0.371441
  B       1.496065     -0.002361     -0.824440
  B      -1.290690     -0.006508     -0.486317
  B       0.011630      0.801372     -1.532478
  B       0.018626     -0.829652     -1.518339
12
Coordinates from ORCA-job input E -297.209654670829
  B       0.035211      0.017505      2.206715
  B       1.099963      0.013539      0.998057
  B      -0.551416      1.004458      1.074923
  B      -0.551524     -0.986995      1.091604
  B       0.764681      1.396578     -0.134550
  B      -0.907740      1.583240     -0.398004
  B       0.774633     -1.396597     -0.107240
  B      -0.899340     -1.594289     -0.370568
  B       1.495971     -0.002685     -0.824195
  B      -1.289802     -0.006920     -0.486542
  B       0.011648      0.801762     -1.532293
  B       0.017715     -0.829597     -1.517908
12
Coordinates from ORCA-job input E -297.209655604082
  B       0.035616      0.018060      2.206732
  B       1.099881      0.013318      0.997966
  B      -0.551946      1.004306      1.074897
  B      -0.550869     -0.987092      1.091692
  B       0.764991      1.396988     -0.134067
  B      -0.907872      1.583094     -0.397766
  B       0.774324     -1.396675     -0.107358
  B      -0.899421     -1.594274     -0.370542
  B       1.495714     -0.002992     -0.824045
  B      -1.289754     -0.006998     -0.487415
  B       0.011829      0.801747     -1.532353
  B       0.017507     -0.829484     -1.517741
