12
Coordinates from ORCA-job input E -297.209655604082
  B           0.03561618104242      0.01805959520312      2.20673198645725
  B           1.09988098404014      0.01331830369891      0.99796574298101
  B          -0.55194646536599      1.00430647423176      1.07489681048198
  B          -0.55086887572122     -0.98709177240865      1.09169176566580
  B           0.76499123975590      1.39698845681233     -0.13406692251411
  B          -0.90787204468057      1.58309437661895     -0.39776624786482
  B           0.77432361630801     -1.39667512332915     -0.10735766590361
  B          -0.89942062230834     -1.59427368511521     -0.37054238311189
  B           1.49571414157404     -0.00299170835768     -0.82404520115012
  B          -1.28975393443958     -0.00699759304738     -0.48741452857687
  B           0.01182851620955      0.80174686996043     -1.53235273731352
  B           0.01750726358565     -0.82948419426741     -1.51774059915112
