12
Optimized coordinates extracted from calculations\B12\compact_3d\d_2.0\mult_5\output.out
B        0.03561618       0.01805960       2.20673199
B        1.09988098       0.01331830       0.99796574
B       -0.55194647       1.00430647       1.07489681
B       -0.55086888      -0.98709177       1.09169177
B        0.76499124       1.39698846      -0.13406692
B       -0.90787204       1.58309438      -0.39776625
B        0.77432362      -1.39667512      -0.10735767
B       -0.89942062      -1.59427369      -0.37054238
B        1.49571414      -0.00299171      -0.82404520
B       -1.28975393      -0.00699759      -0.48741453
B        0.01182852       0.80174687      -1.53235274
B        0.01750726      -0.82948419      -1.51774060
