12
B12 compact_3d; neutral charge=0; multiplicity=5; 3d initial geometry; nominal d=2.0 A; Compact non-planar B12 cage-like cluster.
B        0.00000000       0.00000000       4.02622316
B        3.03413092       0.00000000       1.84062038
B       -1.51706546       2.62272333       1.84062038
B       -1.51706546      -2.62272333       1.84062038
B        1.85133412       3.03413092      -0.08785266
B       -1.85133412       3.03413092      -0.08785266
B        1.85133412      -3.03413092      -0.08785266
B       -1.85133412      -3.03413092      -0.08785266
B        2.87985307       0.00000000      -2.04203867
B       -2.87985307       0.00000000      -2.04203867
B        0.00000000       2.51987144      -2.55629815
B        0.00000000      -2.51987144      -2.55629815
