12
B12 distorted_icosahedron_01; neutral charge=0; multiplicity=3; 3D initial geometry; nominal d=2.0 A; Low-symmetry distorted icosahedron variant 01.
B       -0.01880596      -0.94301276      -1.59015625
B        0.02806566      -1.01010463       1.58115325
B        0.03096087       0.97257703      -1.55229936
B       -0.01895275       0.94495402       1.59103221
B       -0.98176923      -1.60416955       0.00841428
B       -1.01072724       1.61630702      -0.02489943
B        1.01681368      -1.53979469       0.01115070
B        1.02795414       1.66542141      -0.01303171
B       -1.57861149      -0.03320536      -1.00223669
B       -1.62573763      -0.03167060       1.01758698
B        1.58063207      -0.01852055      -1.01753126
B        1.55017788      -0.01878134       0.99081729
