12
B12 distorted_cage; neutral charge=0; multiplicity=1; 3d initial geometry; nominal d=3.0 A; Anisotropically deformed 3D cage.
B       -0.10708347      -1.35963286      -2.77227219
B       -0.11725743      -1.27466405       2.91752968
B        0.04030518       1.30114852      -2.90830203
B       -0.09438319       1.39797736       2.76678066
B       -1.36407090      -2.24515093      -0.10678927
B       -1.65552679       2.03280091       0.00568743
B        1.49710949      -2.29590878       0.08686840
B        1.93882387       2.02104300       0.06211624
B       -2.72265559       0.12039040      -1.74789366
B       -2.68062588      -0.11166956       1.70404053
B        2.64928225       0.26306986      -1.82493824
B        2.61608245       0.15059612       1.81717244
