12
B12 icosahedron; neutral charge=0; multiplicity=1; 3D initial geometry; nominal d=4.5 A; Regular icosahedral B12 vertex shell.
B        0.00000000      -2.25000000      -3.64057647
B        0.00000000      -2.25000000       3.64057647
B        0.00000000       2.25000000      -3.64057647
B        0.00000000       2.25000000       3.64057647
B       -2.25000000      -3.64057647       0.00000000
B       -2.25000000       3.64057647       0.00000000
B        2.25000000      -3.64057647       0.00000000
B        2.25000000       3.64057647       0.00000000
B       -3.64057647       0.00000000      -2.25000000
B       -3.64057647       0.00000000       2.25000000
B        3.64057647       0.00000000      -2.25000000
B        3.64057647       0.00000000       2.25000000
