12
B12 planar_double_ring; neutral charge=0; multiplicity=3; planar initial geometry; nominal d=5.0 A; Planar B6@B6 double-ring control motif.
B        5.00000000       0.00000000       0.00000000
B        2.50000000       4.33012702       0.00000000
B       -2.50000000       4.33012702       0.00000000
B       -5.00000000       0.00000000       0.00000000
B       -2.50000000      -4.33012702       0.00000000
B        2.50000000      -4.33012702       0.00000000
B        7.50000000       4.33012702       0.00000000
B        0.00000000       8.66025404       0.00000000
B       -7.50000000       4.33012702       0.00000000
B       -7.50000000      -4.33012702       0.00000000
B       -0.00000000      -8.66025404       0.00000000
B        7.50000000      -4.33012702       0.00000000
