12
Coordinates from ORCA-job input E -295.119423055931
  B       5.000000     -0.000000      1.550000
  B       2.500000      4.330127      1.550000
  B      -2.500000      4.330127      1.550000
  B      -5.000000      0.000000      1.550000
  B      -2.500000     -4.330127      1.550000
  B       2.500000     -4.330127      1.550000
  B       4.070319      2.350000     -1.550000
  B       0.000000      4.700000     -1.550000
  B      -4.070319      2.350000     -1.550000
  B      -4.070319     -2.350000     -1.550000
  B      -0.000000     -4.700000     -1.550000
  B       4.070319     -2.350000     -1.550000
12
Coordinates from ORCA-job input E -295.122533980418
  B       4.986919      0.000596      1.526908
  B       2.492065      4.317539      1.525103
  B      -2.491882      4.317516      1.526418
  B      -4.986616     -0.000066      1.527164
  B      -2.492491     -4.317564      1.524596
  B       2.492134     -4.317316      1.525962
  B       4.057556      2.343407     -1.528905
  B       0.000494      4.684660     -1.521616
  B      -4.057596      2.342683     -1.527835
  B      -4.057440     -2.342945     -1.528957
  B      -0.000920     -4.685852     -1.521331
  B       4.057779     -2.342659     -1.527506
12
Coordinates from ORCA-job input E -295.125895378477
  B       4.974398      0.001232      1.503672
  B       2.484234      4.305348      1.500011
  B      -2.483920      4.305265      1.502597
  B      -4.973771     -0.000131      1.504207
  B      -2.485112     -4.305394      1.498947
  B       2.484446     -4.304853      1.501605
  B       4.045317      2.337173     -1.507750
  B       0.001038      4.669772     -1.492824
  B      -4.045313      2.335689     -1.505560
  B      -4.045071     -2.336220     -1.507858
  B      -0.001935     -4.672242     -1.492201
  B       4.045689     -2.335640     -1.504846
12
Coordinates from ORCA-job input E -295.129531798247
  B       4.962382      0.001906      1.480313
  B       2.476483      4.293502      1.474740
  B      -2.476089      4.293343      1.478568
  B      -4.961410     -0.000194      1.481152
  B      -2.477837     -4.293569      1.473063
  B       2.476908     -4.292695      1.476957
  B       4.033561      2.331281     -1.486542
  B       0.001629      4.655291     -1.463684
  B      -4.033439      2.329002     -1.483174
  B      -4.033170     -2.329810     -1.486712
  B      -0.003036     -4.659129     -1.462657
  B       4.034020     -2.328928     -1.482023
12
Coordinates from ORCA-job input E -295.133473213933
  B       4.950824      0.002610      1.456853
  B       2.468784      4.281957      1.449306
  B      -2.468356      4.281709      1.454356
  B      -4.949488     -0.000249      1.458020
  B      -2.470636     -4.282045      1.446959
  B       2.469487     -4.280799      1.452034
  B       4.022258      2.325718     -1.465287
  B       0.002262      4.641165     -1.434246
  B      -4.021945      2.322600     -1.460686
  B      -4.021710     -2.323702     -1.465527
  B      -0.004221     -4.646460     -1.432741
  B       4.022742     -2.322502     -1.459041
12
Coordinates from ORCA-job input E -295.140003532158
  B       4.930877      0.003629      1.422384
  B       2.455767      4.263166      1.411766
  B      -2.455329      4.262711      1.418601
  B      -4.929046     -0.000348      1.424026
  B      -2.458330     -4.263290      1.408426
  B       2.456946     -4.261421      1.415187
  B       4.003572      2.316794     -1.433865
  B       0.003300      4.618853     -1.390992
  B      -4.002942      2.312418     -1.427484
  B      -4.002821     -2.314019     -1.434236
  B      -0.006082     -4.626186     -1.388690
  B       4.004089     -2.312308     -1.425123
12
Coordinates from ORCA-job input E -295.151420639578
  B       4.896667      0.005085      1.372020
  B       2.433655      4.232447      1.356620
  B      -2.433326      4.231565      1.366042
  B      -4.894163     -0.000502      1.374360
  B      -2.437221     -4.232636      1.351772
  B       2.435695     -4.229687      1.360877
  B       3.972737      2.302529     -1.387635
  B       0.005015      4.583353     -1.327774
  B      -3.971540      2.296262     -1.378694
  B      -3.971707     -2.298700     -1.388250
  B      -0.009051     -4.593546     -1.324084
  B       3.973240     -2.296170     -1.375253
12
Coordinates from ORCA-job input E -295.165324977126
  B       4.864970      0.006629      1.320850
  B       2.411910      4.203122      1.300709
  B      -2.411998      4.201808      1.312699
  B      -4.861693     -0.000570      1.324033
  B      -2.416559     -4.203400      1.294035
  B       2.415186     -4.199158      1.305268
  B       3.944305      2.289774     -1.340905
  B       0.006825      4.549476     -1.263469
  B      -3.942200      2.281539     -1.329125
  B      -3.942906     -2.284783     -1.341848
  B      -0.012337     -4.562942     -1.257919
  B       3.944496     -2.281496     -1.324330
12
Coordinates from ORCA-job input E -295.176265992733
  B       4.847984      0.007782      1.285446
  B       2.398856      4.185736      1.262534
  B      -2.399481      4.184200      1.276214
  B      -4.844048     -0.000540      1.289343
  B      -2.404324     -4.186102      1.254336
  B       2.403253     -4.180853      1.266809
  B       3.928870      2.282973     -1.308947
  B       0.008048      4.529083     -1.219363
  B      -3.925793      2.273328     -1.294996
  B      -3.927104     -2.277063     -1.310181
  B      -0.014753     -4.545217     -1.212165
  B       3.928492     -2.273326     -1.289031
12
Coordinates from ORCA-job input E -295.188714000667
  B       4.831010      0.008927      1.249768
  B       2.385546      4.168257      1.224550
  B      -2.386877      4.166528      1.239871
  B      -4.826392     -0.000476      1.254432
  B      -2.391822     -4.168744      1.214713
  B       2.391237     -4.162391      1.228291
  B       3.913760      2.276361     -1.276797
  B       0.009285      4.508792     -1.175703
  B      -3.909552      2.265329     -1.260665
  B      -3.911572     -2.269519     -1.278389
  B      -0.017264     -4.527671     -1.166614
  B       3.912640     -2.265392     -1.253457
12
Coordinates from ORCA-job input E -295.210626750579
  B       4.801454      0.010484      1.196766
  B       2.363433      4.139659      1.168962
  B      -2.366044      4.137631      1.186599
  B      -4.795903     -0.000347      1.202566
  B      -2.370789     -4.140388      1.156653
  B       2.371268     -4.132229      1.171665
  B       3.888518      2.265290     -1.228813
  B       0.011164      4.476492     -1.112578
  B      -3.882562      2.252358     -1.209682
  B      -3.885662     -2.257166     -1.231063
  B      -0.021086     -4.499195     -1.100386
  B       3.886208     -2.252588     -1.200688
12
Coordinates from ORCA-job input E -295.238219532927
  B       4.769419      0.011983      1.141096
  B       2.339746      4.109087      1.112482
  B      -2.344074      4.106911      1.132235
  B      -4.762891     -0.000085      1.148116
  B      -2.348151     -4.110175      1.097495
  B       2.350185     -4.099986      1.113584
  B       3.862164      2.253528     -1.178452
  B       0.013045      4.442794     -1.049332
  B      -3.854132      2.238757     -1.156458
  B      -3.858481     -2.244101     -1.181593
  B      -0.025132     -4.469465     -1.033515
  B       3.858302     -2.239247     -1.145658
12
Coordinates from ORCA-job input E -295.270848200754
  B       4.734932      0.013279      1.084549
  B       2.315494      4.077175      1.057919
  B      -2.321850      4.074955      1.078963
  B      -4.727447      0.000407      1.092742
  B      -2.324945     -4.078793      1.040315
  B       2.328830     -4.066325      1.056622
  B       3.835067      2.240958     -1.127176
  B       0.014701      4.408831     -0.989489
  B      -3.824700      2.224506     -1.102718
  B      -3.830415     -2.230259     -1.131462
  B      -0.029042     -4.439370     -0.969832
  B       3.829375     -2.225365     -1.090434
12
Coordinates from ORCA-job input E -295.305648185360
  B       4.696576      0.014230      1.028182
  B       2.290047      4.043337      1.005925
  B      -2.298662      4.040888      1.026964
  B      -4.688232      0.001240      1.037454
  B      -2.300439     -4.045647      0.985801
  B       2.306474     -4.030411      1.001063
  B       3.805955      2.226926     -1.075822
  B       0.015924      4.373729     -0.933393
  B      -3.792992      2.209187     -1.049167
  B      -3.800206     -2.215067     -1.081463
  B      -0.032590     -4.407859     -0.909770
  B       3.798145     -2.210553     -1.035777
12
Coordinates from ORCA-job input E -295.342011552593
  B       4.653512      0.014893      0.973183
  B       2.262153      4.007068      0.956024
  B      -2.273505      4.004905      0.977308
  B      -4.644481      0.002257      0.983445
  B      -2.273093     -4.010125      0.933435
  B       2.282162     -3.992500      0.947952
  B       3.773495      2.211125     -1.025601
  B       0.016902      4.336659     -0.880129
  B      -3.758256      2.192685     -0.997380
  B      -3.766561     -2.198345     -1.032712
  B      -0.036022     -4.373923     -0.852494
  B       3.763695     -2.194699     -0.983031
12
Coordinates from ORCA-job input E -295.379996471522
  B       4.605274      0.015257      0.919946
  B       2.231673      3.968195      0.908414
  B      -2.246289      3.967051      0.930316
  B      -4.595755      0.003447      0.931054
  B      -2.242676     -3.972037      0.883467
  B       2.255822     -3.952662      0.897713
  B       3.737231      2.193267     -0.976822
  B       0.017632      4.297525     -0.829890
  B      -3.720279      2.174813     -0.947751
  B      -3.729033     -2.179861     -0.985497
  B      -0.039350     -4.337358     -0.798309
  B       3.725750     -2.177636     -0.932641
12
Coordinates from ORCA-job input E -295.419690711121
  B       4.551613      0.015335      0.868892
  B       2.198593      3.926610      0.863311
  B      -2.216943      3.927300      0.886136
  B      -4.541820      0.004792      0.880643
  B      -2.209102     -3.931270      0.836155
  B       2.227402     -3.910884      0.850566
  B       3.696847      2.173118     -0.929828
  B       0.018096      4.256203     -0.782765
  B      -3.678922      2.155394     -0.900607
  B      -3.687319     -2.159422     -0.940132
  B      -0.042573     -4.297954     -0.747399
  B       3.684128     -2.159221     -0.884971
12
Coordinates from ORCA-job input E -295.461210687695
  B       4.492523      0.015176      0.820411
  B       2.162980      3.882291      0.820871
  B      -2.185409      3.885591      0.844803
  B      -4.482663      0.006252      0.832563
  B      -2.172364     -3.887799      0.791667
  B       2.196855     -3.867120      0.806604
  B       3.652192      2.150516     -0.884968
  B       0.018275      4.212536     -0.738717
  B      -3.634147      2.134289     -0.856207
  B      -3.641283     -2.136889     -0.896937
  B      -0.045719     -4.255491     -0.699794
  B       3.638760     -2.139353     -0.840297
12
Coordinates from ORCA-job input E -295.504717287550
  B       4.428242      0.014856      0.774832
  B       2.124927      3.835321      0.781149
  B      -2.151630      3.841864      0.806263
  B      -4.418497      0.007763      0.787124
  B      -2.132487     -3.841705      0.750049
  B       2.164127     -3.821323      0.765809
  B       3.603301      2.125400     -0.842567
  B       0.018162      4.166358     -0.697568
  B      -3.586025      2.111446     -0.814736
  B      -3.590965     -2.112203     -0.856198
  B      -0.048850     -4.209762     -0.655370
  B       3.589694     -2.118015     -0.798786
12
Coordinates from ORCA-job input E -295.550445361095
  B       4.359218      0.014450      0.732370
  B       2.084546      3.785907      0.744091
  B      -2.115561      3.796105      0.770399
  B      -4.349748      0.009255      0.744558
  B      -2.089520     -3.793185      0.711205
  B       2.129179     -3.773491      0.728075
  B       3.550376      2.097831     -0.802882
  B       0.017758      4.117546     -0.659048
  B      -3.534734      2.086923     -0.776283
  B      -3.536560     -2.085412     -0.818130
  B      -0.052044     -4.160632     -0.613883
  B       3.537089     -2.095297     -0.760472
12
Coordinates from ORCA-job input E -295.598739727277
  B       4.286065      0.014025      0.693102
  B       2.041972      3.734374      0.709546
  B      -2.077224      3.748404      0.737063
  B      -4.277011      0.010669      0.704979
  B      -2.043524     -3.742532      0.674899
  B       2.092034     -3.723703      0.693230
  B       3.493754      2.067973     -0.766058
  B       0.017077      4.066085     -0.622851
  B      -3.480547      2.060888     -0.740824
  B      -3.478367     -2.056679     -0.782819
  B      -0.055403     -4.108102     -0.575023
  B       3.481174     -2.071402     -0.725242
12
Coordinates from ORCA-job input E -295.650101941889
  B       4.209518      0.013616      0.656980
  B       1.997360      3.681134      0.677239
  B      -2.036776      3.698976      0.706120
  B      -4.201018      0.011943      0.668387
  B      -1.994569     -3.690106      0.640718
  B       2.052822     -3.672148      0.661088
  B       3.433866      2.036080     -0.732117
  B       0.016185      4.012107     -0.588696
  B      -3.423827      2.033615     -0.708207
  B      -3.416728     -2.026276     -0.750216
  B      -0.059089     -4.052299     -0.538442
  B       3.422255     -2.046645     -0.692854
12
Coordinates from ORCA-job input E -295.705371263821
  B       4.130453      0.013230      0.623877
  B       1.950872      3.626640      0.646715
  B      -1.994614      3.648214      0.677524
  B      -4.122632      0.012989      0.634676
  B      -1.942702     -3.636224      0.607963
  B       2.011888     -3.619205      0.631549
  B       3.371171      2.002505     -0.700962
  B       0.015274      3.955907     -0.556333
  B      -3.365047      2.005511     -0.678182
  B      -3.351913     -1.994616     -0.720081
  B      -0.063452     -3.993450     -0.503742
  B       3.360704     -2.021503     -0.663005
12
Coordinates from ORCA-job input E -295.766331391981
  B       4.050165      0.013017      0.593615
  B       1.902776      3.571182      0.616970
  B      -1.951719      3.596836      0.651488
  B      -4.043107      0.013542      0.603629
  B      -1.888495     -3.580819      0.575399
  B       1.970151     -3.565658      0.604667
  B       3.306113      1.967906     -0.672174
  B       0.015075      3.897925     -0.525454
  B      -3.304963      1.977180     -0.650478
  B      -3.284078     -1.962575     -0.691783
  B      -0.069181     -3.931879     -0.470426
  B       3.297264     -1.996658     -0.635452
12
Coordinates from ORCA-job input E -295.835768891718
  B       3.970017      0.013465      0.565335
  B       1.855084      3.514408      0.587513
  B      -1.909418      3.545091      0.627059
  B      -3.964281      0.013219      0.574581
  B      -1.835976     -3.524220      0.544162
  B       1.928171     -3.510914      0.578128
  B       3.239996      1.933821     -0.644239
  B       0.016671      3.838860     -0.495411
  B      -3.244149      1.949052     -0.624939
  B      -3.214614     -1.931943     -0.664441
  B      -0.074551     -3.868857     -0.437982
  B       3.233049     -1.971982     -0.609767
12
Coordinates from ORCA-job input E -295.911403334809
  B       3.891303      0.014059      0.538943
  B       1.809993      3.457861      0.560268
  B      -1.866229      3.489760      0.599406
  B      -3.886969      0.012603      0.547553
  B      -1.787086     -3.468692      0.517239
  B       1.885232     -3.453072      0.549903
  B       3.175376      1.902754     -0.616981
  B       0.018486      3.779686     -0.465120
  B      -3.181550      1.920745     -0.599963
  B      -3.147376     -1.903733     -0.638513
  B      -0.079320     -3.805872     -0.407431
  B       3.168140     -1.946099     -0.585305
12
Coordinates from ORCA-job input E -295.989117012848
  B       3.810600      0.014572      0.515165
  B       1.764294      3.398991      0.535194
  B      -1.821328      3.430402      0.572156
  B      -3.807971      0.012183      0.523021
  B      -1.738879     -3.410473      0.492979
  B       1.841069     -3.392435      0.523352
  B       3.109069      1.871425     -0.591515
  B       0.020190      3.717311     -0.437158
  B      -3.116059      1.890684     -0.576188
  B      -3.078996     -1.874638     -0.613944
  B      -0.083208     -3.739835     -0.380411
  B       3.101219     -1.918188     -0.562651
12
Coordinates from ORCA-job input E -296.067982399267
  B       3.727872      0.015281      0.493408
  B       1.717938      3.336897      0.511551
  B      -1.775443      3.367779      0.546085
  B      -3.727471      0.012051      0.500513
  B      -1.693006     -3.348983      0.471305
  B       1.796632     -3.329409      0.498363
  B       3.040548      1.839068     -0.567148
  B       0.021851      3.651364     -0.411498
  B      -3.048241      1.859419     -0.553885
  B      -3.009218     -1.844112     -0.590110
  B      -0.084665     -3.671023     -0.356988
  B       3.033202     -1.888331     -0.541595
12
Coordinates from ORCA-job input E -296.147159235124
  B       3.643623      0.015977      0.473219
  B       1.672361      3.271442      0.489564
  B      -1.729381      3.301926      0.520716
  B      -3.646089      0.012336      0.479603
  B      -1.651155     -3.284104      0.452460
  B       1.752649     -3.263943      0.474165
  B       2.970388      1.805723     -0.543367
  B       0.022674      3.582150     -0.388263
  B      -2.978650      1.827157     -0.532771
  B      -2.938736     -1.812182     -0.566504
  B      -0.082277     -3.599831     -0.337111
  B       2.964594     -1.856651     -0.521710
12
Coordinates from ORCA-job input E -296.226230193833
  B       3.558405      0.016296      0.454075
  B       1.629348      3.202494      0.469482
  B      -1.684566      3.232934      0.495898
  B      -3.564450      0.013118      0.459874
  B      -1.614279     -3.215698      0.436344
  B       1.710012     -3.195974      0.450389
  B       2.899487      1.771152     -0.519809
  B       0.022022      3.510113     -0.367753
  B      -2.908222      1.793918     -0.512522
  B      -2.868275     -1.778799     -0.542845
  B      -0.075416     -3.526410     -0.320556
  B       2.895934     -1.823144     -0.502575
12
Coordinates from ORCA-job input E -296.304714812661
  B       3.472834      0.016275      0.435427
  B       1.590080      3.130136      0.451385
  B      -1.642130      3.161030      0.471748
  B      -3.482922      0.014464      0.440783
  B      -1.582925     -3.143784      0.422680
  B       1.669474     -3.125934      0.427230
  B       2.828815      1.735082     -0.496301
  B       0.019619      3.435609     -0.349984
  B      -2.837947      1.759375     -0.492875
  B      -2.798646     -1.743716     -0.519044
  B      -0.064388     -3.451034     -0.306963
  B       2.828136     -1.787505     -0.484084
12
Coordinates from ORCA-job input E -296.391952056142
  B       3.396774      0.016273      0.406805
  B       1.561781      3.058862      0.428156
  B      -1.608068      3.089548      0.438963
  B      -3.410460      0.015831      0.411792
  B      -1.564509     -3.073875      0.404342
  B       1.634878     -3.056855      0.395456
  B       2.768053      1.701501     -0.463428
  B       0.015109      3.365090     -0.326172
  B      -2.776228      1.725552     -0.464677
  B      -2.737677     -1.709915     -0.486255
  B      -0.050348     -3.379989     -0.286870
  B       2.770692     -1.752024     -0.458111
12
Coordinates from ORCA-job input E -296.475756068166
  B       3.326336      0.015462      0.377052
  B       1.540608      2.989134      0.405131
  B      -1.580173      3.019016      0.407146
  B      -3.342041      0.016181      0.381741
  B      -1.550451     -3.005174      0.384474
  B       1.603921     -2.988428      0.364036
  B       2.712624      1.669755     -0.430734
  B       0.010309      3.296280     -0.303467
  B      -2.719366      1.691669     -0.435444
  B      -2.681383     -1.677287     -0.453304
  B      -0.037758     -3.309871     -0.265825
  B       2.717375     -1.716737     -0.430806
12
Coordinates from ORCA-job input E -296.553794710322
  B       3.256654      0.013661      0.349392
  B       1.523998      2.916217      0.383275
  B      -1.556864      2.945190      0.377647
  B      -3.273635      0.016127      0.353915
  B      -1.539357     -2.933395      0.364908
  B       1.576587     -2.917937      0.335301
  B       2.657647      1.638060     -0.399786
  B       0.005526      3.224534     -0.284233
  B      -2.663115      1.657195     -0.407076
  B      -2.626558     -1.643596     -0.421821
  B      -0.026205     -3.236725     -0.247210
  B       2.665322     -1.679331     -0.404313
12
Coordinates from ORCA-job input E -296.659360019158
  B       3.187911      0.011194      0.322790
  B       1.512007      2.841232      0.361996
  B      -1.538916      2.868911      0.350569
  B      -3.205540      0.015706      0.327328
  B      -1.530900     -2.860613      0.345337
  B       1.554302     -2.846255      0.309802
  B       2.604533      1.605642     -0.370183
  B       0.002179      3.150902     -0.267890
  B      -2.609205      1.621279     -0.378980
  B      -2.574934     -1.607626     -0.391811
  B      -0.018287     -3.162046     -0.230621
  B       2.616848     -1.638327     -0.378337
12
Coordinates from ORCA-job input E -296.728107227880
  B       3.119123      0.013484      0.293779
  B       1.500364      2.770446      0.346315
  B      -1.513536      2.796659      0.324655
  B      -3.133649      0.009755      0.297499
  B      -1.517637     -2.789218      0.328089
  B       1.527266     -2.777806      0.286128
  B       2.557224      1.568934     -0.342182
  B      -0.010264      3.081793     -0.250544
  B      -2.555638      1.578500     -0.354246
  B      -2.525807     -1.565527     -0.362019
  B      -0.013462     -3.089225     -0.212576
  B       2.566016     -1.597795     -0.354898
12
Coordinates from ORCA-job input E -296.784018178491
  B       3.054992      0.017992      0.264273
  B       1.488556      2.704741      0.329075
  B      -1.499096      2.721000      0.303744
  B      -3.063207     -0.001549      0.265659
  B      -1.507811     -2.719920      0.310692
  B       1.506862     -2.712151      0.267206
  B       2.517227      1.530384     -0.316779
  B      -0.009727      3.014511     -0.234482
  B      -2.508110      1.531772     -0.328603
  B      -2.486725     -1.514559     -0.333728
  B      -0.017182     -3.019401     -0.195421
  B       2.524221     -1.552820     -0.331636
12
Coordinates from ORCA-job input E -296.824926314007
  B       2.997933      0.019022      0.234431
  B       1.482048      2.647404      0.311842
  B      -1.482300      2.658715      0.282765
  B      -2.998565     -0.008854      0.233120
  B      -1.506180     -2.656712      0.292673
  B       1.489103     -2.659607      0.248761
  B       2.482522      1.497878     -0.292282
  B      -0.018645      2.957794     -0.216954
  B      -2.468759      1.484876     -0.302765
  B      -2.453169     -1.469385     -0.305740
  B      -0.014939     -2.959769     -0.177941
  B       2.490949     -1.511362     -0.307908
12
Coordinates from ORCA-job input E -296.850117976603
  B       2.962358      0.023861      0.204522
  B       1.477621      2.618784      0.290681
  B      -1.490776      2.615363      0.264983
  B      -2.960376     -0.015755      0.202429
  B      -1.500026     -2.624342      0.269983
  B       1.490477     -2.623364      0.231926
  B       2.470491      1.470097     -0.270250
  B      -0.006255      2.927148     -0.198747
  B      -2.449758      1.456867     -0.274247
  B      -2.436572     -1.436449     -0.281791
  B      -0.029513     -2.923640     -0.158033
  B       2.472331     -1.488570     -0.281457
12
Coordinates from ORCA-job input E -296.863383080124
  B       2.933350      0.015521      0.180232
  B       1.486173      2.601332      0.273340
  B      -1.460577      2.618110      0.245067
  B      -2.933031     -0.007484      0.178331
  B      -1.516443     -2.603476      0.251287
  B       1.468121     -2.631023      0.214781
  B       2.450434      1.475944     -0.250649
  B      -0.037994      2.920587     -0.178955
  B      -2.435391      1.434644     -0.252912
  B      -2.418427     -1.439218     -0.260010
  B       0.001223     -2.914783     -0.140353
  B       2.462560     -1.470155     -0.260159
12
Coordinates from ORCA-job input E -296.880349858986
  B       2.940430      0.022233      0.160750
  B       1.489968      2.627405      0.255264
  B      -1.484954      2.632574      0.229522
  B      -2.948879     -0.018074      0.159776
  B      -1.515199     -2.636473      0.233787
  B       1.494698     -2.643704      0.199106
  B       2.466797      1.480196     -0.235714
  B      -0.021941      2.945399     -0.162413
  B      -2.441382      1.461266     -0.232336
  B      -2.437294     -1.440816     -0.245607
  B      -0.010627     -2.935657     -0.122866
  B       2.468381     -1.494350     -0.239269
12
Coordinates from ORCA-job input E -296.891283348228
  B       2.943881      0.023701      0.139367
  B       1.493781      2.653544      0.235362
  B      -1.500196      2.654465      0.220423
  B      -2.955757     -0.003370      0.140527
  B      -1.518483     -2.657054      0.210313
  B       1.498294     -2.671385      0.190408
  B       2.481923      1.482340     -0.224289
  B      -0.006121      2.972373     -0.145752
  B      -2.461365      1.455334     -0.209589
  B      -2.434992     -1.459175     -0.232812
  B      -0.021734     -2.955801     -0.105753
  B       2.480769     -1.494972     -0.218204
12
Coordinates from ORCA-job input E -296.902216817395
  B       2.931989      0.018519      0.124263
  B       1.503950      2.661604      0.216314
  B      -1.502082      2.677345      0.203838
  B      -2.951809     -0.021363      0.123912
  B      -1.518243     -2.673223      0.193124
  B       1.511934     -2.696493      0.175516
  B       2.475357      1.501537     -0.209429
  B      -0.022567      2.991005     -0.131501
  B      -2.448882      1.476566     -0.190190
  B      -2.445905     -1.450506     -0.216751
  B      -0.010568     -2.972233     -0.092052
  B       2.476827     -1.512759     -0.197044
12
Coordinates from ORCA-job input E -296.908944695336
  B       2.915222      0.034870      0.107974
  B       1.489376      2.676057      0.201189
  B      -1.509201      2.702755      0.189420
  B      -2.945651     -0.013806      0.110705
  B      -1.526266     -2.674591      0.174217
  B       1.532803     -2.719483      0.161630
  B       2.485534      1.475578     -0.196920
  B      -0.035404      3.011807     -0.117835
  B      -2.444808      1.491863     -0.170459
  B      -2.440596     -1.459313     -0.201287
  B       0.016405     -2.983692     -0.082538
  B       2.462586     -1.542045     -0.176097
12
Coordinates from ORCA-job input E -296.918292330597
  B       2.903638      0.011275      0.093859
  B       1.489530      2.690950      0.179111
  B      -1.527612      2.729009      0.182187
  B      -2.936523     -0.000610      0.096375
  B      -1.510451     -2.690401      0.151476
  B       1.538565     -2.763447      0.156224
  B       2.476705      1.493870     -0.189182
  B      -0.032151      3.036845     -0.106833
  B      -2.450895      1.492290     -0.147889
  B      -2.431629     -1.455012     -0.190702
  B       0.007556     -3.007757     -0.071228
  B       2.473268     -1.537012     -0.153399
12
Coordinates from ORCA-job input E -296.924499184158
  B       2.870560      0.021957      0.083207
  B       1.499041      2.688095      0.156446
  B      -1.529993      2.766129      0.173066
  B      -2.922175     -0.006970      0.086040
  B      -1.496805     -2.698730      0.129177
  B       1.553937     -2.794313      0.146204
  B       2.463268      1.504642     -0.176306
  B      -0.033256      3.061228     -0.098828
  B      -2.444634      1.497395     -0.127396
  B      -2.418551     -1.461270     -0.177516
  B       0.007092     -3.024544     -0.064700
  B       2.451516     -1.553617     -0.129393
12
Coordinates from ORCA-job input E -296.929729222293
  B       2.838672      0.008453      0.071709
  B       1.472433      2.697349      0.138851
  B      -1.549133      2.794597      0.162347
  B      -2.897185     -0.014736      0.075813
  B      -1.482497     -2.695517      0.110762
  B       1.559965     -2.845822      0.137272
  B       2.451576      1.491656     -0.168661
  B      -0.044503      3.087636     -0.090204
  B      -2.422939      1.529294     -0.107536
  B      -2.408628     -1.443222     -0.164641
  B       0.043073     -3.048238     -0.058013
  B       2.439168     -1.561450     -0.107700
12
Coordinates from ORCA-job input E -296.934077210722
  B       2.810714     -0.033687      0.063733
  B       1.433922      2.705451      0.121755
  B      -1.563459      2.833712      0.151585
  B      -2.872387      0.032689      0.069136
  B      -1.458136     -2.697182      0.091884
  B       1.612858     -2.886206      0.129263
  B       2.432777      1.477307     -0.164108
  B      -0.092814      3.116364     -0.081881
  B      -2.413692      1.554828     -0.087373
  B      -2.384205     -1.426836     -0.155172
  B       0.060625     -3.074401     -0.056265
  B       2.433796     -1.602038     -0.082556
12
Coordinates from ORCA-job input E -296.939200888811
  B       2.767234     -0.004761      0.057140
  B       1.442978      2.701573      0.100319
  B      -1.579673      2.880770      0.146304
  B      -2.848851      0.032822      0.062806
  B      -1.433677     -2.704055      0.072840
  B       1.610294     -2.939336      0.121221
  B       2.415142      1.493564     -0.152774
  B      -0.070150      3.150490     -0.078167
  B      -2.411915      1.552053     -0.069145
  B      -2.355620     -1.441908     -0.144941
  B       0.065570     -3.105448     -0.052544
  B       2.398669     -1.615763     -0.063058
12
Coordinates from ORCA-job input E -296.947832025719
  B       2.708587     -0.026426      0.049533
  B       1.410211      2.689600      0.081433
  B      -1.591819      2.925300      0.137931
  B      -2.806014      0.019603      0.057535
  B      -1.408654     -2.685289      0.053661
  B       1.636196     -2.985316      0.114348
  B       2.384696      1.473233     -0.144979
  B      -0.083251      3.181511     -0.072513
  B      -2.380253      1.583884     -0.051464
  B      -2.324121     -1.434123     -0.133407
  B       0.081447     -3.127144     -0.051488
  B       2.372975     -1.614834     -0.040591
12
Coordinates from ORCA-job input E -296.951680233361
  B       2.626179     -0.050616      0.042254
  B       1.358568      2.686395      0.064655
  B      -1.612273      2.983016      0.131643
  B      -2.747282      0.035899      0.050849
  B      -1.355808     -2.687126      0.040546
  B       1.657436     -3.048499      0.107076
  B       2.333737      1.464068     -0.137527
  B      -0.088484      3.225521     -0.067784
  B      -2.345839      1.633094     -0.035425
  B      -2.285518     -1.413046     -0.125006
  B       0.135523     -3.180799     -0.050003
  B       2.323759     -1.647907     -0.021279
12
Coordinates from ORCA-job input E -296.954737847681
  B       2.574244     -0.057716      0.036833
  B       1.336127      2.680142      0.054244
  B      -1.633473      3.028661      0.127063
  B      -2.698568      0.054305      0.048404
  B      -1.319416     -2.683302      0.030282
  B       1.674820     -3.096712      0.104426
  B       2.303634      1.457438     -0.132738
  B      -0.107748      3.259196     -0.064071
  B      -2.322592      1.669347     -0.024877
  B      -2.241984     -1.423970     -0.120870
  B       0.142021     -3.218147     -0.048973
  B       2.292934     -1.669242     -0.009722
12
Coordinates from ORCA-job input E -296.957351263617
  B       2.474460     -0.093788      0.028391
  B       1.282947      2.662482      0.036661
  B      -1.664318      3.133300      0.127237
  B      -2.607661      0.094955      0.042040
  B      -1.257041     -2.648730      0.016990
  B       1.734511     -3.160242      0.103550
  B       2.230173      1.434702     -0.128942
  B      -0.124831      3.310223     -0.054947
  B      -2.303302      1.681842     -0.012875
  B      -2.178986     -1.412369     -0.118983
  B       0.173488     -3.271188     -0.046878
  B       2.240561     -1.731189      0.007756
12
Coordinates from ORCA-job input E -296.964409702975
  B       2.379361     -0.123848      0.020029
  B       1.223393      2.625490      0.025241
  B      -1.710562      3.186581      0.123305
  B      -2.513283      0.153228      0.035019
  B      -1.167979     -2.627679      0.008245
  B       1.766000     -3.243357      0.099798
  B       2.159241      1.396583     -0.122876
  B      -0.170957      3.340578     -0.048143
  B      -2.263121      1.742977     -0.001925
  B      -2.114209     -1.363075     -0.116727
  B       0.223372     -3.313748     -0.038999
  B       2.188742     -1.773729      0.017034
12
Coordinates from ORCA-job input E -296.969620002291
  B       2.304043     -0.172424      0.014851
  B       1.151153      2.616025      0.020730
  B      -1.745613      3.237190      0.123875
  B      -2.420864      0.161208      0.029508
  B      -1.100597     -2.591519      0.004402
  B       1.776356     -3.324961      0.099889
  B       2.094529      1.361750     -0.121197
  B      -0.210750      3.371255     -0.045374
  B      -2.221736      1.813041      0.002622
  B      -2.042244     -1.328389     -0.114830
  B       0.266356     -3.336142     -0.034562
  B       2.149367     -1.807035      0.020086
12
Coordinates from ORCA-job input E -296.981548539394
  B       2.163564     -0.246008      0.005009
  B       1.046476      2.551211      0.010666
  B      -1.800515      3.344069      0.126432
  B      -2.286227      0.248229      0.020754
  B      -0.967707     -2.538586     -0.003238
  B       1.838803     -3.423771      0.101263
  B       1.963074      1.277885     -0.116818
  B      -0.274174      3.401649     -0.038627
  B      -2.176095      1.896484      0.010322
  B      -1.936168     -1.257952     -0.115492
  B       0.344127     -3.374094     -0.027478
  B       2.084842     -1.879116      0.027207
12
Coordinates from ORCA-job input E -296.997050709618
  B       2.026092     -0.327527     -0.003906
  B       0.929534      2.494616      0.002007
  B      -1.865038      3.433914      0.127872
  B      -2.135393      0.331886      0.011714
  B      -0.835447     -2.465017     -0.011079
  B       1.892471     -3.528029      0.103231
  B       1.827736      1.203716     -0.113436
  B      -0.342162      3.422873     -0.033180
  B      -2.119899      1.972358      0.018104
  B      -1.804635     -1.175230     -0.112962
  B       0.407614     -3.398276     -0.021313
  B       2.019127     -1.965282      0.032949
12
Coordinates from ORCA-job input E -297.014483836499
  B       1.886068     -0.415505     -0.011667
  B       0.804392      2.427282     -0.004950
  B      -1.921844      3.533198      0.128300
  B      -1.990022      0.418695      0.003338
  B      -0.698796     -2.397716     -0.017832
  B       1.944062     -3.617604      0.103962
  B       1.679604      1.113772     -0.108180
  B      -0.407501      3.434521     -0.028327
  B      -2.060109      2.054106      0.024670
  B      -1.667303     -1.094412     -0.110071
  B       0.476644     -3.414650     -0.015325
  B       1.954805     -2.041687      0.036082
12
Coordinates from ORCA-job input E -297.033074277259
  B       1.756264     -0.523865     -0.014443
  B       0.666999      2.355726     -0.009826
  B      -1.965438      3.657469      0.129304
  B      -1.854479      0.513011     -0.000413
  B      -0.585850     -2.312059     -0.023568
  B       2.013280     -3.686728      0.104127
  B       1.510275      1.008865     -0.101066
  B      -0.475104      3.423157     -0.028504
  B      -2.000205      2.106858      0.026970
  B      -1.509770     -1.006856     -0.104872
  B       0.533454     -3.409204     -0.016557
  B       1.910574     -2.126373      0.038848
12
Coordinates from ORCA-job input E -297.052348637621
  B       1.598084     -0.632298     -0.023709
  B       0.516778      2.258480     -0.020480
  B      -2.022933      3.752696      0.144578
  B      -1.686894      0.615031     -0.015968
  B      -0.430031     -2.239543     -0.029263
  B       2.061750     -3.755680      0.111696
  B       1.319454      0.905172     -0.095838
  B      -0.540256      3.465946     -0.023226
  B      -1.958272      2.218068      0.024547
  B      -1.310211     -0.905890     -0.099769
  B       0.602111     -3.464341     -0.008662
  B       1.850420     -2.217641      0.036095
12
Coordinates from ORCA-job input E -295.434788504073
  B       0.543185     -1.039519      0.041923
  B      -0.302251      2.088049     -0.031669
  B      -1.956855      4.056878      0.127094
  B      -0.858165      0.971867     -0.078590
  B       0.330701     -2.128235      0.003757
  B       2.274792     -3.872430     -0.047697
  B       0.185505      0.545483      0.018258
  B      -0.585300      3.513184     -0.004858
  B      -1.570576      2.369445     -0.068755
  B      -0.204828     -0.599402     -0.029333
  B       0.719295     -3.601313      0.075918
  B       1.424498     -2.304007     -0.006048
12
Coordinates from ORCA-job input E -296.937854338642
  B       1.562482     -1.151968     -0.083600
  B      -0.146464      1.911597     -0.037643
  B      -1.990280      4.177293      0.221938
  B      -1.483381      1.166244     -0.063251
  B       0.183027     -1.821648     -0.047679
  B       2.044967     -4.263681      0.213370
  B       0.692944      0.378030     -0.065044
  B      -0.648651      3.335905      0.081416
  B      -2.050403      2.476332     -0.115936
  B      -0.685597     -0.290885     -0.058280
  B       0.554882     -3.379737      0.089094
  B       1.966473     -2.537481     -0.134385
12
Coordinates from ORCA-job input E -297.005232010522
  B       1.578135     -1.096248     -0.082044
  B      -0.119426      1.918050     -0.037480
  B      -1.989138      4.160858      0.213338
  B      -1.486136      1.107463     -0.055782
  B       0.169995     -1.833467     -0.047224
  B       2.007266     -4.240645      0.207493
  B       0.728008      0.403175     -0.062269
  B      -0.640754      3.358885      0.080595
  B      -2.052600      2.466518     -0.114961
  B      -0.698742     -0.328546     -0.053757
  B       0.539498     -3.389988      0.088870
  B       1.963895     -2.526054     -0.136779
12
Coordinates from ORCA-job input E -297.054545403385
  B       1.583853     -1.035823     -0.078920
  B      -0.091368      1.919539     -0.036742
  B      -1.976200      4.131085      0.202233
  B      -1.487588      1.049837     -0.048957
  B       0.150268     -1.848680     -0.045485
  B       1.971344     -4.191441      0.198056
  B       0.744637      0.429127     -0.059271
  B      -0.617695      3.371737      0.080958
  B      -2.041008      2.444090     -0.114405
  B      -0.713316     -0.375351     -0.048637
  B       0.525532     -3.401000      0.087495
  B       1.951540     -2.493117     -0.136325
12
Coordinates from ORCA-job input E -297.103894685783
  B       1.560819     -0.945478     -0.073147
  B      -0.053033      1.936939     -0.033467
  B      -1.969258      4.102779      0.179649
  B      -1.469679      0.967150     -0.040659
  B       0.123771     -1.893012     -0.041082
  B       1.943213     -4.137982      0.178983
  B       0.745689      0.484866     -0.052603
  B      -0.582041      3.412016      0.081143
  B      -2.007937      2.418789     -0.111522
  B      -0.731256     -0.461244     -0.037472
  B       0.517418     -3.438676      0.082932
  B       1.922293     -2.446147     -0.132756
12
Coordinates from ORCA-job input E -297.143569071904
  B       1.469859     -0.855056     -0.064394
  B      -0.021580      2.025969     -0.020347
  B      -1.960476      4.073497      0.140502
  B      -1.405407      0.880506     -0.037182
  B       0.090561     -2.007562     -0.027867
  B       1.959061     -4.100034      0.141405
  B       0.700677      0.593699     -0.039859
  B      -0.537813      3.491237      0.078509
  B      -1.928366      2.365024     -0.106174
  B      -0.738729     -0.591121     -0.016561
  B       0.516757     -3.508112      0.073725
  B       1.855456     -2.368046     -0.121757
12
Coordinates from ORCA-job input E -297.125891261492
  B       1.379635     -0.727251     -0.087245
  B       0.016477      2.015695     -0.022100
  B      -2.047634      4.085481      0.104890
  B      -1.273192      0.762382     -0.057003
  B       0.052878     -2.038796     -0.036751
  B       1.942593     -4.064390      0.120106
  B       0.635308      0.630505     -0.052237
  B      -0.537012      3.610030      0.097300
  B      -1.840310      2.443718     -0.055007
  B      -0.716545     -0.696146     -0.015022
  B       0.571214     -3.584876      0.080843
  B       1.816588     -2.436352     -0.077774
12
Coordinates from ORCA-job input E -297.155556185616
  B       1.357496     -0.773222     -0.078804
  B       0.007407      2.049456     -0.017014
  B      -2.047856      4.059743      0.093992
  B      -1.255864      0.806781     -0.051707
  B       0.046091     -2.054144     -0.031238
  B       1.972263     -4.058895      0.104157
  B       0.628930      0.639020     -0.044816
  B      -0.542899      3.612356      0.087251
  B      -1.815737      2.419766     -0.052996
  B      -0.708838     -0.690525     -0.010104
  B       0.562493     -3.589526      0.074550
  B       1.796515     -2.420813     -0.073271
12
Coordinates from ORCA-job input E -297.175441954050
  B       1.323155     -0.815730     -0.068827
  B       0.000015      2.080608     -0.010983
  B      -2.044684      4.038073      0.081481
  B      -1.236564      0.845243     -0.046204
  B       0.036480     -2.072838     -0.024462
  B       2.007367     -4.048914      0.086581
  B       0.617214      0.644224     -0.036638
  B      -0.546996      3.619148      0.076937
  B      -1.787455      2.397613     -0.051296
  B      -0.700749     -0.686951     -0.005128
  B       0.558833     -3.601187      0.067300
  B       1.773383     -2.399289     -0.068762
12
Coordinates from ORCA-job input E -297.187461685608
  B       1.276403     -0.851770     -0.058208
  B      -0.004971      2.108496     -0.004216
  B      -2.045175      4.023225      0.067925
  B      -1.209249      0.875297     -0.040151
  B       0.026388     -2.093798     -0.016537
  B       2.042872     -4.037144      0.068953
  B       0.600822      0.648928     -0.028149
  B      -0.551862      3.632215      0.066109
  B      -1.757481      2.380655     -0.049125
  B      -0.684840     -0.685634     -0.000681
  B       0.560336     -3.620740      0.058750
  B       1.746756     -2.379730     -0.064671
12
Coordinates from ORCA-job input E -296.900781589368
  B       0.802249     -1.049048      0.008547
  B      -0.103588      2.245059      0.011610
  B      -1.987095      4.003705      0.045240
  B      -0.977281      1.008292     -0.038899
  B       0.012585     -2.249090      0.026612
  B       2.312729     -3.882080      0.002692
  B       0.320834      0.663015     -0.006669
  B      -0.547559      3.727944     -0.006102
  B      -1.514913      2.312993     -0.017144
  B      -0.432887     -0.736918     -0.004986
  B       0.624917     -3.792290     -0.003354
  B       1.490010     -2.251583     -0.017547
12
Coordinates from ORCA-job input E -297.092569119586
  B       0.913957     -1.032004      0.003537
  B      -0.079930      2.235919      0.013068
  B      -2.028701      4.069016      0.043985
  B      -1.042026      1.007439     -0.034845
  B       0.015420     -2.250742      0.020410
  B       2.276753     -3.963607      0.005890
  B       0.377329      0.652576     -0.004268
  B      -0.556011      3.745596     -0.006098
  B      -1.602323      2.377484     -0.017732
  B      -0.482516     -0.712490     -0.003800
  B       0.631258     -3.803341     -0.000781
  B       1.576789     -2.325846     -0.019366
12
Coordinates from ORCA-job input E -297.079232697176
  B       1.294389     -0.739016     -0.000819
  B       0.100487      2.070926     -0.020344
  B      -2.146736      4.149130      0.033575
  B      -1.248709      0.802318     -0.007295
  B      -0.011231     -2.150279     -0.000484
  B       1.913588     -4.071142     -0.008448
  B       0.687953      0.662225      0.001368
  B      -0.546136      3.637718      0.012106
  B      -1.929901      2.506676     -0.021875
  B      -0.642264     -0.685436      0.003390
  B       0.618047     -3.623435     -0.002188
  B       1.910513     -2.559687      0.011012
12
Coordinates from ORCA-job input E -297.133659112740
  B       1.261776     -0.806346      0.002902
  B       0.099694      2.128218     -0.012069
  B      -2.154119      4.115396      0.025888
  B      -1.213567      0.856360     -0.002414
  B      -0.037722     -2.170654      0.005086
  B       1.984560     -4.090461     -0.017107
  B       0.688592      0.682096      0.005592
  B      -0.567252      3.665250      0.004559
  B      -1.901952      2.475869     -0.021443
  B      -0.628489     -0.668303      0.004881
  B       0.587111     -3.649210     -0.003888
  B       1.881368     -2.538216      0.008013
12
Coordinates from ORCA-job input E -297.181097863832
  B       1.206431     -0.879496      0.002600
  B       0.099398      2.162475     -0.006791
  B      -2.117116      4.021086      0.022530
  B      -1.166886      0.908676      0.000559
  B      -0.076155     -2.162017      0.005653
  B       2.046241     -4.038939     -0.015308
  B       0.679905      0.690757      0.004809
  B      -0.577648      3.650514      0.001415
  B      -1.834828      2.388667     -0.019501
  B      -0.620225     -0.653940      0.004847
  B       0.548959     -3.640071     -0.005382
  B       1.811925     -2.447711      0.004570
12
Coordinates from ORCA-job input E -297.192338604898
  B       1.158374     -0.929869      0.001765
  B       0.093016      2.171577     -0.004730
  B      -2.081324      3.969176      0.021164
  B      -1.132545      0.930399      0.001303
  B      -0.095028     -2.154007      0.005317
  B       2.085681     -3.987661     -0.012966
  B       0.656386      0.682420      0.003169
  B      -0.580099      3.639445      0.001080
  B      -1.783341      2.340661     -0.017884
  B      -0.613810     -0.654605      0.004803
  B       0.538049     -3.636119     -0.005829
  B       1.754641     -2.371418      0.002808
12
Coordinates from ORCA-job input E -297.196097802079
  B       1.147792     -0.929854      0.002934
  B       0.080768      2.172839     -0.005680
  B      -2.080928      3.985478      0.021042
  B      -1.125442      0.927601      0.000185
  B      -0.082611     -2.157254      0.005385
  B       2.088893     -3.999604     -0.014346
  B       0.634827      0.677883      0.001772
  B      -0.580313      3.648912      0.003149
  B      -1.780301      2.353957     -0.017920
  B      -0.604345     -0.657126      0.004337
  B       0.548200     -3.649180     -0.004196
  B       1.753459     -2.373652      0.003338
12
Coordinates from ORCA-job input E -297.202568977026
  B       1.109831     -0.922471      0.006276
  B       0.038060      2.171845     -0.010548
  B      -2.077009      4.018993      0.022833
  B      -1.100577      0.921741     -0.004343
  B      -0.036359     -2.160492      0.004573
  B       2.090227     -4.028108     -0.014641
  B       0.556580      0.662418     -0.004209
  B      -0.575980      3.670066      0.009445
  B      -1.753407      2.377202     -0.015683
  B      -0.566927     -0.659256      0.001722
  B       0.574837     -3.680574     -0.000808
  B       1.740723     -2.371366      0.005382
12
Coordinates from ORCA-job input E -297.202990405280
  B       1.114753     -0.914579      0.006406
  B       0.034497      2.167808     -0.012046
  B      -2.078692      4.019105      0.023226
  B      -1.107277      0.918149     -0.006114
  B      -0.029078     -2.159271      0.004083
  B       2.082057     -4.028567     -0.015178
  B       0.554486      0.661524     -0.004255
  B      -0.572639      3.668902      0.011411
  B      -1.749705      2.375845     -0.015087
  B      -0.562755     -0.659810      0.000470
  B       0.573389     -3.675874      0.001589
  B       1.740965     -2.373232      0.005497
12
Coordinates from ORCA-job input E -297.203368271803
  B       1.121327     -0.906667      0.005933
  B       0.027372      2.161014     -0.015836
  B      -2.078218      4.017016      0.025067
  B      -1.119585      0.912193     -0.008710
  B      -0.018706     -2.158118      0.002822
  B       2.073217     -4.022563     -0.012876
  B       0.550738      0.658888     -0.004421
  B      -0.567397      3.668544      0.013395
  B      -1.738070      2.371062     -0.012496
  B      -0.555678     -0.662228     -0.001601
  B       0.569875     -3.668212      0.002629
  B       1.735125     -2.370929      0.006093
12
Coordinates from ORCA-job input E -297.203436310651
  B       1.123583     -0.906817      0.005610
  B       0.025300      2.160378     -0.017471
  B      -2.078124      4.018037      0.026153
  B      -1.123873      0.911075     -0.008883
  B      -0.018010     -2.159162      0.002448
  B       2.074307     -4.021020     -0.010538
  B       0.551188      0.659066     -0.004206
  B      -0.567373      3.670790      0.012446
  B      -1.734438      2.371258     -0.010765
  B      -0.554847     -0.662879     -0.001905
  B       0.569435     -3.669286      0.000396
  B       1.732853     -2.371439      0.006716
12
Coordinates from ORCA-job input E -297.203495229368
  B       1.125652     -0.908456      0.005149
  B       0.021460      2.160402     -0.019399
  B      -2.078075      4.021872      0.027672
  B      -1.128474      0.909790     -0.009425
  B      -0.017965     -2.161036      0.002277
  B       2.078621     -4.020928     -0.007462
  B       0.550803      0.659861     -0.003550
  B      -0.568507      3.675047      0.010758
  B      -1.729539      2.373951     -0.008368
  B      -0.553971     -0.663195     -0.002256
  B       0.570300     -3.673878     -0.002792
  B       1.729695     -2.373431      0.007396
12
Coordinates from ORCA-job input E -297.203507196858
  B       1.126451     -0.909061      0.004992
  B       0.020378      2.160512     -0.019524
  B      -2.078539      4.023553      0.028153
  B      -1.129020      0.909337     -0.010093
  B      -0.018627     -2.161173      0.002388
  B       2.080363     -4.022043     -0.006993
  B       0.551272      0.660699     -0.003059
  B      -0.569432      3.675806      0.010191
  B      -1.728690      2.375534     -0.007809
  B      -0.554018     -0.662774     -0.002476
  B       0.570715     -3.675586     -0.003075
  B       1.729147     -2.374804      0.007306
12
Coordinates from ORCA-job input E -297.203512060333
  B       1.126859     -0.909073      0.004941
  B       0.019798      2.160405     -0.019269
  B      -2.079213      4.024107      0.028556
  B      -1.128315      0.908982     -0.010921
  B      -0.018875     -2.160589      0.002407
  B       2.080691     -4.023206     -0.007012
  B       0.551709      0.661367     -0.002755
  B      -0.570190      3.675437      0.009874
  B      -1.728313      2.376206     -0.007545
  B      -0.553726     -0.662177     -0.002798
  B       0.570708     -3.675912     -0.002553
  B       1.728867     -2.375547      0.007073
12
Coordinates from ORCA-job input E -297.203513926783
  B       1.127249     -0.908843      0.004962
  B       0.019760      2.160298     -0.019054
  B      -2.079889      4.023784      0.029090
  B      -1.127502      0.908792     -0.011556
  B      -0.018968     -2.159947      0.002228
  B       2.080167     -4.023849     -0.006827
  B       0.552489      0.661843     -0.002725
  B      -0.570751      3.674845      0.009431
  B      -1.728179      2.376058     -0.007209
  B      -0.553404     -0.661748     -0.003128
  B       0.570327     -3.675431     -0.002217
  B       1.728700     -2.375802      0.007005
