12
Coordinates from ORCA-job input E -297.203513926783
  B           1.12724910651222     -0.90884310211125      0.00496213602317
  B           0.01976032061696      2.16029759553452     -0.01905370495787
  B          -2.07988948190947      4.02378425706693      0.02908957868141
  B          -1.12750235319581      0.90879230449177     -0.01155576405713
  B          -0.01896780375584     -2.15994689099359      0.00222800929821
  B           2.08016689757543     -4.02384948342780     -0.00682716982128
  B           0.55248859153360      0.66184262780330     -0.00272523454157
  B          -0.57075072420040      3.67484546743888      0.00943050166127
  B          -1.72817857735028      2.37605815390529     -0.00720882334266
  B          -0.55340350609987     -0.66174785614771     -0.00312769260955
  B           0.57032716103628     -3.67543068039573     -0.00221686407360
  B           1.72870036923719     -2.37580239316461      0.00700502773962
