12
Optimized coordinates extracted from calculations\B12\bilayer_3d\d_5.0\mult_5\output.out
B        1.12724911      -0.90884310       0.00496214
B        0.01976032       2.16029760      -0.01905370
B       -2.07988948       4.02378426       0.02908958
B       -1.12750235       0.90879230      -0.01155576
B       -0.01896780      -2.15994689       0.00222801
B        2.08016690      -4.02384948      -0.00682717
B        0.55248859       0.66184263      -0.00272523
B       -0.57075072       3.67484547       0.00943050
B       -1.72817858       2.37605815      -0.00720882
B       -0.55340351      -0.66174786      -0.00312769
B        0.57032716      -3.67543068      -0.00221686
B        1.72870037      -2.37580239       0.00700503
