12
B12 bilayer_3d; 3d initial geometry; d=2.0 A; generated by generate_inputs.py
B        2.00000000       0.00000000       0.62000000
B        1.00000000       1.73205081       0.62000000
B       -1.00000000       1.73205081       0.62000000
B       -2.00000000       0.00000000       0.62000000
B       -1.00000000      -1.73205081       0.62000000
B        1.00000000      -1.73205081       0.62000000
B        1.62812776       0.94000000      -0.62000000
B        0.00000000       1.88000000      -0.62000000
B       -1.62812776       0.94000000      -0.62000000
B       -1.62812776      -0.94000000      -0.62000000
B       -0.00000000      -1.88000000      -0.62000000
B        1.62812776      -0.94000000      -0.62000000
