12
B12 cuboctahedral_fragment; 3D initial geometry; d=2.0 A; generated by generate_inputs.py
B       -1.41421356      -1.41421356       0.00000000
B       -1.41421356       1.41421356       0.00000000
B        1.41421356      -1.41421356       0.00000000
B        1.41421356       1.41421356       0.00000000
B       -1.41421356       0.00000000      -1.41421356
B       -1.41421356       0.00000000       1.41421356
B        1.41421356       0.00000000      -1.41421356
B        1.41421356       0.00000000       1.41421356
B        0.00000000      -1.41421356      -1.41421356
B        0.00000000      -1.41421356       1.41421356
B        0.00000000       1.41421356      -1.41421356
B        0.00000000       1.41421356       1.41421356
