12
B12 icosahedron; 3D initial geometry; d=2.0 A; generated by generate_inputs.py
B        0.00000000      -1.00000000      -1.61803399
B        0.00000000      -1.00000000       1.61803399
B        0.00000000       1.00000000      -1.61803399
B        0.00000000       1.00000000       1.61803399
B       -1.00000000      -1.61803399       0.00000000
B       -1.00000000       1.61803399       0.00000000
B        1.00000000      -1.61803399       0.00000000
B        1.00000000       1.61803399       0.00000000
B       -1.61803399       0.00000000      -1.00000000
B       -1.61803399       0.00000000       1.00000000
B        1.61803399       0.00000000      -1.00000000
B        1.61803399       0.00000000       1.00000000
