12
B12 planar_triangular_patch; planar initial geometry; d=2.0 A; generated by generate_inputs.py
B       -3.33333333      -1.73205081       0.00000000
B       -1.33333333      -1.73205081       0.00000000
B        0.66666667      -1.73205081       0.00000000
B        2.66666667      -1.73205081       0.00000000
B       -2.33333333       0.00000000       0.00000000
B       -0.33333333       0.00000000       0.00000000
B        1.66666667       0.00000000       0.00000000
B        3.66666667       0.00000000       0.00000000
B       -3.33333333       1.73205081       0.00000000
B       -1.33333333       1.73205081       0.00000000
B        0.66666667       1.73205081       0.00000000
B        2.66666667       1.73205081       0.00000000
