12
B12 quasi_planar_buckled_double_ring; quasi_planar initial geometry; d=2.0 A; generated by generate_inputs.py
B        2.00000000       0.00000000       0.16000000
B        1.00000000       1.73205081      -0.16000000
B       -1.00000000       1.73205081       0.16000000
B       -2.00000000       0.00000000      -0.16000000
B       -1.00000000      -1.73205081       0.16000000
B        1.00000000      -1.73205081      -0.16000000
B        3.00000000       1.73205081       0.24000000
B        0.00000000       3.46410162      -0.24000000
B       -3.00000000       1.73205081       0.24000000
B       -3.00000000      -1.73205081      -0.24000000
B       -0.00000000      -3.46410162       0.24000000
B        3.00000000      -1.73205081      -0.24000000
