12
B12 random_3d_01; 3d initial geometry; d=2.0 A; generated by generate_inputs.py
B        2.02884364      -1.52152869       0.10633945
B       -2.07316347       1.38354875       0.14754222
B        0.65892732      -2.30002915      -1.40648882
B        0.92798678      -0.06879701      -0.24228967
B        2.85065216      -3.13076915       2.52943184
B        1.04956782      -0.66942672       1.30314014
B       -3.14538048       3.36118972      -0.45500775
B        2.91169176       3.12739221      -1.56354588
B       -3.64984178      -3.02571562      -1.94661676
B        1.63362807       2.61060434       1.05853051
B       -1.15901126       2.21675426       0.97827630
B       -2.03390056      -1.98322295      -0.50931157
