12
B12 cuboctahedral_fragment; neutral charge=0; multiplicity=1; 3d initial geometry; nominal d=2.0 A; Cuboctahedron-like 12-vertex 3D structure.
B       -1.41421356      -1.41421356       0.00000000
B       -1.41421356       1.41421356       0.00000000
B        1.41421356      -1.41421356       0.00000000
B        1.41421356       1.41421356       0.00000000
B       -1.41421356       0.00000000      -1.41421356
B       -1.41421356       0.00000000       1.41421356
B        1.41421356       0.00000000      -1.41421356
B        1.41421356       0.00000000       1.41421356
B        0.00000000      -1.41421356      -1.41421356
B        0.00000000      -1.41421356       1.41421356
B        0.00000000       1.41421356      -1.41421356
B        0.00000000       1.41421356       1.41421356
