12
Coordinates from ORCA-job input E -297.127080090041
  B           2.94262301059658     -0.00233822938699      0.02431406249472
  B           0.40212650722406      1.75298209572438      0.45785914197362
  B          -1.94494656412660      2.40964949853759     -0.61028337017189
  B           0.13598665607398     -0.00037970377770     -0.00123911898461
  B          -1.97766915676592     -2.39444435404663      0.56186596559377
  B           0.40629004155389     -1.76017245511102     -0.43785181063051
  B           1.71364716482052      0.74217874916705      0.52523602628519
  B          -0.71159825961374      2.82491594365741      0.18146946927592
  B          -0.97300898457032      1.22340996621496     -0.45197307221830
  B          -0.99232383763851     -1.21645674933742      0.42562466942704
  B          -0.72390154728316     -2.82266025847541     -0.19071569927025
  B           1.72277496972924     -0.75668450316624     -0.48430626377470
