12
Coordinates from ORCA-job input E -295.160260491099
  B       4.000000     -0.000000      1.240000
  B       2.000000      3.464102      1.240000
  B      -2.000000      3.464102      1.240000
  B      -4.000000      0.000000      1.240000
  B      -2.000000     -3.464102      1.240000
  B       2.000000     -3.464102      1.240000
  B       3.256256      1.880000     -1.240000
  B       0.000000      3.760000     -1.240000
  B      -3.256256      1.880000     -1.240000
  B      -3.256256     -1.880000     -1.240000
  B      -0.000000     -3.760000     -1.240000
  B       3.256256     -1.880000     -1.240000
12
Coordinates from ORCA-job input E -295.176736764219
  B       3.967683      0.000317      1.213442
  B       1.985961      3.454261      1.223124
  B      -1.985927      3.454322      1.223068
  B      -3.967570      0.000057      1.213332
  B      -1.986559     -3.454563      1.222757
  B       1.986469     -3.454028      1.222688
  B       3.232965      1.868814     -1.216641
  B       0.000024      3.749313     -1.226134
  B      -3.232716      1.868631     -1.216344
  B      -3.232821     -1.868478     -1.217219
  B      -0.000303     -3.750044     -1.225068
  B       3.232794     -1.868602     -1.217005
12
Coordinates from ORCA-job input E -295.193738040377
  B       3.935161      0.000660      1.186618
  B       1.972078      3.444535      1.206374
  B      -1.971995      3.444633      1.206220
  B      -3.934898      0.000127      1.186387
  B      -1.973294     -3.445155      1.205616
  B       1.973097     -3.444030      1.205437
  B       3.209553      1.857806     -1.193199
  B       0.000059      3.738918     -1.212352
  B      -3.209017      1.857396     -1.192604
  B      -3.209272     -1.857134     -1.194376
  B      -0.000648     -3.740407     -1.210186
  B       3.209175     -1.857350     -1.193936
12
Coordinates from ORCA-job input E -295.220250869680
  B       3.886216      0.001196      1.146625
  B       1.951304      3.428643      1.181561
  B      -1.951102      3.428696      1.181156
  B      -3.885671      0.000247      1.146221
  B      -1.953419     -3.429724      1.180197
  B       1.953013     -3.427643      1.179777
  B       3.174285      1.840993     -1.158459
  B       0.000137      3.722020     -1.191618
  B      -3.173259      1.840143     -1.157406
  B      -3.173806     -1.839821     -1.160510
  B      -0.001230     -3.724649     -1.187857
  B       3.173534     -1.840102     -1.159687
12
Coordinates from ORCA-job input E -295.262421053528
  B       3.812408      0.002120      1.087254
  B       1.920472      3.402271      1.145189
  B      -1.919700      3.401536      1.143856
  B      -3.811310      0.000359      1.086614
  B      -1.923908     -3.403994      1.142860
  B       1.922769     -3.399781      1.141566
  B       3.121181      1.815262     -1.107542
  B       0.000550      3.693824     -1.160220
  B      -3.118956      1.813153     -1.105480
  B      -3.120439     -1.813354     -1.110874
  B      -0.002501     -3.698191     -1.154152
  B       3.119433     -1.813205     -1.109070
12
Coordinates from ORCA-job input E -295.309478355455
  B       3.734913      0.003144      1.025191
  B       1.889396      3.374299      1.108048
  B      -1.887998      3.372680      1.105653
  B      -3.733012      0.000535      1.024276
  B      -1.894291     -3.376665      1.104593
  B       1.892330     -3.370144      1.102211
  B       3.065568      1.788646     -1.055309
  B       0.000916      3.664203     -1.126980
  B      -3.062006      1.785122     -1.052236
  B      -3.064603     -1.785997     -1.060005
  B      -0.003947     -3.670506     -1.118379
  B       3.062733     -1.785319     -1.057063
12
Coordinates from ORCA-job input E -295.360172348447
  B       3.656522      0.004239      0.962846
  B       1.859298      3.345601      1.071495
  B      -1.857219      3.343018      1.067980
  B      -3.653556      0.000772      0.961612
  B      -1.865721     -3.348571      1.066776
  B       1.862891     -3.339644      1.063114
  B       3.009715      1.761709     -1.003983
  B       0.001183      3.633676     -1.092671
  B      -3.004730      1.756670     -0.999923
  B      -3.008594     -1.758354     -1.010076
  B      -0.005537     -3.642033     -1.081371
  B       3.005748     -1.757083     -1.005798
12
Coordinates from ORCA-job input E -295.414937821782
  B       3.577438      0.005368      0.900302
  B       1.830146      3.316260      1.035549
  B      -1.827380      3.312716      1.030963
  B      -3.573127      0.001106      0.898696
  B      -1.838123     -3.319781      1.029456
  B       1.834444     -3.308466      1.024370
  B       2.954125      1.733936     -0.953763
  B       0.001275      3.601622     -1.057087
  B      -2.947739      1.727356     -0.948800
  B      -2.952915     -1.729907     -0.961265
  B      -0.007213     -3.612116     -1.042952
  B       2.949069     -1.728092     -0.955470
12
Coordinates from ORCA-job input E -295.474964650209
  B       3.498691      0.006494      0.837011
  B       1.802106      3.287498      1.000036
  B      -1.798746      3.283132      0.994475
  B      -3.492716      0.001573      0.835001
  B      -1.811691     -3.291522      0.992497
  B       1.807209     -3.277943      0.985854
  B       2.899831      1.705273     -0.904130
  B       0.001120      3.568699     -1.020262
  B      -2.892184      1.697178     -0.898504
  B      -2.898547     -1.700568     -0.913070
  B      -0.008927     -3.581393     -1.003198
  B       2.893854     -1.698422     -0.905712
12
Coordinates from ORCA-job input E -295.541357215615
  B       3.423714      0.007722      0.772448
  B       1.775518      3.261352      0.964147
  B      -1.771711      3.256261      0.957257
  B      -3.415722      0.002144      0.770172
  B      -1.786974     -3.265905      0.954996
  B       1.781426     -3.249917      0.946349
  B       2.848182      1.677227     -0.853377
  B       0.000866      3.538547     -0.982781
  B      -2.839197      1.667304     -0.847571
  B      -2.846608     -1.671710     -0.863810
  B      -0.010853     -3.553600     -0.962647
  B       2.841358     -1.669427     -0.855183
12
Coordinates from ORCA-job input E -295.612969039136
  B       3.351364      0.009108      0.709228
  B       1.749573      3.235001      0.928363
  B      -1.745375      3.229018      0.919315
  B      -3.341257      0.002706      0.706904
  B      -1.763119     -3.240158      0.917310
  B       1.756154     -3.221278      0.906018
  B       2.796638      1.649033     -0.802258
  B       0.000736      3.510757     -0.946380
  B      -2.785830      1.636753     -0.796686
  B      -2.794396     -1.642578     -0.814144
  B      -0.013151     -3.528276     -0.922956
  B       2.788665     -1.640086     -0.804716
12
Coordinates from ORCA-job input E -295.689073626295
  B       3.277722      0.010460      0.649177
  B       1.723601      3.206254      0.893547
  B      -1.719138      3.199334      0.881832
  B      -3.265664      0.003236      0.646928
  B      -1.739218     -3.212063      0.880378
  B       1.730917     -3.190078      0.866089
  B       2.742816      1.618522     -0.752531
  B       0.000612      3.481813     -0.911539
  B      -2.729879      1.603829     -0.747570
  B      -2.739596     -1.611128     -0.765718
  B      -0.015668     -3.501705     -0.884648
  B       2.733493     -1.608473     -0.755943
12
Coordinates from ORCA-job input E -295.769564437644
  B       3.201956      0.011672      0.593130
  B       1.697487      3.174873      0.859410
  B      -1.692915      3.167131      0.844732
  B      -3.188196      0.003679      0.591010
  B      -1.715049     -3.181383      0.843942
  B       1.705756     -3.156320      0.826462
  B       2.686360      1.585733     -0.705107
  B       0.000371      3.449971     -0.877004
  B      -2.671180      1.568881     -0.701143
  B      -2.681962     -1.577388     -0.719312
  B      -0.018354     -3.472117     -0.846528
  B       2.675726     -1.574732     -0.709594
12
Coordinates from ORCA-job input E -295.854301834200
  B       3.124894      0.012684      0.541323
  B       1.671106      3.140064      0.825628
  B      -1.666525      3.131722      0.807912
  B      -3.109572      0.004173      0.539294
  B      -1.690439     -3.147285      0.807673
  B       1.680495     -3.119317      0.786934
  B       2.628799      1.551254     -0.660659
  B      -0.000161      3.414374     -0.841408
  B      -2.611418      1.532479     -0.657845
  B      -2.623160     -1.541934     -0.675582
  B      -0.021152     -3.438787     -0.807236
  B       2.617133     -1.539428     -0.666035
12
Coordinates from ORCA-job input E -295.941666585718
  B       3.047444      0.013356      0.494517
  B       1.644057      3.101000      0.791677
  B      -1.639492      3.092332      0.770841
  B      -3.030789      0.004803      0.492681
  B      -1.664989     -3.109054      0.770992
  B       1.654659     -3.078148      0.746840
  B       2.570941      1.516281     -0.619305
  B      -0.001080      3.375325     -0.804444
  B      -2.551390      1.495955     -0.617658
  B      -2.564101     -1.506054     -0.634699
  B      -0.023920     -3.402103     -0.766321
  B       2.558659     -1.503694     -0.625121
12
Coordinates from ORCA-job input E -296.033378190616
  B       2.970144      0.012438      0.453987
  B       1.614618      3.057141      0.757286
  B      -1.611790      3.048936      0.732721
  B      -2.952452      0.006324      0.452397
  B      -1.637005     -3.066347      0.733582
  B       1.628204     -3.032644      0.705268
  B       2.511940      1.481892     -0.581254
  B      -0.003441      3.333359     -0.766271
  B      -2.490546      1.462577     -0.580613
  B      -2.503916     -1.470568     -0.596616
  B      -0.025632     -3.362490     -0.723791
  B       2.499874     -1.470617     -0.586696
12
Coordinates from ORCA-job input E -296.125133687340
  B       2.906993      0.013908      0.417815
  B       1.595507      3.003264      0.722389
  B      -1.592280      2.992936      0.694935
  B      -2.888483      0.007690      0.416511
  B      -1.620627     -3.015475      0.694786
  B       1.611422     -2.975792      0.662043
  B       2.469339      1.444192     -0.547270
  B      -0.004630      3.274567     -0.725003
  B      -2.446125      1.425197     -0.547328
  B      -2.461441     -1.430647     -0.562238
  B      -0.028041     -3.307538     -0.675821
  B       2.458366     -1.432302     -0.550819
12
Coordinates from ORCA-job input E -296.218514003516
  B       2.848615      0.014971      0.381997
  B       1.577200      2.949064      0.683639
  B      -1.572882      2.936048      0.651873
  B      -2.829540      0.008441      0.382132
  B      -1.605089     -2.965091      0.649833
  B       1.593565     -2.916621      0.611100
  B       2.426962      1.415696     -0.510460
  B      -0.005530      3.221653     -0.681515
  B      -2.400733      1.396805     -0.511520
  B      -2.418149     -1.400000     -0.523981
  B      -0.030385     -3.259107     -0.622494
  B       2.415965     -1.401860     -0.510605
12
Coordinates from ORCA-job input E -296.304636413985
  B       2.790934      0.015939      0.354020
  B       1.554881      2.891593      0.644709
  B      -1.549708      2.875831      0.608694
  B      -2.771805      0.009776      0.355857
  B      -1.586218     -2.912446      0.604441
  B       1.571951     -2.854048      0.559735
  B       2.380163      1.394834     -0.476955
  B      -0.006272      3.166683     -0.639596
  B      -2.350592      1.376609     -0.478875
  B      -2.370465     -1.376897     -0.488435
  B      -0.032233     -3.209145     -0.570366
  B       2.369365     -1.378730     -0.473230
12
Coordinates from ORCA-job input E -296.382556719465
  B       2.734566      0.017194      0.333929
  B       1.528739      2.830498      0.606307
  B      -1.524200      2.812461      0.566683
  B      -2.715952      0.012773      0.337563
  B      -1.566421     -2.858781      0.559797
  B       1.549270     -2.789168      0.509115
  B       2.329589      1.382558     -0.446721
  B      -0.006472      3.109837     -0.601485
  B      -2.296509      1.366081     -0.449341
  B      -2.319586     -1.361728     -0.455519
  B      -0.033341     -3.157914     -0.521385
  B       2.320316     -1.363812     -0.438943
12
Coordinates from ORCA-job input E -296.459894960128
  B       2.679819      0.019886      0.319146
  B       1.498125      2.766007      0.569405
  B      -1.496117      2.751779      0.528661
  B      -2.661710      0.015260      0.324841
  B      -1.549257     -2.811033      0.515545
  B       1.522894     -2.727212      0.459053
  B       2.277467      1.379938     -0.419918
  B      -0.005957      3.058309     -0.569844
  B      -2.238465      1.364635     -0.422675
  B      -2.264773     -1.356243     -0.424273
  B      -0.033360     -3.105635     -0.472324
  B       2.271334     -1.355690     -0.407617
12
Coordinates from ORCA-job input E -296.554813039009
  B       2.624059      0.031347      0.302761
  B       1.469668      2.716751      0.529460
  B      -1.459356      2.718331      0.488735
  B      -2.606841      0.007352      0.311097
  B      -1.531333     -2.782908      0.472260
  B       1.481234     -2.685054      0.413430
  B       2.227502      1.395330     -0.394218
  B       0.000408      3.027404     -0.530991
  B      -2.178573      1.364442     -0.394910
  B      -2.209057     -1.370618     -0.395081
  B      -0.038502     -3.071463     -0.424086
  B       2.220792     -1.350914     -0.378457
12
Coordinates from ORCA-job input E -296.645409611260
  B       2.573123      0.034560      0.284518
  B       1.441222      2.691972      0.487722
  B      -1.426278      2.695513      0.446256
  B      -2.552789      0.002389      0.293633
  B      -1.511042     -2.767111      0.432952
  B       1.445805     -2.662071      0.373549
  B       2.179259      1.416172     -0.367407
  B       0.003118      3.014102     -0.485112
  B      -2.123073      1.374687     -0.367190
  B      -2.159027     -1.389553     -0.367536
  B      -0.043473     -3.052745     -0.378727
  B       2.173155     -1.357915     -0.352660
12
Coordinates from ORCA-job input E -296.718688886102
  B       2.526719      0.037020      0.265205
  B       1.408066      2.685896      0.445298
  B      -1.392116      2.681983      0.405216
  B      -2.499307     -0.001975      0.274326
  B      -1.493111     -2.757136      0.396356
  B       1.410845     -2.655479      0.340256
  B       2.134107      1.437963     -0.341371
  B       0.005287      3.009525     -0.436172
  B      -2.069895      1.388403     -0.339413
  B      -2.113864     -1.412656     -0.341399
  B      -0.049279     -3.046505     -0.337888
  B       2.132547     -1.367037     -0.330413
12
Coordinates from ORCA-job input E -296.772590668199
  B       2.485541      0.042000      0.243524
  B       1.380880      2.694871      0.406567
  B      -1.363040      2.684624      0.368293
  B      -2.449812     -0.010294      0.251151
  B      -1.482492     -2.763053      0.363979
  B       1.381904     -2.657646      0.308081
  B       2.097741      1.459170     -0.314372
  B       0.011073      3.019907     -0.391324
  B      -2.025343      1.400554     -0.312067
  B      -2.078303     -1.438096     -0.315265
  B      -0.056496     -3.052821     -0.299716
  B       2.098347     -1.379214     -0.308852
12
Coordinates from ORCA-job input E -296.811270111183
  B       2.461197      0.039838      0.219754
  B       1.375081      2.720755      0.375551
  B      -1.353964      2.706040      0.335889
  B      -2.414729     -0.018317      0.225799
  B      -1.486420     -2.791138      0.336534
  B       1.365680     -2.674101      0.278070
  B       2.082455      1.481767     -0.288133
  B       0.013823      3.055605     -0.356229
  B      -2.001740      1.413384     -0.284941
  B      -2.061013     -1.465729     -0.289881
  B      -0.063060     -3.077815     -0.265380
  B       2.082692     -1.390288     -0.287034
12
Coordinates from ORCA-job input E -296.841150809044
  B       2.449789      0.051690      0.197588
  B       1.382151      2.759242      0.352432
  B      -1.359880      2.736273      0.307289
  B      -2.390332     -0.028455      0.201272
  B      -1.502661     -2.833498      0.314734
  B       1.365281     -2.691544      0.249331
  B       2.086984      1.493288     -0.261860
  B       0.017648      3.105041     -0.329351
  B      -1.992034      1.424529     -0.260163
  B      -2.058403     -1.492341     -0.265598
  B      -0.074003     -3.113067     -0.237113
  B       2.075459     -1.411160     -0.268562
12
Coordinates from ORCA-job input E -296.863870636580
  B       2.436974      0.029331      0.176580
  B       1.398558      2.788076      0.328020
  B      -1.363788      2.768800      0.283593
  B      -2.362432     -0.034214      0.178629
  B      -1.526661     -2.874297      0.293984
  B       1.350395     -2.725308      0.229089
  B       2.080731      1.528467     -0.241383
  B       0.014488      3.154556     -0.306921
  B      -1.981916      1.431589     -0.236166
  B      -2.055174     -1.520029     -0.243859
  B      -0.072390     -3.149659     -0.212383
  B       2.081215     -1.397311     -0.249183
12
Coordinates from ORCA-job input E -296.887003654988
  B       2.428540      0.042729      0.159025
  B       1.405537      2.835740      0.309786
  B      -1.379891      2.800362      0.259253
  B      -2.333640     -0.043812      0.157303
  B      -1.545149     -2.927869      0.275363
  B       1.360726     -2.741217      0.205926
  B       2.090404      1.532987     -0.219659
  B       0.019711      3.211575     -0.287144
  B      -1.973106      1.442258     -0.213392
  B      -2.053459     -1.541339     -0.221676
  B      -0.095972     -3.188215     -0.191187
  B       2.076299     -1.423199     -0.233598
12
Coordinates from ORCA-job input E -296.903727617367
  B       2.411953      0.061415      0.142928
  B       1.424826      2.864557      0.292947
  B      -1.383861      2.835091      0.233314
  B      -2.300506     -0.052429      0.138461
  B      -1.583563     -2.965660      0.259207
  B       1.353749     -2.755961      0.180341
  B       2.096697      1.534600     -0.195380
  B       0.011729      3.260698     -0.269921
  B      -1.959172      1.441586     -0.192051
  B      -2.051772     -1.576201     -0.196736
  B      -0.084722     -3.214420     -0.174132
  B       2.064642     -1.433277     -0.218980
12
Coordinates from ORCA-job input E -296.919751498697
  B       2.392650      0.051236      0.128834
  B       1.433305      2.896938      0.269916
  B      -1.398363      2.856376      0.212533
  B      -2.256361     -0.069437      0.120082
  B      -1.595151     -3.025699      0.238776
  B       1.349483     -2.768931      0.163285
  B       2.086549      1.559174     -0.177139
  B       0.021154      3.309248     -0.253818
  B      -1.936727      1.454649     -0.168874
  B      -2.039592     -1.585138     -0.176407
  B      -0.117520     -3.249403     -0.155075
  B       2.060572     -1.429013     -0.202114
12
Coordinates from ORCA-job input E -296.931596641985
  B       2.373713      0.049807      0.116219
  B       1.427823      2.942402      0.249270
  B      -1.399742      2.885208      0.191414
  B      -2.200260     -0.062236      0.103856
  B      -1.620893     -3.062872      0.214748
  B       1.336359     -2.783700      0.147863
  B       2.078374      1.566213     -0.162072
  B       0.020855      3.358626     -0.235287
  B      -1.909640      1.440643     -0.145225
  B      -2.015282     -1.627418     -0.153718
  B      -0.142871     -3.275348     -0.139898
  B       2.051562     -1.431324     -0.187170
12
Coordinates from ORCA-job input E -296.942602180057
  B       2.354184      0.066894      0.107444
  B       1.442156      2.960286      0.234534
  B      -1.405225      2.899665      0.162867
  B      -2.148450     -0.090801      0.089485
  B      -1.658144     -3.102163      0.200248
  B       1.317705     -2.791993      0.125145
  B       2.075544      1.572538     -0.141435
  B       0.001222      3.394707     -0.221899
  B      -1.872878      1.454092     -0.125113
  B      -2.006146     -1.633443     -0.127541
  B      -0.134134     -3.292628     -0.127371
  B       2.034166     -1.437153     -0.176363
12
Coordinates from ORCA-job input E -296.951510109771
  B       2.329813      0.074648      0.101112
  B       1.459242      2.962658      0.209500
  B      -1.417605      2.916128      0.144244
  B      -2.093261     -0.102993      0.077031
  B      -1.681131     -3.140977      0.177283
  B       1.306091     -2.774257      0.108821
  B       2.063325      1.589841     -0.123252
  B       0.011027      3.430965     -0.210620
  B      -1.846595      1.436347     -0.102362
  B      -1.982684     -1.660826     -0.105025
  B      -0.166145     -3.302523     -0.115878
  B       2.017925     -1.429010     -0.160853
12
Coordinates from ORCA-job input E -296.957647481627
  B       2.315382      0.061637      0.092809
  B       1.421791      3.007198      0.190641
  B      -1.424134      2.929373      0.123326
  B      -2.026074     -0.107549      0.065012
  B      -1.695567     -3.183250      0.156087
  B       1.272738     -2.788568      0.097507
  B       2.047256      1.577799     -0.115766
  B       0.018139      3.471858     -0.190255
  B      -1.802379      1.449480     -0.082591
  B      -1.947729     -1.679903     -0.084934
  B      -0.192274     -3.322639     -0.100540
  B       2.012852     -1.415436     -0.151294
12
Coordinates from ORCA-job input E -296.962045680178
  B       2.320854      0.055706      0.089641
  B       1.415275      3.024773      0.179415
  B      -1.412415      2.949935      0.096515
  B      -1.956695     -0.112264      0.053436
  B      -1.724687     -3.211188      0.139003
  B       1.256337     -2.789801      0.083198
  B       2.045534      1.590429     -0.104684
  B      -0.052430      3.502672     -0.172938
  B      -1.753103      1.439544     -0.067100
  B      -1.917669     -1.684312     -0.062336
  B      -0.236268     -3.334862     -0.088921
  B       2.015270     -1.430630     -0.145230
12
Coordinates from ORCA-job input E -296.967890631931
  B       2.330007      0.085275      0.093659
  B       1.445485      3.000316      0.159483
  B      -1.448042      2.918137      0.080726
  B      -1.930219     -0.140647      0.048745
  B      -1.786511     -3.211488      0.123254
  B       1.244413     -2.748124      0.069363
  B       2.057128      1.612191     -0.091857
  B      -0.028407      3.516332     -0.169761
  B      -1.744696      1.415370     -0.047725
  B      -1.922997     -1.707909     -0.040101
  B      -0.230594     -3.312785     -0.088898
  B       2.014435     -1.426667     -0.136888
12
Coordinates from ORCA-job input E -296.973045608550
  B       2.318286      0.096013      0.090456
  B       1.421793      3.002379      0.146541
  B      -1.441013      2.947277      0.071358
  B      -1.888915     -0.157894      0.042344
  B      -1.780628     -3.257529      0.112681
  B       1.197268     -2.736151      0.063687
  B       2.045189      1.598137     -0.088704
  B      -0.011859      3.536782     -0.154700
  B      -1.715218      1.413594     -0.040844
  B      -1.893530     -1.726216     -0.032563
  B      -0.252409     -3.314341     -0.076520
  B       2.001037     -1.402049     -0.133735
12
Coordinates from ORCA-job input E -296.976080806461
  B       2.349038      0.064276      0.091894
  B       1.385572      3.002984      0.139041
  B      -1.451096      2.928091      0.058373
  B      -1.854779     -0.149639      0.038277
  B      -1.798174     -3.254899      0.102861
  B       1.188669     -2.705303      0.057812
  B       2.053752      1.573637     -0.088982
  B      -0.046219      3.532982     -0.143323
  B      -1.692121      1.431520     -0.032513
  B      -1.877187     -1.733678     -0.021426
  B      -0.288302     -3.294710     -0.071015
  B       2.030847     -1.395260     -0.130999
12
Coordinates from ORCA-job input E -296.982757085811
  B       2.390962      0.072130      0.098470
  B       1.358246      3.000112      0.118253
  B      -1.456142      2.926513      0.036238
  B      -1.798370     -0.168079      0.031428
  B      -1.846070     -3.279803      0.085437
  B       1.144212     -2.674112      0.043421
  B       2.061494      1.593964     -0.082790
  B      -0.069877      3.548043     -0.124724
  B      -1.653827      1.402611     -0.016694
  B      -1.856771     -1.743513      0.000219
  B      -0.325817     -3.273118     -0.062081
  B       2.051960     -1.404747     -0.127176
12
Coordinates from ORCA-job input E -296.988163105703
  B       2.447325      0.103528      0.106838
  B       1.362588      2.936918      0.099352
  B      -1.481178      2.928082      0.019809
  B      -1.764350     -0.201646      0.027706
  B      -1.875146     -3.308283      0.071781
  B       1.076693     -2.597692      0.030530
  B       2.095317      1.581084     -0.076284
  B      -0.090156      3.557310     -0.111800
  B      -1.637818      1.388919     -0.005281
  B      -1.841422     -1.787248      0.016305
  B      -0.368979     -3.220897     -0.053431
  B       2.077126     -1.380075     -0.125523
12
Coordinates from ORCA-job input E -296.994520119782
  B       2.641169      0.029551      0.132761
  B       1.195862      2.755920      0.037382
  B      -1.539841      2.936642     -0.029053
  B      -1.686098     -0.228464      0.026451
  B      -1.977179     -3.385572      0.038538
  B       0.994488     -2.300695     -0.016695
  B       2.134964      1.473787     -0.070591
  B      -0.127005      3.518927     -0.060773
  B      -1.596327      1.376467      0.021451
  B      -1.810784     -1.802576      0.061575
  B      -0.419652     -3.002755     -0.038016
  B       2.190402     -1.371232     -0.103031
12
Coordinates from ORCA-job input E -296.989553270859
  B       2.807024      0.045048      0.120700
  B       1.101831      2.698209      0.054429
  B      -1.630315      2.879660     -0.022359
  B      -1.647469     -0.160547     -0.010333
  B      -1.930091     -3.189158      0.078290
  B       0.973791     -2.436947     -0.007251
  B       2.153400      1.468725     -0.050600
  B      -0.242482      3.479436     -0.029828
  B      -1.601324      1.406626     -0.015853
  B      -1.811401     -1.712724      0.039533
  B      -0.499350     -3.022381     -0.016561
  B       2.326387     -1.455948     -0.140166
12
Coordinates from ORCA-job input E -297.009850745135
  B       2.816429      0.025824      0.102600
  B       1.060273      2.560556      0.041328
  B      -1.658991      3.001911     -0.035080
  B      -1.668154     -0.135770     -0.005526
  B      -1.947775     -3.242893      0.081067
  B       1.031410     -2.368565     -0.010812
  B       2.126402      1.384547     -0.043479
  B      -0.239068      3.460086     -0.010046
  B      -1.586113      1.474615     -0.018748
  B      -1.813241     -1.730293      0.038201
  B      -0.441190     -3.012463     -0.017412
  B       2.320018     -1.417555     -0.122092
12
Coordinates from ORCA-job input E -297.017111409507
  B       2.873327     -0.068309      0.087215
  B       0.981110      2.379102      0.046730
  B      -1.802743      3.075441     -0.066860
  B      -1.617742     -0.063443      0.004690
  B      -1.865853     -3.173827      0.084522
  B       1.027572     -2.290975     -0.026681
  B       2.073943      1.242576     -0.020417
  B      -0.292993      3.340385      0.005317
  B      -1.558019      1.539998     -0.026182
  B      -1.720252     -1.634177      0.047345
  B      -0.378232     -2.905674     -0.017132
  B       2.279884     -1.441098     -0.118547
12
Coordinates from ORCA-job input E -297.029141316380
  B       2.953294     -0.039642      0.033186
  B       0.919421      2.291792      0.006042
  B      -1.893432      3.107784     -0.088745
  B      -1.555066     -0.026551      0.020151
  B      -1.936212     -3.155352      0.082544
  B       1.034467     -2.267459     -0.093088
  B       2.071837      1.205501      0.062870
  B      -0.335629      3.184180      0.017798
  B      -1.468354      1.581364     -0.027957
  B      -1.681845     -1.606510      0.055661
  B      -0.440816     -2.875693      0.008096
  B       2.332335     -1.399414     -0.076557
12
Coordinates from ORCA-job input E -297.034818641736
  B       2.976556     -0.040762      0.029196
  B       0.885997      2.256123      0.001234
  B      -1.902386      3.096235     -0.073829
  B      -1.534217     -0.003316      0.020012
  B      -1.938003     -3.110981      0.070888
  B       1.041238     -2.280932     -0.083894
  B       2.063748      1.177631      0.053436
  B      -0.372726      3.166079      0.009495
  B      -1.463407      1.603202     -0.024295
  B      -1.672693     -1.585441      0.053700
  B      -0.434485     -2.869183      0.007851
  B       2.350376     -1.408655     -0.063795
12
Coordinates from ORCA-job input E -297.038661955328
  B       3.014102     -0.039393      0.021562
  B       0.821322      2.179648      0.000813
  B      -1.917206      3.086712     -0.055970
  B      -1.490538      0.034785      0.017631
  B      -1.935241     -3.042929      0.057865
  B       1.052664     -2.289691     -0.069909
  B       2.034028      1.118067      0.039718
  B      -0.423036      3.128903     -0.000527
  B      -1.445073      1.640050     -0.020027
  B      -1.659200     -1.549209      0.047915
  B      -0.424368     -2.857814      0.009931
  B       2.372546     -1.409128     -0.049003
12
Coordinates from ORCA-job input E -297.040089135881
  B       3.031422     -0.035243      0.018293
  B       0.796314      2.146353     -0.002131
  B      -1.923480      3.092757     -0.041765
  B      -1.472906      0.043084      0.016867
  B      -1.932962     -3.030618      0.048979
  B       1.054337     -2.281662     -0.059124
  B       2.015534      1.088668      0.030617
  B      -0.428056      3.119546     -0.009736
  B      -1.432959      1.648633     -0.016588
  B      -1.658466     -1.539603      0.043768
  B      -0.422308     -2.855334      0.010247
  B       2.373531     -1.396581     -0.039427
12
Coordinates from ORCA-job input E -297.048212097874
  B       3.152464      0.003457      0.012421
  B       0.701554      2.000716     -0.015221
  B      -1.971633      3.066222      0.001786
  B      -1.281971      0.032806      0.011525
  B      -1.939510     -3.004167      0.019640
  B       0.985194     -2.144040     -0.020124
  B       1.917067      0.904203     -0.013027
  B      -0.430235      3.060362     -0.028096
  B      -1.256723      1.636689     -0.007447
  B      -1.687651     -1.505980      0.029930
  B      -0.444136     -2.860324      0.014184
  B       2.255581     -1.189944     -0.005571
12
Coordinates from ORCA-job input E -297.051970209803
  B       3.165194      0.016946      0.006403
  B       0.720347      2.000566     -0.012744
  B      -1.946078      3.056629     -0.000581
  B      -1.307222      0.014029      0.010481
  B      -1.943815     -3.025846      0.018019
  B       0.965819     -2.112771     -0.013141
  B       1.931995      0.907237     -0.017031
  B      -0.408562      3.064928     -0.023039
  B      -1.260354      1.616779     -0.006076
  B      -1.704823     -1.525729      0.023890
  B      -0.446338     -2.859034      0.018045
  B       2.233836     -1.153734     -0.004227
12
Coordinates from ORCA-job input E -297.056588894756
  B       3.189978      0.030688      0.004073
  B       0.744608      1.992072     -0.012286
  B      -1.909052      3.030582     -0.001006
  B      -1.343129     -0.005980      0.010236
  B      -1.948212     -3.049333      0.016428
  B       0.936259     -2.063670     -0.009466
  B       1.954751      0.903413     -0.019075
  B      -0.387040      3.059726     -0.021544
  B      -1.262451      1.594631     -0.005565
  B      -1.725112     -1.547715      0.022868
  B      -0.447662     -2.850693      0.018843
  B       2.197061     -1.093721     -0.003506
12
Coordinates from ORCA-job input E -297.059346155850
  B       3.211237      0.035059      0.003474
  B       0.762793      1.984665     -0.013202
  B      -1.884990      3.012831     -0.000673
  B      -1.373070     -0.017974      0.010428
  B      -1.947900     -3.066933      0.015148
  B       0.916044     -2.026598     -0.007292
  B       1.970746      0.895951     -0.020917
  B      -0.371400      3.054161     -0.020806
  B      -1.266003      1.580674     -0.005013
  B      -1.739028     -1.562617      0.022554
  B      -0.447599     -2.843004      0.018929
  B       2.169172     -1.046215     -0.002631
12
Coordinates from ORCA-job input E -296.975604203205
  B       3.421464      0.128634      0.000000
  B       0.886261      1.826822     -0.031188
  B      -1.671069      2.843858      0.010671
  B      -1.765435     -0.080406      0.010150
  B      -1.898229     -3.161516     -0.008020
  B       0.772543     -1.629137      0.033074
  B       2.012757      0.666650     -0.062533
  B      -0.213916      2.980222     -0.006761
  B      -1.364783      1.451052      0.005531
  B      -1.857411     -1.644748      0.012350
  B      -0.432650     -2.668736      0.020346
  B       2.110469     -0.712694      0.016378
12
Coordinates from ORCA-job input E -297.015508337606
  B       3.392114      0.122591      0.001943
  B       0.872623      1.865448     -0.028455
  B      -1.693673      2.884436      0.007274
  B      -1.726936     -0.075921      0.009140
  B      -1.901095     -3.163278     -0.003676
  B       0.793220     -1.693729      0.028186
  B       1.994623      0.701248     -0.060899
  B      -0.223879      3.012999     -0.005158
  B      -1.354071      1.468118      0.004175
  B      -1.840434     -1.645707      0.012605
  B      -0.433470     -2.703131      0.021133
  B       2.120978     -0.773074      0.013733
12
Coordinates from ORCA-job input E -297.039952202695
  B       3.352699      0.114438      0.002155
  B       0.839193      1.894046     -0.024166
  B      -1.724382      2.943097      0.005007
  B      -1.658915     -0.067626      0.007551
  B      -1.900099     -3.160976     -0.001006
  B       0.824426     -1.772298      0.026551
  B       1.953285      0.721249     -0.060086
  B      -0.233676      3.052262     -0.004957
  B      -1.329115      1.494305      0.002906
  B      -1.815705     -1.642433      0.011620
  B      -0.429993     -2.748289      0.022549
  B       2.122282     -0.827776      0.011875
12
Coordinates from ORCA-job input E -297.054110300086
  B       3.300604      0.097154      0.000568
  B       0.799389      1.911359     -0.023546
  B      -1.754834      2.979992      0.005071
  B      -1.596880     -0.045838      0.005504
  B      -1.895703     -3.138576      0.000977
  B       0.865817     -1.855386      0.026635
  B       1.914404      0.736489     -0.058610
  B      -0.254259      3.077604     -0.004598
  B      -1.314174      1.528265      0.002160
  B      -1.779813     -1.623739      0.008763
  B      -0.420723     -2.778171      0.024061
  B       2.136171     -0.889152      0.013014
12
Coordinates from ORCA-job input E -297.060948585476
  B       3.257929      0.098739     -0.002367
  B       0.708368      1.910469     -0.007736
  B      -1.810012      3.051888      0.001370
  B      -1.443865     -0.026138      0.002503
  B      -1.903916     -3.107163      0.002663
  B       0.913055     -1.967150      0.028658
  B       1.833379      0.738937     -0.058695
  B      -0.281901      3.118723     -0.008058
  B      -1.245898      1.573546     -0.000425
  B      -1.733481     -1.597105      0.007003
  B      -0.419918     -2.846146      0.026616
  B       2.126260     -0.948600      0.008467
12
Coordinates from ORCA-job input E -297.063192306389
  B       3.189479      0.060621     -0.003608
  B       0.682741      1.902778     -0.019860
  B      -1.829814      3.047072      0.005383
  B      -1.444365      0.021076      0.002128
  B      -1.895007     -3.053267      0.002294
  B       0.968946     -2.039059      0.024379
  B       1.829815      0.749181     -0.051961
  B      -0.318283      3.101666     -0.008433
  B      -1.285435      1.612760      0.000011
  B      -1.682112     -1.552980      0.008537
  B      -0.400027     -2.826789      0.024924
  B       2.184063     -1.023059      0.016205
12
Coordinates from ORCA-job input E -297.064357612161
  B       3.212810      0.078472     -0.012439
  B       0.685223      1.905058     -0.013911
  B      -1.830718      3.051515      0.005680
  B      -1.429624      0.008171     -0.000424
  B      -1.907196     -3.068169      0.001242
  B       0.954257     -2.032984      0.031941
  B       1.842484      0.760433     -0.053267
  B      -0.312029      3.104620     -0.006707
  B      -1.270515      1.605811     -0.001246
  B      -1.691747     -1.564456      0.003173
  B      -0.411546     -2.843571      0.028248
  B       2.158601     -1.004900      0.017709
12
Coordinates from ORCA-job input E -297.064495897439
  B       3.219975      0.080414     -0.010474
  B       0.674972      1.891002     -0.008579
  B      -1.829877      3.060345      0.007519
  B      -1.432630      0.013002     -0.001666
  B      -1.908930     -3.064237      0.005930
  B       0.959082     -2.038070      0.028522
  B       1.841886      0.758287     -0.045891
  B      -0.313430      3.102381     -0.013815
  B      -1.279869      1.611130     -0.002506
  B      -1.686412     -1.561725      0.002572
  B      -0.410633     -2.844826      0.027400
  B       2.165867     -1.007702      0.010988
12
Coordinates from ORCA-job input E -297.064693493358
  B       3.222763      0.081679      0.001293
  B       0.665679      1.878215      0.003009
  B      -1.830503      3.072181      0.000012
  B      -1.430706      0.017742     -0.003842
  B      -1.914590     -3.060517      0.026146
  B       0.963876     -2.049787      0.004576
  B       1.851219      0.764859     -0.020970
  B      -0.313879      3.097937     -0.021640
  B      -1.296062      1.616969     -0.007678
  B      -1.671658     -1.557863      0.007442
  B      -0.412132     -2.852630      0.023557
  B       2.165992     -1.008785     -0.011906
12
Coordinates from ORCA-job input E -297.064821815993
  B       3.218494      0.078859      0.011289
  B       0.651326      1.866814      0.012329
  B      -1.831387      3.083001     -0.009613
  B      -1.420898      0.024562     -0.004074
  B      -1.914259     -3.051677      0.041311
  B       0.968667     -2.061042     -0.016056
  B       1.846102      0.761685     -0.002043
  B      -0.315032      3.096972     -0.026438
  B      -1.307326      1.623936     -0.010502
  B      -1.651721     -1.551737      0.014324
  B      -0.409722     -2.858970      0.018803
  B       2.165756     -1.012404     -0.029329
12
Coordinates from ORCA-job input E -297.065123830122
  B       3.201751      0.071082      0.025940
  B       0.615999      1.843115      0.029211
  B      -1.832702      3.106850     -0.031762
  B      -1.387806      0.041189     -0.003625
  B      -1.910326     -3.028995      0.068015
  B       0.975712     -2.086035     -0.054271
  B       1.825618      0.748550      0.033123
  B      -0.315693      3.098112     -0.032561
  B      -1.331102      1.640974     -0.013894
  B      -1.595706     -1.537801      0.029198
  B      -0.402534     -2.878075      0.007819
  B       2.156788     -1.018965     -0.057192
12
Coordinates from ORCA-job input E -297.065765333732
  B       3.168221      0.060500      0.027019
  B       0.552666      1.803406      0.047837
  B      -1.835298      3.141201     -0.057856
  B      -1.316324      0.071153     -0.005233
  B      -1.902231     -2.982947      0.093753
  B       0.981509     -2.126520     -0.087421
  B       1.782631      0.721783      0.070721
  B      -0.316818      3.100559     -0.033591
  B      -1.365636      1.667918     -0.016219
  B      -1.489879     -1.513498      0.041753
  B      -0.391990     -2.914324     -0.005138
  B       2.133149     -1.029229     -0.075624
12
Coordinates from ORCA-job input E -297.066767730764
  B       3.133944      0.052584      0.018620
  B       0.486745      1.760613      0.069074
  B      -1.839748      3.167842     -0.079527
  B      -1.234484      0.102202     -0.012656
  B      -1.894153     -2.927732      0.118762
  B       0.982845     -2.165089     -0.109588
  B       1.739981      0.697490      0.105448
  B      -0.320567      3.097749     -0.027323
  B      -1.392956      1.688830     -0.024215
  B      -1.380996     -1.487777      0.044879
  B      -0.386787     -2.948590     -0.012040
  B       2.106176     -1.038123     -0.091433
12
Coordinates from ORCA-job input E -297.068588830867
  B       3.102399      0.049314     -0.002225
  B       0.422194      1.718217      0.078298
  B      -1.850076      3.183053     -0.081881
  B      -1.146662      0.132749     -0.021890
  B      -1.889424     -2.866174      0.123545
  B       0.982190     -2.200756     -0.102256
  B       1.700500      0.677378      0.116574
  B      -0.328915      3.091311     -0.016668
  B      -1.406827      1.702522     -0.032298
  B      -1.281535     -1.461455      0.036906
  B      -0.387401     -2.976138     -0.010306
  B       2.083559     -1.050021     -0.087798
12
Coordinates from ORCA-job input E -297.066163657549
  B       3.005048      0.090609     -0.070297
  B       0.187085      1.516446      0.070610
  B      -1.779031      3.311196     -0.073671
  B      -1.073918      0.213677     -0.040420
  B      -1.815470     -2.757176      0.116103
  B       0.976359     -2.246860     -0.050812
  B       1.562561      0.605512      0.117121
  B      -0.267524      3.023150      0.033667
  B      -1.441663      1.785603     -0.059895
  B      -1.043885     -1.426345      0.003582
  B      -0.335209     -3.062258      0.008154
  B       2.025647     -1.053555     -0.054142
12
Coordinates from ORCA-job input E -297.069626056338
  B       3.016265      0.096217     -0.072937
  B       0.205624      1.527643      0.072213
  B      -1.787681      3.300471     -0.074111
  B      -1.050189      0.206553     -0.042862
  B      -1.827422     -2.763513      0.115181
  B       0.963356     -2.237172     -0.049017
  B       1.576382      0.609488      0.118171
  B      -0.272797      3.026470      0.036950
  B      -1.449991      1.778094     -0.062038
  B      -1.050408     -1.427998      0.003307
  B      -0.350305     -3.068863      0.010036
  B       2.027166     -1.047391     -0.054892
12
Coordinates from ORCA-job input E -297.072696236465
  B       3.023844      0.098513     -0.076772
  B       0.222126      1.540543      0.074099
  B      -1.800937      3.285229     -0.073861
  B      -1.014889      0.204025     -0.044677
  B      -1.838069     -2.762508      0.112271
  B       0.947344     -2.230982     -0.046151
  B       1.585899      0.611062      0.119380
  B      -0.285733      3.035549      0.039649
  B      -1.453753      1.769093     -0.064114
  B      -1.051449     -1.427242      0.003219
  B      -0.364190     -3.074916      0.012580
  B       2.029807     -1.048366     -0.055625
12
Coordinates from ORCA-job input E -297.076574049070
  B       3.025925      0.096867     -0.082943
  B       0.246323      1.565332      0.077014
  B      -1.822665      3.260116     -0.074648
  B      -0.955287      0.202110     -0.045862
  B      -1.850372     -2.754812      0.107214
  B       0.922065     -2.224409     -0.042196
  B       1.593103      0.613257      0.121328
  B      -0.306090      3.050305      0.044621
  B      -1.453812      1.753139     -0.067409
  B      -1.045584     -1.425775      0.003407
  B      -0.380856     -3.084141      0.016194
  B       2.027250     -1.051988     -0.056720
12
Coordinates from ORCA-job input E -297.081632948324
  B       3.016768      0.089648     -0.092431
  B       0.276274      1.604456      0.081385
  B      -1.855792      3.221710     -0.077847
  B      -0.857894      0.203009     -0.043872
  B      -1.864117     -2.733116      0.098948
  B       0.887316     -2.220466     -0.037700
  B       1.590556      0.613937      0.124703
  B      -0.336195      3.070288      0.051557
  B      -1.447695      1.728624     -0.071549
  B      -1.024563     -1.419881      0.004512
  B      -0.401316     -3.098402      0.020442
  B       2.016657     -1.059807     -0.058148
12
Coordinates from ORCA-job input E -297.088985152552
  B       2.989560      0.076989     -0.105334
  B       0.312666      1.661659      0.086664
  B      -1.903314      3.158563     -0.084332
  B      -0.704794      0.209072     -0.032950
  B      -1.878381     -2.686201      0.084688
  B       0.839254     -2.221047     -0.033308
  B       1.571954      0.613169      0.129178
  B      -0.380831      3.093053      0.058184
  B      -1.428758      1.688966     -0.075306
  B      -0.980537     -1.404688      0.007998
  B      -0.430046     -3.116522      0.024188
  B       1.993228     -1.073013     -0.059672
12
Coordinates from ORCA-job input E -297.099749928578
  B       2.939267      0.056663     -0.121314
  B       0.365037      1.742438      0.090490
  B      -1.970131      3.040310     -0.093189
  B      -0.471936      0.225454     -0.001427
  B      -1.892058     -2.590189      0.058120
  B       0.765333     -2.219815     -0.029307
  B       1.536491      0.614715      0.133449
  B      -0.450338      3.109137      0.057641
  B      -1.390530      1.613253     -0.075363
  B      -0.905395     -1.370417      0.016305
  B      -0.476609     -3.128402      0.024493
  B       1.950867     -1.093147     -0.059899
12
Coordinates from ORCA-job input E -295.836550609857
  B       2.375705      0.053347     -0.169470
  B       0.504283      2.004908      0.056423
  B      -1.961081      2.840642     -0.013584
  B       0.171533      0.505710      0.087532
  B      -1.570903     -2.376795     -0.109468
  B       0.523861     -2.320874      0.057781
  B       0.970352      0.573164      0.007588
  B      -0.427727      3.170252      0.107946
  B      -1.278986      1.426559     -0.142728
  B      -0.672518     -1.242139     -0.006314
  B      -0.388258     -3.327326      0.091602
  B       1.753739     -1.307447      0.032692
12
Coordinates from ORCA-job input E -296.996820566367
  B       2.808091      0.080347     -0.204388
  B       0.551418      1.986644      0.108237
  B      -2.074097      2.732862     -0.074356
  B      -0.117731      0.379533      0.119606
  B      -1.873731     -2.345525     -0.055370
  B       0.683341     -2.159133      0.024914
  B       1.344454      0.518346      0.073350
  B      -0.550090      3.043558      0.122670
  B      -1.306626      1.391036     -0.181740
  B      -1.171355     -1.156366      0.013041
  B      -0.497570     -3.162159      0.086388
  B       2.203895     -1.309144     -0.032351
12
Coordinates from ORCA-job input E -297.040372498687
  B       2.828228      0.100345     -0.197575
  B       0.541222      1.981682      0.111475
  B      -2.081561      2.748592     -0.094154
  B      -0.099108      0.354794      0.127340
  B      -1.910948     -2.415307     -0.041422
  B       0.668799     -2.170270      0.010608
  B       1.398180      0.525131      0.099014
  B      -0.574936      3.058289      0.111992
  B      -1.286475      1.411367     -0.177556
  B      -1.111657     -1.137644      0.032456
  B      -0.533827     -3.175633      0.072329
  B       2.162083     -1.281346     -0.054508
12
Coordinates from ORCA-job input E -297.061168618726
  B       2.847548      0.092148     -0.187869
  B       0.536499      1.973320      0.112509
  B      -2.086264      2.753782     -0.104929
  B      -0.106821      0.316744      0.131445
  B      -1.898777     -2.437600     -0.022158
  B       0.655793     -2.163240     -0.003193
  B       1.437429      0.525963      0.118738
  B      -0.591512      3.065220      0.100728
  B      -1.267892      1.425521     -0.176735
  B      -1.089471     -1.140969      0.046729
  B      -0.539781     -3.155628      0.054853
  B       2.103248     -1.255260     -0.070117
12
Coordinates from ORCA-job input E -297.080752997904
  B       2.902952      0.072665     -0.179280
  B       0.515920      1.925265      0.112398
  B      -2.102575      2.739148     -0.124892
  B      -0.115997      0.265067      0.137921
  B      -1.897231     -2.425786      0.006786
  B       0.651841     -2.142625     -0.024211
  B       1.497105      0.515084      0.144221
  B      -0.620550      3.050554      0.086392
  B      -1.250611      1.436970     -0.169435
  B      -1.054208     -1.121908      0.068693
  B      -0.557828     -3.113684      0.025656
  B       2.031182     -1.200749     -0.084249
12
Coordinates from ORCA-job input E -297.069801263149
  B       2.923500     -0.107805     -0.153912
  B       0.459151      1.828744      0.143087
  B      -2.084674      2.676227     -0.262836
  B      -0.075805      0.134548      0.236311
  B      -1.858620     -2.463622      0.169767
  B       0.527602     -2.004480     -0.158849
  B       1.688406      0.637540      0.273589
  B      -0.610271      3.016843      0.011616
  B      -1.123544      1.431338     -0.163673
  B      -0.913428     -1.220086      0.207594
  B      -0.521660     -3.067721     -0.171200
  B       1.589344     -0.861525     -0.131496
12
Coordinates from ORCA-job input E -297.099480399725
  B       2.991261     -0.058151     -0.134083
  B       0.417741      1.811970      0.143880
  B      -2.098725      2.769880     -0.231153
  B      -0.134316      0.221576      0.219711
  B      -1.918678     -2.471750      0.184257
  B       0.631077     -2.139658     -0.169747
  B       1.708989      0.722519      0.245691
  B      -0.594591      3.049311      0.011874
  B      -1.230586      1.486510     -0.172796
  B      -1.006311     -1.245596      0.205908
  B      -0.549559     -3.129330     -0.173744
  B       1.783700     -1.017281     -0.129799
12
Coordinates from ORCA-job input E -297.093601625336
  B       2.762616      0.015681     -0.082909
  B       0.495078      1.974426      0.118835
  B      -2.027218      2.620798     -0.258270
  B       0.014210      0.196994      0.295412
  B      -1.879135     -2.459365      0.267006
  B       0.541807     -2.164876     -0.276043
  B       1.569661      0.803604      0.350743
  B      -0.591564      3.052187     -0.074710
  B      -1.108687      1.396023     -0.166665
  B      -0.852581     -1.275680      0.310449
  B      -0.668526     -3.117163     -0.309832
  B       1.744340     -1.042628     -0.174017
12
Coordinates from ORCA-job input E -297.075159353292
  B       3.062938     -0.025027     -0.036521
  B       0.394797      1.683014      0.134567
  B      -2.199637      2.653274     -0.259584
  B      -0.032805      0.268904      0.259087
  B      -1.931644     -2.256646      0.287244
  B       0.634122     -2.137970     -0.282782
  B       1.677163      0.604208      0.349932
  B      -0.703505      2.979533     -0.077308
  B      -1.302101      1.422641     -0.160719
  B      -0.842541     -1.085356      0.294872
  B      -0.692894     -2.980624     -0.288601
  B       1.936108     -1.125949     -0.220189
12
Coordinates from ORCA-job input E -297.103725439441
  B       3.003542     -0.010509     -0.050099
  B       0.422606      1.784589      0.126472
  B      -2.143989      2.689623     -0.251580
  B      -0.062387      0.219050      0.257562
  B      -1.920526     -2.361691      0.284430
  B       0.619237     -2.154006     -0.270997
  B       1.660217      0.669567      0.329394
  B      -0.651020      3.027281     -0.069597
  B      -1.238765      1.440219     -0.164566
  B      -0.891579     -1.182411      0.289983
  B      -0.658269     -3.041877     -0.284611
  B       1.860934     -1.079835     -0.196391
12
Coordinates from ORCA-job input E -297.109372231783
  B       2.930188     -0.012112     -0.056059
  B       0.427348      1.823230      0.126635
  B      -2.099447      2.698806     -0.262911
  B      -0.056791      0.229403      0.269060
  B      -1.891307     -2.401376      0.296578
  B       0.600605     -2.153902     -0.285328
  B       1.634469      0.695739      0.345276
  B      -0.607357      3.036308     -0.078683
  B      -1.220125      1.430696     -0.164550
  B      -0.885601     -1.237355      0.307668
  B      -0.641779     -3.062721     -0.301037
  B       1.809796     -1.046717     -0.196649
12
Coordinates from ORCA-job input E -297.110397862324
  B       2.920926      0.014604     -0.046162
  B       0.424168      1.830412      0.120308
  B      -2.069611      2.691268     -0.264477
  B      -0.078035      0.205840      0.266420
  B      -1.894399     -2.429855      0.312005
  B       0.603152     -2.139662     -0.288679
  B       1.621717      0.703488      0.334434
  B      -0.585891      3.025831     -0.076302
  B      -1.195671      1.427766     -0.159681
  B      -0.912400     -1.246927      0.308490
  B      -0.647768     -3.050567     -0.305339
  B       1.813811     -1.032198     -0.201017
12
Coordinates from ORCA-job input E -297.111180129769
  B       2.912085      0.008295     -0.022202
  B       0.426486      1.831406      0.123074
  B      -2.064771      2.687010     -0.289861
  B      -0.069523      0.203574      0.285676
  B      -1.877209     -2.443497      0.358486
  B       0.592571     -2.123543     -0.327154
  B       1.604248      0.693508      0.358847
  B      -0.583363      3.030261     -0.093284
  B      -1.195015      1.418556     -0.164228
  B      -0.892255     -1.253395      0.343797
  B      -0.662563     -3.026418     -0.347203
  B       1.809308     -1.025757     -0.225948
12
Coordinates from ORCA-job input E -297.112071534889
  B       2.909373      0.005504      0.012814
  B       0.424235      1.820292      0.128185
  B      -2.059446      2.694941     -0.316730
  B      -0.076427      0.195910      0.300283
  B      -1.860819     -2.464022      0.415555
  B       0.595554     -2.112733     -0.378414
  B       1.595355      0.679464      0.385218
  B      -0.571203      3.033823     -0.117503
  B      -1.205613      1.414075     -0.163210
  B      -0.885731     -1.264354      0.379115
  B      -0.673271     -2.989076     -0.383850
  B       1.807994     -1.013825     -0.261462
12
Coordinates from ORCA-job input E -297.112943675631
  B       2.903091     -0.005053      0.060606
  B       0.420451      1.808144      0.138575
  B      -2.047620      2.661221     -0.379049
  B      -0.062339      0.182738      0.334371
  B      -1.821171     -2.489455      0.506934
  B       0.564851     -2.066346     -0.464770
  B       1.596662      0.672384      0.426570
  B      -0.567355      3.015684     -0.146922
  B      -1.198588      1.389126     -0.163000
  B      -0.847702     -1.276886      0.440724
  B      -0.720577     -2.903511     -0.459473
  B       1.780294     -0.988045     -0.294566
12
Coordinates from ORCA-job input E -297.113223207202
  B       2.896610     -0.004912      0.038809
  B       0.422840      1.790174      0.180061
  B      -2.010849      2.649635     -0.457034
  B      -0.080261      0.169096      0.370926
  B      -1.791455     -2.555774      0.555678
  B       0.551006     -2.016577     -0.502559
  B       1.601815      0.658721      0.486282
  B      -0.546474      3.001073     -0.150954
  B      -1.186139      1.382730     -0.169519
  B      -0.890267     -1.281614      0.469582
  B      -0.720563     -2.854376     -0.469441
  B       1.753737     -0.938176     -0.351832
12
Coordinates from ORCA-job input E -297.113884080171
  B       2.891573      0.029578      0.043146
  B       0.419651      1.776421      0.190842
  B      -2.001731      2.602646     -0.483260
  B      -0.057503      0.158418      0.389647
  B      -1.801671     -2.522049      0.584743
  B       0.548641     -2.014489     -0.569319
  B       1.616412      0.663632      0.532437
  B      -0.548064      2.969487     -0.182021
  B      -1.176522      1.352479     -0.150707
  B      -0.874055     -1.283631      0.495152
  B      -0.769164     -2.810812     -0.494423
  B       1.752434     -0.921680     -0.356236
12
Coordinates from ORCA-job input E -297.114659753081
  B       2.891997      0.015171      0.035882
  B       0.429610      1.789650      0.202993
  B      -2.006290      2.570811     -0.500741
  B      -0.030626      0.162898      0.406753
  B      -1.794314     -2.515653      0.583383
  B       0.521486     -1.992713     -0.571655
  B       1.623570      0.670443      0.542915
  B      -0.562012      2.959064     -0.185533
  B      -1.157533      1.337114     -0.152813
  B      -0.862308     -1.277345      0.501417
  B      -0.782367     -2.810467     -0.512034
  B       1.728786     -0.908974     -0.350567
12
Coordinates from ORCA-job input E -297.115163136440
  B       2.889164      0.037165     -0.019854
  B       0.435584      1.770339      0.231007
  B      -1.987083      2.535633     -0.541281
  B      -0.007153      0.140658      0.433823
  B      -1.809654     -2.511412      0.566246
  B       0.489739     -1.954814     -0.559657
  B       1.652085      0.680904      0.595889
  B      -0.553093      2.932808     -0.188943
  B      -1.132250      1.311784     -0.153917
  B      -0.872441     -1.276120      0.504561
  B      -0.785391     -2.818781     -0.507203
  B       1.680493     -0.848165     -0.360672
12
Coordinates from ORCA-job input E -297.115593406972
  B       2.882247      0.037716     -0.002926
  B       0.453935      1.773198      0.240236
  B      -1.989381      2.487056     -0.556969
  B       0.019504      0.131794      0.453985
  B      -1.798447     -2.504261      0.588826
  B       0.466311     -1.917945     -0.595300
  B       1.652830      0.675214      0.631583
  B      -0.559785      2.906123     -0.217057
  B      -1.110459      1.287748     -0.152836
  B      -0.871458     -1.269580      0.523460
  B      -0.812703     -2.783116     -0.526447
  B       1.667407     -0.823945     -0.386554
12
Coordinates from ORCA-job input E -297.115814687255
  B       2.888442      0.042143      0.025774
  B       0.455820      1.766627      0.226277
  B      -1.994684      2.493593     -0.536859
  B       0.021007      0.121396      0.447060
  B      -1.796501     -2.510332      0.597410
  B       0.463461     -1.907904     -0.604039
  B       1.648359      0.677568      0.625669
  B      -0.551940      2.904192     -0.229188
  B      -1.116780      1.286898     -0.151392
  B      -0.887864     -1.264547      0.521919
  B      -0.812498     -2.783385     -0.522872
  B       1.683180     -0.826247     -0.399759
12
Coordinates from ORCA-job input E -297.116107623627
  B       2.894190      0.037708      0.034815
  B       0.461693      1.760891      0.228379
  B      -1.994740      2.461713     -0.544545
  B       0.039177      0.108512      0.455557
  B      -1.795787     -2.510177      0.607712
  B       0.439063     -1.869281     -0.618096
  B       1.664553      0.684872      0.636556
  B      -0.553672      2.884533     -0.243530
  B      -1.108476      1.267246     -0.151280
  B      -0.891213     -1.262235      0.531299
  B      -0.826427     -2.759799     -0.536179
  B       1.671640     -0.803986     -0.400688
12
Coordinates from ORCA-job input E -297.116735538860
  B       2.932819      0.017179      0.062522
  B       0.476382      1.739708      0.218347
  B      -2.014258      2.374145     -0.512365
  B       0.090205      0.059462      0.447071
  B      -1.844148     -2.473403      0.598009
  B       0.394792     -1.760499     -0.598618
  B       1.716308      0.706561      0.633638
  B      -0.574919      2.829110     -0.278173
  B      -1.091432      1.209781     -0.153621
  B      -0.919972     -1.250240      0.523818
  B      -0.837834     -2.703988     -0.539782
  B       1.672059     -0.747816     -0.400845
12
Coordinates from ORCA-job input E -297.117960442963
  B       2.947669      0.014199      0.045670
  B       0.464684      1.772266      0.233789
  B      -2.036340      2.387742     -0.545397
  B       0.123640      0.031992      0.407817
  B      -1.875099     -2.486156      0.564393
  B       0.399824     -1.777500     -0.573741
  B       1.740016      0.723279      0.611508
  B      -0.594316      2.857929     -0.217747
  B      -1.080197      1.230945     -0.174825
  B      -0.933046     -1.268100      0.550431
  B      -0.845485     -2.726405     -0.511494
  B       1.688649     -0.760191     -0.390402
12
Coordinates from ORCA-job input E -297.118723986034
  B       2.944723      0.017481      0.035114
  B       0.455922      1.744058      0.267005
  B      -2.027910      2.381976     -0.562177
  B       0.101445      0.059329      0.394296
  B      -1.867602     -2.433442      0.546201
  B       0.400327     -1.793024     -0.576892
  B       1.729726      0.750240      0.593125
  B      -0.596417      2.820685     -0.162247
  B      -1.081424      1.200697     -0.213824
  B      -0.911082     -1.237677      0.568429
  B      -0.840259     -2.720245     -0.495167
  B       1.692549     -0.790079     -0.393862
12
Coordinates from ORCA-job input E -297.117432445284
  B       2.916292     -0.006158      0.040541
  B       0.429358      1.764205      0.290543
  B      -1.986235      2.452689     -0.584963
  B       0.080213      0.046446      0.362003
  B      -1.870501     -2.497085      0.615390
  B       0.416018     -1.814045     -0.580305
  B       1.694101      0.754594      0.605687
  B      -0.592867      2.868885     -0.138842
  B      -1.072768      1.254048     -0.240280
  B      -0.899502     -1.268501      0.570286
  B      -0.794995     -2.766358     -0.505947
  B       1.680887     -0.788721     -0.434113
12
Coordinates from ORCA-job input E -297.121550957204
  B       2.943537     -0.003040      0.062109
  B       0.445395      1.754526      0.268472
  B      -2.022123      2.391529     -0.528804
  B       0.123344      0.030040      0.327279
  B      -1.895736     -2.464296      0.584824
  B       0.408676     -1.776730     -0.553442
  B       1.732314      0.747676      0.572306
  B      -0.617252      2.857519     -0.162004
  B      -1.073282      1.216062     -0.231418
  B      -0.919955     -1.266495      0.533458
  B      -0.834535     -2.710337     -0.486676
  B       1.709618     -0.776453     -0.386103
12
Coordinates from ORCA-job input E -297.122175737466
  B       2.955006      0.000710      0.066261
  B       0.449418      1.752920      0.284714
  B      -2.031474      2.370929     -0.551856
  B       0.135225      0.025889      0.315956
  B      -1.902454     -2.440876      0.566248
  B       0.400955     -1.771661     -0.553329
  B       1.747901      0.760988      0.569840
  B      -0.624982      2.844178     -0.127377
  B      -1.058693      1.191256     -0.246478
  B      -0.927417     -1.254054      0.550933
  B      -0.842172     -2.708171     -0.467414
  B       1.698686     -0.772107     -0.407498
12
Coordinates from ORCA-job input E -297.123232280659
  B       2.935649     -0.003310      0.070284
  B       0.440689      1.759606      0.296335
  B      -2.017759      2.383204     -0.533851
  B       0.133809      0.020740      0.265591
  B      -1.909766     -2.431887      0.559640
  B       0.408041     -1.783961     -0.542920
  B       1.731156      0.768166      0.556019
  B      -0.621581      2.842506     -0.098585
  B      -1.060960      1.208164     -0.270992
  B      -0.919529     -1.249891      0.534575
  B      -0.821722     -2.735620     -0.431524
  B       1.701971     -0.777717     -0.404571
12
Coordinates from ORCA-job input E -297.124026850171
  B       2.948595     -0.018421      0.079611
  B       0.436071      1.755000      0.303579
  B      -2.015194      2.364669     -0.529875
  B       0.139737      0.011396      0.242614
  B      -1.932676     -2.425918      0.575944
  B       0.412749     -1.762684     -0.531712
  B       1.734361      0.768599      0.535409
  B      -0.641447      2.847672     -0.084623
  B      -1.047949      1.189972     -0.284704
  B      -0.931144     -1.248765      0.536344
  B      -0.820330     -2.715389     -0.439915
  B       1.717226     -0.766131     -0.402671
12
Coordinates from ORCA-job input E -297.125083898779
  B       2.949668     -0.023016      0.091787
  B       0.434718      1.762220      0.326095
  B      -2.019675      2.362740     -0.530819
  B       0.149920      0.009884      0.188440
  B      -1.945879     -2.409520      0.572688
  B       0.411984     -1.770812     -0.517535
  B       1.739860      0.776925      0.528734
  B      -0.655394      2.847885     -0.041185
  B      -1.036115      1.190767     -0.309456
  B      -0.931622     -1.242586      0.506371
  B      -0.811014     -2.735372     -0.393188
  B       1.713549     -0.769115     -0.421931
12
Coordinates from ORCA-job input E -297.125659913235
  B       2.952788     -0.024048      0.080257
  B       0.428813      1.764262      0.344254
  B      -2.013637      2.353049     -0.539612
  B       0.155532      0.006814      0.157378
  B      -1.958529     -2.386097      0.533372
  B       0.413987     -1.773764     -0.499765
  B       1.741931      0.775075      0.520318
  B      -0.669729      2.841961      0.002104
  B      -1.022832      1.184267     -0.333082
  B      -0.947583     -1.222280      0.524794
  B      -0.796430     -2.756093     -0.350673
  B       1.715688     -0.763148     -0.439346
12
Coordinates from ORCA-job input E -297.126364959020
  B       2.947649     -0.026317      0.080055
  B       0.424050      1.758454      0.385141
  B      -2.001100      2.352521     -0.556150
  B       0.158102      0.003434      0.088481
  B      -1.973548     -2.374969      0.557185
  B       0.415291     -1.765188     -0.488482
  B       1.734533      0.773422      0.523496
  B      -0.682224      2.828007      0.059850
  B      -1.007317      1.183853     -0.369038
  B      -0.956612     -1.214780      0.476929
  B      -0.780086     -2.763801     -0.294370
  B       1.721263     -0.754636     -0.463097
12
Coordinates from ORCA-job input E -297.126642784608
  B       2.951712     -0.041667      0.086713
  B       0.422435      1.766838      0.390486
  B      -1.999095      2.346981     -0.545197
  B       0.166080      0.001861      0.060964
  B      -1.985738     -2.370056      0.546418
  B       0.403579     -1.755009     -0.471166
  B       1.741256      0.774290      0.511252
  B      -0.695368      2.831544      0.077678
  B      -0.997095      1.188670     -0.378371
  B      -0.963459     -1.208928      0.452739
  B      -0.758113     -2.787844     -0.263599
  B       1.713806     -0.746680     -0.467917
12
Coordinates from ORCA-job input E -297.126843369699
  B       2.954935     -0.035791      0.088153
  B       0.417908      1.763424      0.398658
  B      -2.001087      2.353848     -0.544093
  B       0.161116      0.002339      0.033181
  B      -1.995176     -2.361230      0.539676
  B       0.410002     -1.753880     -0.453106
  B       1.739192      0.766552      0.499261
  B      -0.705409      2.826216      0.110658
  B      -0.997503      1.191736     -0.389918
  B      -0.980762     -1.197673      0.423633
  B      -0.747808     -2.792483     -0.224609
  B       1.744593     -0.763056     -0.481493
12
Coordinates from ORCA-job input E -297.126915895415
  B       2.960211     -0.038425      0.063704
  B       0.417881      1.755338      0.421300
  B      -1.987283      2.360382     -0.572477
  B       0.158997     -0.001208      0.023621
  B      -1.989294     -2.373555      0.539767
  B       0.397336     -1.732282     -0.449095
  B       1.739313      0.762692      0.510515
  B      -0.704680      2.813912      0.129924
  B      -0.991799      1.192125     -0.404414
  B      -0.996630     -1.197149      0.429450
  B      -0.734617     -2.796007     -0.210169
  B       1.730564     -0.745823     -0.482126
12
Coordinates from ORCA-job input E -297.126997499351
  B       2.958047     -0.036190      0.065372
  B       0.417258      1.759896      0.414182
  B      -1.991058      2.365572     -0.560961
  B       0.158277      0.003377      0.023239
  B      -1.993550     -2.367010      0.532142
  B       0.405737     -1.751205     -0.443259
  B       1.738471      0.764808      0.506818
  B      -0.707663      2.821431      0.129293
  B      -0.993159      1.197216     -0.401292
  B      -0.990830     -1.198344      0.419162
  B      -0.734229     -2.805376     -0.204474
  B       1.732700     -0.754175     -0.480223
12
Coordinates from ORCA-job input E -297.126880871888
  B       2.952396     -0.038351      0.087084
  B       0.422414      1.759163      0.401973
  B      -1.995172      2.358028     -0.543926
  B       0.162076     -0.004019      0.025515
  B      -1.991265     -2.373021      0.536313
  B       0.395414     -1.733718     -0.446763
  B       1.741521      0.767977      0.500751
  B      -0.702622      2.824086      0.113655
  B      -0.992732      1.196574     -0.398844
  B      -0.992417     -1.199595      0.422407
  B      -0.732103     -2.801098     -0.214042
  B       1.732491     -0.756027     -0.484122
12
Coordinates from ORCA-job input E -297.127023430968
  B       2.957576     -0.036223      0.069858
  B       0.419137      1.759364      0.410553
  B      -1.992013      2.365030     -0.557005
  B       0.157959      0.000711      0.022294
  B      -1.993137     -2.369819      0.532575
  B       0.403124     -1.745152     -0.441861
  B       1.739759      0.765408      0.503422
  B      -0.706763      2.821499      0.129130
  B      -0.992881      1.198017     -0.403179
  B      -0.993788     -1.198969      0.419081
  B      -0.732431     -2.804499     -0.205300
  B       1.733459     -0.755369     -0.479567
12
Coordinates from ORCA-job input E -297.127030006182
  B       2.956488     -0.034278      0.065149
  B       0.418358      1.758652      0.415345
  B      -1.988348      2.367042     -0.562177
  B       0.157457      0.000319      0.019451
  B      -1.993627     -2.369633      0.533586
  B       0.404306     -1.746471     -0.441130
  B       1.738780      0.764057      0.507469
  B      -0.708660      2.819897      0.134220
  B      -0.991335      1.198650     -0.406398
  B      -0.994270     -1.199229      0.418002
  B      -0.731694     -2.804903     -0.200930
  B       1.732546     -0.754102     -0.482587
12
Coordinates from ORCA-job input E -297.127041866433
  B       2.955989     -0.032242      0.060722
  B       0.417503      1.758840      0.419148
  B      -1.984549      2.371753     -0.566990
  B       0.155736      0.000746      0.012141
  B      -1.994258     -2.369409      0.533733
  B       0.406234     -1.749436     -0.437173
  B       1.736838      0.763404      0.506272
  B      -0.712065      2.818105      0.146542
  B      -0.989310      1.201185     -0.413648
  B      -0.994355     -1.199763      0.415965
  B      -0.729855     -2.807413     -0.195001
  B       1.732092     -0.755767     -0.481712
12
Coordinates from ORCA-job input E -297.127054305743
  B       2.955310     -0.027709      0.054378
  B       0.418010      1.760693      0.420763
  B      -1.979375      2.375562     -0.572537
  B       0.153587      0.000085      0.010651
  B      -1.994232     -2.371753      0.535135
  B       0.406946     -1.751325     -0.434165
  B       1.735571      0.762344      0.506648
  B      -0.715048      2.817390      0.155769
  B      -0.986900      1.203265     -0.419667
  B      -0.994903     -1.202046      0.416942
  B      -0.730349     -2.809217     -0.195008
  B       1.731384     -0.757289     -0.478910
12
Coordinates from ORCA-job input E -297.127059110438
  B       2.954359     -0.024929      0.052277
  B       0.418054      1.761534      0.422614
  B      -1.976402      2.377032     -0.575089
  B       0.152800     -0.000264      0.007910
  B      -1.993583     -2.372952      0.537088
  B       0.406164     -1.751942     -0.433305
  B       1.733678      0.761749      0.507174
  B      -0.716652      2.817298      0.161038
  B      -0.984534      1.204693     -0.424314
  B      -0.994718     -1.202799      0.418167
  B      -0.730615     -2.810553     -0.195030
  B       1.731450     -0.758867     -0.478530
12
Coordinates from ORCA-job input E -297.127061120080
  B       2.953960     -0.023301      0.051310
  B       0.418065      1.762172      0.423230
  B      -1.975238      2.377009     -0.576441
  B       0.152527     -0.000735      0.008380
  B      -1.992774     -2.374089      0.538956
  B       0.405383     -1.752000     -0.434059
  B       1.732805      0.761020      0.508352
  B      -0.716590      2.818051      0.161219
  B      -0.983491      1.204960     -0.425159
  B      -0.994405     -1.203629      0.419539
  B      -0.731648     -2.810382     -0.197113
  B       1.731408     -0.759076     -0.478214
12
Coordinates from ORCA-job input E -297.127062807163
  B       2.953272     -0.021692      0.050009
  B       0.417491      1.762342      0.424857
  B      -1.973654      2.377886     -0.578348
  B       0.151883     -0.001026      0.008293
  B      -1.991513     -2.375411      0.541077
  B       0.404810     -1.752503     -0.435087
  B       1.731291      0.759813      0.510042
  B      -0.716148      2.818946      0.161398
  B      -0.982495      1.205715     -0.426193
  B      -0.993910     -1.204428      0.420848
  B      -0.732076     -2.810574     -0.198465
  B       1.731050     -0.759068     -0.478432
12
Coordinates from ORCA-job input E -297.127064927027
  B       2.952204     -0.019300      0.047487
  B       0.416198      1.761973      0.427981
  B      -1.970929      2.380406     -0.581683
  B       0.150447     -0.001275      0.007702
  B      -1.989633     -2.377515      0.543992
  B       0.404546     -1.753547     -0.436180
  B       1.728922      0.757627      0.512465
  B      -0.715352      2.820114      0.162294
  B      -0.981306      1.207286     -0.428027
  B      -0.993361     -1.205712      0.422052
  B      -0.731989     -2.811282     -0.199173
  B       1.730254     -0.758777     -0.478910
12
Coordinates from ORCA-job input E -297.127068070264
  B       2.950372     -0.015477      0.042860
  B       0.413676      1.760740      0.433823
  B      -1.965955      2.385858     -0.587510
  B       0.147582     -0.001407      0.006071
  B      -1.986682     -2.381150      0.548311
  B       0.404620     -1.755296     -0.437258
  B       1.725054      0.753833      0.516013
  B      -0.714092      2.821697      0.164857
  B      -0.979624      1.210425     -0.431794
  B      -0.992842     -1.207844      0.423208
  B      -0.730844     -2.813173     -0.198663
  B       1.728735     -0.758206     -0.479917
12
Coordinates from ORCA-job input E -297.127072204190
  B       2.947625     -0.010128      0.035983
  B       0.409758      1.758338      0.442701
  B      -1.958441      2.394584     -0.595979
  B       0.143155     -0.001310      0.003244
  B      -1.982768     -2.386333      0.553938
  B       0.405191     -1.757650     -0.438044
  B       1.719831      0.748491      0.520337
  B      -0.712512      2.823492      0.169682
  B      -0.977351      1.215260     -0.438085
  B      -0.992463     -1.210947      0.424190
  B      -0.728473     -2.816417     -0.196477
  B       1.726447     -0.757380     -0.481490
12
Coordinates from ORCA-job input E -297.127076098183
  B       2.944882     -0.005350      0.029328
  B       0.405697      1.755534      0.451437
  B      -1.950964      2.403465     -0.604034
  B       0.138816     -0.000925      0.000335
  B      -1.979472     -2.391181      0.558704
  B       0.405997     -1.759561     -0.438133
  B       1.715444      0.743871      0.523662
  B      -0.711352      2.824730      0.175344
  B      -0.975256      1.220045     -0.444952
  B      -0.992407     -1.213959      0.424653
  B      -0.725651     -2.819971     -0.193237
  B       1.724268     -0.756699     -0.483106
12
Coordinates from ORCA-job input E -297.127078749547
  B       2.943327     -0.003151      0.025797
  B       0.403263      1.753687      0.456031
  B      -1.946834      2.408212     -0.608289
  B       0.136602     -0.000531     -0.000955
  B      -1.978112     -2.393607      0.560812
  B       0.406449     -1.760193     -0.437861
  B       1.713887      0.742232      0.524839
  B      -0.711128      2.825009      0.179181
  B      -0.974035      1.222537     -0.449413
  B      -0.992483     -1.215658      0.424976
  B      -0.724083     -2.822015     -0.191135
  B       1.723147     -0.756522     -0.483982
12
Coordinates from ORCA-job input E -297.127080090041
  B       2.942623     -0.002338      0.024314
  B       0.402127      1.752982      0.457859
  B      -1.944947      2.409649     -0.610283
  B       0.135987     -0.000380     -0.001239
  B      -1.977669     -2.394444      0.561866
  B       0.406290     -1.760172     -0.437852
  B       1.713647      0.742179      0.525236
  B      -0.711598      2.824916      0.181469
  B      -0.973009      1.223410     -0.451973
  B      -0.992324     -1.216457      0.425625
  B      -0.723902     -2.822660     -0.190716
  B       1.722775     -0.756685     -0.484306
