12
Optimized coordinates extracted from calculations/B12/bilayer_3d/d_4.0/mult_1/output.out
B        2.94262301      -0.00233823       0.02431406
B        0.40212651       1.75298210       0.45785914
B       -1.94494656       2.40964950      -0.61028337
B        0.13598666      -0.00037970      -0.00123912
B       -1.97766916      -2.39444435       0.56186597
B        0.40629004      -1.76017246      -0.43785181
B        1.71364716       0.74217875       0.52523603
B       -0.71159826       2.82491594       0.18146947
B       -0.97300898       1.22340997      -0.45197307
B       -0.99232384      -1.21645675       0.42562467
B       -0.72390155      -2.82266026      -0.19071570
B        1.72277497      -0.75668450      -0.48430626
