12
B12 bilayer_3d; neutral charge=0; multiplicity=1; 3D initial geometry; nominal d=4.0 A; Two staggered non-planar B6 layers.
B        4.00000000      -0.00000000       1.24000000
B        2.00000000       3.46410162       1.24000000
B       -2.00000000       3.46410162       1.24000000
B       -4.00000000       0.00000000       1.24000000
B       -2.00000000      -3.46410162       1.24000000
B        2.00000000      -3.46410162       1.24000000
B        3.25625552       1.88000000      -1.24000000
B        0.00000000       3.76000000      -1.24000000
B       -3.25625552       1.88000000      -1.24000000
B       -3.25625552      -1.88000000      -1.24000000
B       -0.00000000      -3.76000000      -1.24000000
B        3.25625552      -1.88000000      -1.24000000
