12
B12 quasi_planar_buckled_double_ring; neutral charge=0; multiplicity=5; quasi_planar initial geometry; nominal d=3.0 A; Low-amplitude buckled B6@B6 control motif.
B        3.00000000       0.00000000       0.24000000
B        1.50000000       2.59807621      -0.24000000
B       -1.50000000       2.59807621       0.24000000
B       -3.00000000       0.00000000      -0.24000000
B       -1.50000000      -2.59807621       0.24000000
B        1.50000000      -2.59807621      -0.24000000
B        4.50000000       2.59807621       0.36000000
B        0.00000000       5.19615242      -0.36000000
B       -4.50000000       2.59807621       0.36000000
B       -4.50000000      -2.59807621      -0.36000000
B       -0.00000000      -5.19615242       0.36000000
B        4.50000000      -2.59807621      -0.36000000
