12
Coordinates from ORCA-job input E -295.399582236048
  B       3.500000     -0.000000      1.085000
  B       1.750000      3.031089      1.085000
  B      -1.750000      3.031089      1.085000
  B      -3.500000      0.000000      1.085000
  B      -1.750000     -3.031089      1.085000
  B       1.750000     -3.031089      1.085000
  B       2.849224      1.645000     -1.085000
  B       0.000000      3.290000     -1.085000
  B      -2.849224      1.645000     -1.085000
  B      -2.849224     -1.645000     -1.085000
  B      -0.000000     -3.290000     -1.085000
  B       2.849224     -1.645000     -1.085000
12
Coordinates from ORCA-job input E -295.423742975953
  B       3.469514      0.000197      1.062734
  B       1.736460      3.016298      1.067367
  B      -1.736592      3.016469      1.066659
  B      -3.469461      0.000358      1.062697
  B      -1.736799     -3.016744      1.066558
  B       1.736962     -3.016391      1.066659
  B       2.823878      1.635371     -1.063823
  B       0.000124      3.273839     -1.068677
  B      -2.823576      1.635095     -1.064196
  B      -2.824111     -1.635064     -1.063488
  B       0.000003     -3.274470     -1.068152
  B       2.823598     -1.634958     -1.064339
12
Coordinates from ORCA-job input E -295.448687094808
  B       3.439107      0.000397      1.040587
  B       1.722905      3.001400      1.049681
  B      -1.723174      3.001736      1.048211
  B      -3.439015      0.000741      1.040510
  B      -1.723560     -3.002268      1.047990
  B       1.723939     -3.001603      1.048209
  B       2.798636      1.625853     -1.042729
  B       0.000246      3.257598     -1.052108
  B      -2.798037      1.625299     -1.043523
  B      -2.799127     -1.625235     -1.042004
  B       0.000009     -3.258888     -1.051048
  B       2.798073     -1.625031     -1.043777
12
Coordinates from ORCA-job input E -295.487543248690
  B       3.393286      0.000680      1.008058
  B       1.702251      2.977909      1.023291
  B      -1.702733      2.978473      1.020630
  B      -3.393160      0.001328      1.007924
  B      -1.703322     -2.979332      1.020223
  B       1.704106     -2.978302      1.020631
  B       2.760669      1.611303     -1.011635
  B       0.000411      3.232031     -1.027032
  B      -2.759648      1.610342     -1.013125
  B      -2.761571     -1.610230     -1.010274
  B       0.000019     -3.234300     -1.025201
  B       2.759693     -1.609903     -1.013490
12
Coordinates from ORCA-job input E -295.548964509959
  B       3.323879      0.001068      0.960869
  B       1.670485      2.940228      0.984103
  B      -1.671314      2.941106      0.979575
  B      -3.323748      0.002230      0.960659
  B      -1.672065     -2.942323      0.978873
  B       1.673613     -2.940963      0.979593
  B       2.703273      1.588827     -0.966255
  B       0.000607      3.191100     -0.989130
  B      -2.701673      1.587300     -0.968909
  B      -2.704821     -1.587097     -0.963840
  B       0.000046     -3.194811     -0.986205
  B       2.701719     -1.586666     -0.969333
12
Coordinates from ORCA-job input E -295.616405971780
  B       3.251184      0.001454      0.913346
  B       1.636904      2.899763      0.943769
  B      -1.638128      2.900939      0.937130
  B      -3.251094      0.003223      0.913048
  B      -1.638917     -2.902407      0.936045
  B       1.641446     -2.900920      0.937166
  B       2.643203      1.565357     -0.920277
  B       0.000740      3.147104     -0.949407
  B      -2.641051      1.563291     -0.924280
  B      -2.645444     -1.562938     -0.916554
  B       0.000086     -3.152352     -0.945340
  B       2.641074     -1.562516     -0.924645
12
Coordinates from ORCA-job input E -295.687179479103
  B       3.177222      0.001817      0.867541
  B       1.602470      2.857591      0.904049
  B      -1.604134      2.859043      0.895182
  B      -3.177207      0.004246      0.867152
  B      -1.604847     -2.860625      0.893633
  B       1.608486     -2.859226      0.895249
  B       2.582019      1.541376     -0.875623
  B       0.000761      3.101185     -0.909840
  B      -2.579371      1.538851     -0.881035
  B      -2.584908     -1.538262     -0.870412
  B       0.000141     -3.107979     -0.904636
  B       2.579369     -1.538016     -0.881260
12
Coordinates from ORCA-job input E -295.764086455418
  B       3.101372      0.002174      0.823597
  B       1.567174      2.813523      0.865297
  B      -1.569273      2.815201      0.854168
  B      -3.101437      0.005237      0.823113
  B      -1.569894     -2.816807      0.852078
  B       1.574622     -2.815628      0.854300
  B       2.519190      1.516420     -0.832428
  B       0.000661      3.052931     -0.871206
  B      -2.516083      1.513493     -0.839169
  B      -2.522602     -1.512607     -0.825615
  B       0.000185     -3.061234     -0.864887
  B       2.516083     -1.512703     -0.839247
12
Coordinates from ORCA-job input E -295.852220211612
  B       3.047123      0.002508      0.779755
  B       1.540633      2.766559      0.826221
  B      -1.542727      2.768399      0.812130
  B      -3.047686      0.006360      0.779478
  B      -1.543310     -2.769956      0.809967
  B       1.549389     -2.769466      0.812558
  B       2.459955      1.482322     -0.790190
  B       0.000638      2.985111     -0.829540
  B      -2.455872      1.477975     -0.798397
  B      -2.463810     -1.477771     -0.781740
  B       0.000109     -2.994464     -0.822265
  B       2.455559     -1.477576     -0.797977
12
Coordinates from ORCA-job input E -295.942902029082
  B       2.989410      0.002818      0.737859
  B       1.512545      2.716628      0.789244
  B      -1.514538      2.718612      0.772324
  B      -2.990457      0.007412      0.737820
  B      -1.515112     -2.719998      0.770229
  B       1.522551     -2.720421      0.773106
  B       2.398231      1.446512     -0.750808
  B       0.000443      2.912711     -0.788807
  B      -2.393142      1.440788     -0.760141
  B      -2.402455     -1.441343     -0.740875
  B       0.000081     -2.922845     -0.780819
  B       2.392443     -1.440873     -0.759131
12
Coordinates from ORCA-job input E -296.037830681337
  B       2.928073      0.003075      0.697669
  B       1.483073      2.663725      0.754838
  B      -1.484877      2.665693      0.735127
  B      -2.929452      0.008307      0.697764
  B      -1.485464     -2.666782      0.733107
  B       1.494125     -2.668338      0.736290
  B       2.334164      1.408575     -0.714152
  B      -0.000029      2.836429     -0.749939
  B      -2.328051      1.401562     -0.724126
  B      -2.338535     -1.402901     -0.702727
  B       0.000080     -2.847009     -0.741269
  B       2.326892     -1.402335     -0.722582
12
Coordinates from ORCA-job input E -296.135907157541
  B       2.863225      0.003242      0.658770
  B       1.452383      2.608196      0.722906
  B      -1.453855      2.609908      0.700215
  B      -2.864924      0.009183      0.659139
  B      -1.454538     -2.610815      0.698717
  B       1.464350     -2.613460      0.701859
  B       2.268270      1.368726     -0.679899
  B      -0.000836      2.757220     -0.712651
  B      -2.261101      1.360744     -0.690213
  B      -2.272687     -1.362719     -0.667261
  B       0.000268     -2.768006     -0.703482
  B       2.259445     -1.362219     -0.688099
12
Coordinates from ORCA-job input E -296.233193949142
  B       2.794558      0.003179      0.620842
  B       1.420767      2.550290      0.694485
  B      -1.421548      2.550869      0.667481
  B      -2.796712      0.010277      0.621858
  B      -1.422879     -2.552750      0.668616
  B       1.433469     -2.555466      0.669813
  B       2.200106      1.326469     -0.648351
  B      -0.002233      2.674631     -0.676922
  B      -2.191540      1.318212     -0.658898
  B      -2.204640     -1.320204     -0.635107
  B       0.001186     -2.685419     -0.667732
  B       2.189465     -1.320087     -0.656084
12
Coordinates from ORCA-job input E -296.333976934511
  B       2.727584      0.003216      0.581013
  B       1.390433      2.494615      0.664508
  B      -1.390332      2.494132      0.633323
  B      -2.730313      0.011365      0.582671
  B      -1.392424     -2.496907      0.636581
  B       1.403875     -2.499964      0.636270
  B       2.132732      1.285039     -0.615186
  B      -0.003487      2.593254     -0.639578
  B      -2.122889      1.276154     -0.626040
  B      -2.137396     -1.278417     -0.601079
  B       0.001928     -2.603989     -0.630126
  B       2.120288     -1.278498     -0.622358
12
Coordinates from ORCA-job input E -296.432902228327
  B       2.657234      0.004911      0.537333
  B       1.354733      2.443249      0.625158
  B      -1.355675      2.450251      0.604220
  B      -2.661193      0.011118      0.538818
  B      -1.356012     -2.444933      0.594798
  B       1.371593     -2.456248      0.607247
  B       2.067579      1.253311     -0.578205
  B      -0.000529      2.527006     -0.601440
  B      -2.061183      1.241276     -0.588736
  B      -2.073078     -1.246948     -0.563013
  B      -0.001034     -2.538803     -0.591569
  B       2.057566     -1.244191     -0.584610
12
Coordinates from ORCA-job input E -296.517437038060
  B       2.579404      0.002110      0.490316
  B       1.309449      2.399006      0.578917
  B      -1.321106      2.424549      0.584499
  B      -2.586603      0.015261      0.491031
  B      -1.310402     -2.401956      0.547547
  B       1.340804     -2.429340      0.587333
  B       1.997536      1.230358     -0.539135
  B       0.002734      2.476270     -0.566247
  B      -2.001845      1.221407     -0.549484
  B      -2.005667     -1.224291     -0.522929
  B      -0.001172     -2.490071     -0.556500
  B       1.996868     -1.223302     -0.545348
12
Coordinates from ORCA-job input E -296.580846340469
  B       2.489817     -0.006855      0.447695
  B       1.255655      2.353346      0.539166
  B      -1.285102      2.400991      0.568760
  B      -2.502160      0.024370      0.448914
  B      -1.257981     -2.360667      0.508863
  B       1.309347     -2.404217      0.572307
  B       1.911068      1.205162     -0.503547
  B      -0.002078      2.419765     -0.538005
  B      -1.927736      1.212936     -0.516101
  B      -1.923361     -1.198782     -0.487006
  B       0.010939     -2.434641     -0.529259
  B       1.921592     -1.211408     -0.511789
12
Coordinates from ORCA-job input E -296.623618778620
  B       2.396722     -0.022161      0.409322
  B       1.194824      2.322826      0.507882
  B      -1.249406      2.398024      0.564347
  B      -2.414724      0.038950      0.411705
  B      -1.198761     -2.336207      0.477986
  B       1.279511     -2.398917      0.569849
  B       1.809885      1.184107     -0.475204
  B      -0.019380      2.367977     -0.520220
  B      -1.842665      1.225889     -0.489665
  B      -1.827622     -1.177231     -0.458351
  B       0.037754     -2.382356     -0.512277
  B       1.833862     -1.220901     -0.485374
12
Coordinates from ORCA-job input E -296.657949680695
  B       2.313339     -0.043779      0.371403
  B       1.135841      2.320307      0.488623
  B      -1.221112      2.424619      0.578289
  B      -2.333254      0.059727      0.374468
  B      -1.140325     -2.337547      0.454715
  B       1.257568     -2.423194      0.587394
  B       1.710538      1.167946     -0.457245
  B      -0.048940      2.329511     -0.514464
  B      -1.763158      1.255007     -0.470913
  B      -1.732865     -1.161059     -0.438862
  B       0.072518     -2.342222     -0.505826
  B       1.749850     -1.249314     -0.467582
12
Coordinates from ORCA-job input E -296.692363144508
  B       2.233470     -0.065224      0.334410
  B       1.082309      2.329440      0.476645
  B      -1.196884      2.460364      0.600657
  B      -2.254510      0.080194      0.338806
  B      -1.089808     -2.350733      0.438742
  B       1.240281     -2.456613      0.612697
  B       1.615071      1.153999     -0.444233
  B      -0.081259      2.295921     -0.514061
  B      -1.686383      1.289576     -0.459019
  B      -1.642154     -1.148202     -0.424278
  B       0.110773     -2.306577     -0.504427
  B       1.669094     -1.282144     -0.455938
12
Coordinates from ORCA-job input E -296.727194742364
  B       2.158404     -0.082128      0.297517
  B       1.034338      2.351950      0.472279
  B      -1.172258      2.503129      0.628812
  B      -2.177372      0.098250      0.302556
  B      -1.046778     -2.377418      0.428837
  B       1.224119     -2.498264      0.643726
  B       1.525719      1.148278     -0.434240
  B      -0.110866      2.269078     -0.517992
  B      -1.613013      1.323787     -0.452877
  B      -1.557564     -1.143760     -0.412283
  B       0.141912     -2.279012     -0.506218
  B       1.593360     -1.313891     -0.450116
12
Coordinates from ORCA-job input E -296.761227357385
  B       2.094584     -0.083966      0.263965
  B       0.997780      2.389299      0.481694
  B      -1.140589      2.547164      0.664868
  B      -2.109877      0.103693      0.270286
  B      -1.022808     -2.421813      0.431674
  B       1.204395     -2.539805      0.679624
  B       1.450439      1.157096     -0.428998
  B      -0.128939      2.247884     -0.532536
  B      -1.545095      1.353337     -0.457096
  B      -1.487868     -1.157792     -0.404483
  B       0.160506     -2.259083     -0.515923
  B       1.527471     -1.336013     -0.453075
12
Coordinates from ORCA-job input E -296.792607761166
  B       2.045571     -0.066812      0.233378
  B       0.960905      2.443680      0.496953
  B      -1.086248      2.588125      0.700900
  B      -2.049557      0.099471      0.239089
  B      -1.013711     -2.482632      0.432738
  B       1.177057     -2.579595      0.714687
  B       1.393631      1.185251     -0.425463
  B      -0.127504      2.231139     -0.552602
  B      -1.489859      1.363719     -0.461185
  B      -1.440478     -1.196864     -0.396684
  B       0.145842     -2.251597     -0.525792
  B       1.484351     -1.333887     -0.456017
12
Coordinates from ORCA-job input E -296.823416284240
  B       2.014686     -0.029300      0.216450
  B       0.919559      2.490329      0.522713
  B      -1.000243      2.604754      0.735416
  B      -2.008266      0.077790      0.219385
  B      -1.036955     -2.540909      0.439093
  B       1.153057     -2.589963      0.739373
  B       1.349333      1.219844     -0.425856
  B      -0.109634      2.203501     -0.584447
  B      -1.442333      1.360576     -0.473205
  B      -1.422616     -1.248674     -0.389884
  B       0.123569     -2.236217     -0.538013
  B       1.459843     -1.311729     -0.461026
12
Coordinates from ORCA-job input E -296.853317303312
  B       1.993993      0.004974      0.200516
  B       0.861055      2.532761      0.554062
  B      -0.902081      2.615499      0.763050
  B      -1.972570      0.069181      0.197240
  B      -1.056020     -2.591398      0.436148
  B       1.138118     -2.600920      0.758033
  B       1.309285      1.251385     -0.429344
  B      -0.088299      2.177818     -0.616499
  B      -1.407410      1.348685     -0.481814
  B      -1.416740     -1.296271     -0.379791
  B       0.091199     -2.226768     -0.539704
  B       1.449471     -1.284946     -0.461896
12
Coordinates from ORCA-job input E -296.875231199060
  B       1.996441      0.045988      0.193214
  B       0.801413      2.531737      0.594484
  B      -0.796594      2.587030      0.786061
  B      -1.971043      0.051033      0.182765
  B      -1.083589     -2.623758      0.436597
  B       1.132412     -2.583325      0.765611
  B       1.286677      1.275920     -0.438481
  B      -0.053065      2.147929     -0.661426
  B      -1.397830      1.341468     -0.500271
  B      -1.443945     -1.327285     -0.362894
  B       0.070773     -2.199028     -0.535043
  B       1.458352     -1.247709     -0.460617
12
Coordinates from ORCA-job input E -296.885997179935
  B       2.033094      0.055286      0.181963
  B       0.797110      2.501262      0.610258
  B      -0.780927      2.559668      0.804635
  B      -2.001395      0.071697      0.166355
  B      -1.084589     -2.618347      0.414942
  B       1.138650     -2.570873      0.769193
  B       1.307294      1.268521     -0.447662
  B      -0.052770      2.135090     -0.691221
  B      -1.438886      1.351420     -0.501117
  B      -1.468018     -1.342234     -0.347392
  B       0.063783     -2.174867     -0.513773
  B       1.486655     -1.236624     -0.446182
12
Coordinates from ORCA-job input E -296.903038187760
  B       2.082182      0.065890      0.162202
  B       0.769545      2.416501      0.615727
  B      -0.758917      2.494600      0.816859
  B      -2.033172      0.102877      0.133167
  B      -1.087891     -2.610851      0.396712
  B       1.163459     -2.553937      0.776277
  B       1.302648      1.257174     -0.461641
  B      -0.063600      2.097658     -0.704352
  B      -1.463662      1.403634     -0.506104
  B      -1.500264     -1.324166     -0.324214
  B       0.075170     -2.120674     -0.478944
  B       1.514503     -1.228707     -0.425689
12
Coordinates from ORCA-job input E -296.920052934945
  B       2.141509      0.083008      0.139133
  B       0.768821      2.328531      0.618982
  B      -0.782735      2.428965      0.823434
  B      -2.072313      0.128013      0.099806
  B      -1.094498     -2.601175      0.381200
  B       1.188406     -2.531845      0.774916
  B       1.322230      1.235066     -0.475521
  B      -0.047889      2.069643     -0.712060
  B      -1.515020      1.448090     -0.505516
  B      -1.538342     -1.298970     -0.295713
  B       0.094507     -2.064178     -0.440872
  B       1.535323     -1.225147     -0.407789
12
Coordinates from ORCA-job input E -296.936295460870
  B       2.197316      0.092783      0.113146
  B       0.756920      2.244952      0.638464
  B      -0.809635      2.362616      0.818010
  B      -2.090077      0.170298      0.073312
  B      -1.095254     -2.586258      0.360487
  B       1.206735     -2.514170      0.780386
  B       1.340552      1.198440     -0.498806
  B      -0.065918      2.037310     -0.717848
  B      -1.543736      1.512766     -0.503733
  B      -1.547243     -1.291222     -0.268444
  B       0.098847     -2.013933     -0.404952
  B       1.551493     -1.213582     -0.390024
12
Coordinates from ORCA-job input E -296.953338941148
  B       2.249041      0.104054      0.089519
  B       0.734530      2.165618      0.661991
  B      -0.822271      2.301531      0.814933
  B      -2.094161      0.218857      0.039662
  B      -1.094872     -2.596969      0.349582
  B       1.215250     -2.510960      0.790728
  B       1.348664      1.184935     -0.532132
  B      -0.067149      2.008642     -0.726126
  B      -1.581307      1.562564     -0.498735
  B      -1.557529     -1.269644     -0.240677
  B       0.105146     -1.974982     -0.376372
  B       1.564657     -1.193646     -0.372371
12
Coordinates from ORCA-job input E -296.970729904546
  B       2.275159      0.139906      0.066565
  B       0.718215      2.090449      0.692075
  B      -0.816123      2.249178      0.811690
  B      -2.077392      0.232832      0.007397
  B      -1.089312     -2.617606      0.341601
  B       1.200808     -2.505503      0.796987
  B       1.361948      1.181783     -0.567650
  B      -0.057012      1.986318     -0.735028
  B      -1.610330      1.613458     -0.500728
  B      -1.557727     -1.261963     -0.208220
  B       0.097379     -1.946804     -0.351228
  B       1.554387     -1.162048     -0.353461
12
Coordinates from ORCA-job input E -296.988591174207
  B       2.290549      0.170885      0.052241
  B       0.720493      2.002936      0.716213
  B      -0.811207      2.193768      0.806536
  B      -2.047840      0.255312     -0.023527
  B      -1.091282     -2.638725      0.333782
  B       1.181216     -2.490903      0.808936
  B       1.364589      1.191287     -0.610645
  B      -0.057949      1.959859     -0.738263
  B      -1.636041      1.660776     -0.501038
  B      -1.548551     -1.263112     -0.176848
  B       0.095509     -1.916972     -0.336767
  B       1.540514     -1.125111     -0.330619
12
Coordinates from ORCA-job input E -297.007085764178
  B       2.295070      0.207371      0.043235
  B       0.733810      1.908738      0.733427
  B      -0.808838      2.137156      0.803521
  B      -2.008025      0.277809     -0.052685
  B      -1.087660     -2.659477      0.327898
  B       1.153240     -2.477489      0.826557
  B       1.372366      1.202895     -0.657197
  B      -0.072050      1.933639     -0.739742
  B      -1.660648      1.706219     -0.499608
  B      -1.532531     -1.257997     -0.149038
  B       0.090774     -1.892087     -0.330725
  B       1.524491     -1.086778     -0.305640
12
Coordinates from ORCA-job input E -297.026022940334
  B       2.286478      0.245509      0.039748
  B       0.753575      1.807480      0.744305
  B      -0.809070      2.076526      0.801646
  B      -1.962880      0.302697     -0.077795
  B      -1.075785     -2.671685      0.324068
  B       1.116847     -2.459247      0.844381
  B       1.378767      1.218804     -0.704888
  B      -0.088301      1.907471     -0.740936
  B      -1.682537      1.750068     -0.497542
  B      -1.507667     -1.254353     -0.123091
  B       0.087132     -1.869287     -0.330464
  B       1.503439     -1.053982     -0.279432
12
Coordinates from ORCA-job input E -297.045322450125
  B       2.267973      0.282841      0.041051
  B       0.776168      1.695432      0.750048
  B      -0.808877      2.007238      0.800879
  B      -1.919853      0.328523     -0.098906
  B      -1.059357     -2.674374      0.322612
  B       1.079796     -2.435803      0.864570
  B       1.387440      1.233125     -0.753106
  B      -0.106505      1.881293     -0.743676
  B      -1.704654      1.791484     -0.495128
  B      -1.482334     -1.244648     -0.100143
  B       0.084734     -1.844710     -0.335265
  B       1.485469     -1.020401     -0.252937
12
Coordinates from ORCA-job input E -297.065392964212
  B       2.243433      0.325210      0.049630
  B       0.794446      1.577793      0.747386
  B      -0.802955      1.930715      0.798153
  B      -1.883469      0.358746     -0.114319
  B      -1.034223     -2.666529      0.320539
  B       1.042086     -2.414496      0.884292
  B       1.397277      1.248874     -0.801150
  B      -0.121727      1.857174     -0.749664
  B      -1.729620      1.831489     -0.489187
  B      -1.456093     -1.230726     -0.080070
  B       0.082626     -1.824412     -0.340788
  B       1.468219     -0.993837     -0.224822
12
Coordinates from ORCA-job input E -297.087252409012
  B       2.205042      0.368861      0.070304
  B       0.801284      1.455150      0.738409
  B      -0.775076      1.841343      0.794031
  B      -1.858204      0.384053     -0.121047
  B      -1.006180     -2.649789      0.319028
  B       1.007962     -2.387108      0.905998
  B       1.405120      1.263303     -0.851413
  B      -0.122513      1.828353     -0.761878
  B      -1.753420      1.862103     -0.478898
  B      -1.437239     -1.209082     -0.064617
  B       0.079481     -1.799727     -0.352864
  B       1.453744     -0.957460     -0.197053
12
Coordinates from ORCA-job input E -297.107457016103
  B       2.166431      0.425124      0.110303
  B       0.818792      1.340491      0.717342
  B      -0.744587      1.744887      0.783235
  B      -1.837772      0.397580     -0.113710
  B      -0.986722     -2.630143      0.322023
  B       0.965173     -2.356794      0.930506
  B       1.402645      1.296772     -0.908567
  B      -0.119877      1.801563     -0.775110
  B      -1.751875      1.873312     -0.461584
  B      -1.428428     -1.187097     -0.055052
  B       0.076920     -1.779095     -0.379209
  B       1.439301     -0.926602     -0.170177
12
Coordinates from ORCA-job input E -297.119866720070
  B       2.121863      0.451422      0.150701
  B       0.816165      1.236106      0.689511
  B      -0.727334      1.661689      0.786840
  B      -1.852011      0.408068     -0.087978
  B      -0.942560     -2.596096      0.344477
  B       0.909479     -2.316996      0.942381
  B       1.424951      1.298454     -0.956598
  B      -0.113348      1.782317     -0.791170
  B      -1.750312      1.890221     -0.451200
  B      -1.429948     -1.168904     -0.048153
  B       0.098643     -1.753808     -0.428708
  B       1.444413     -0.892472     -0.150102
12
Coordinates from ORCA-job input E -297.132150459156
  B       2.139700      0.471135      0.207910
  B       0.772409      1.197840      0.679970
  B      -0.719980      1.610376      0.768364
  B      -1.864726      0.401885     -0.048585
  B      -0.881049     -2.567494      0.384521
  B       0.835918     -2.306480      0.916694
  B       1.433894      1.306826     -0.993807
  B      -0.093676      1.768923     -0.811452
  B      -1.733383      1.881274     -0.445498
  B      -1.428782     -1.151677     -0.028236
  B       0.093394     -1.725213     -0.481778
  B       1.446280     -0.887396     -0.148104
12
Coordinates from ORCA-job input E -297.147105813947
  B       2.160593      0.478965      0.255294
  B       0.752632      1.160607      0.672164
  B      -0.738888      1.572652      0.750942
  B      -1.866551      0.402060     -0.015727
  B      -0.805304     -2.541337      0.435842
  B       0.753723     -2.284289      0.873219
  B       1.439719      1.302743     -1.007883
  B      -0.091959      1.748762     -0.818411
  B      -1.707323      1.870458     -0.455238
  B      -1.414150     -1.141571     -0.004403
  B       0.079123     -1.688886     -0.534682
  B       1.438384     -0.880164     -0.151117
12
Coordinates from ORCA-job input E -297.160055748944
  B       2.188101      0.471143      0.255136
  B       0.763849      1.164482      0.675052
  B      -0.757988      1.583210      0.755290
  B      -1.882237      0.405521     -0.012417
  B      -0.771722     -2.544170      0.481467
  B       0.724172     -2.262757      0.823261
  B       1.441287      1.269724     -0.961835
  B      -0.110250      1.736969     -0.810519
  B      -1.687737      1.857946     -0.488382
  B      -1.412624     -1.150902      0.005891
  B       0.069591     -1.661432     -0.554597
  B       1.435558     -0.869734     -0.168347
12
Coordinates from ORCA-job input E -297.167352583748
  B       2.177465      0.468189      0.250098
  B       0.773021      1.156475      0.678195
  B      -0.746339      1.571718      0.763750
  B      -1.898475      0.395255     -0.012758
  B      -0.763623     -2.540802      0.507943
  B       0.725856     -2.237001      0.789804
  B       1.447971      1.242902     -0.926664
  B      -0.095874      1.725750     -0.813228
  B      -1.686695      1.846883     -0.512848
  B      -1.423000     -1.156489      0.015282
  B       0.056548     -1.632069     -0.562407
  B       1.433145     -0.840810     -0.177167
12
Coordinates from ORCA-job input E -297.173304790115
  B       2.200603      0.459068      0.258496
  B       0.782624      1.146247      0.694044
  B      -0.764575      1.545626      0.762161
  B      -1.913683      0.392686     -0.013957
  B      -0.763577     -2.524937      0.546833
  B       0.754620     -2.195599      0.731559
  B       1.452821      1.204825     -0.887256
  B      -0.090123      1.701839     -0.813695
  B      -1.674911      1.819233     -0.544654
  B      -1.437620     -1.150049      0.029977
  B       0.022792     -1.580623     -0.567971
  B       1.431028     -0.818316     -0.195537
12
Coordinates from ORCA-job input E -297.178158220756
  B       2.208633      0.446715      0.317268
  B       0.773548      1.125923      0.717138
  B      -0.745601      1.509445      0.756946
  B      -1.953044      0.392740      0.010787
  B      -0.700859     -2.482915      0.597617
  B       0.755406     -2.148409      0.649932
  B       1.456284      1.146567     -0.864498
  B      -0.067144      1.669269     -0.837189
  B      -1.675864      1.794827     -0.583755
  B      -1.453841     -1.141295      0.050958
  B      -0.008283     -1.520417     -0.600164
  B       1.410764     -0.792449     -0.215040
12
Coordinates from ORCA-job input E -297.184108319832
  B       2.205878      0.446476      0.353824
  B       0.793526      1.136243      0.737897
  B      -0.760065      1.513883      0.741603
  B      -1.985940      0.407880      0.030238
  B      -0.690586     -2.456112      0.627439
  B       0.808197     -2.142918      0.595099
  B       1.465154      1.096321     -0.835055
  B      -0.061098      1.653960     -0.846529
  B      -1.676804      1.795028     -0.610650
  B      -1.479377     -1.156490      0.073149
  B      -0.034340     -1.517193     -0.637233
  B       1.415453     -0.777076     -0.229784
12
Coordinates from ORCA-job input E -297.188554942205
  B       2.194093      0.445497      0.390642
  B       0.786387      1.132094      0.771103
  B      -0.774545      1.488670      0.718645
  B      -1.969843      0.417489      0.033507
  B      -0.700279     -2.429264      0.648626
  B       0.848645     -2.125450      0.552980
  B       1.433626      1.028536     -0.840404
  B      -0.060155      1.599411     -0.848066
  B      -1.637528      1.763773     -0.607151
  B      -1.485545     -1.129770      0.084183
  B      -0.027802     -1.453257     -0.646145
  B       1.392946     -0.737729     -0.257919
12
Coordinates from ORCA-job input E -297.194506610431
  B       2.172810      0.424743      0.441109
  B       0.814608      1.164761      0.814886
  B      -0.771848      1.528861      0.719849
  B      -1.961948      0.404555      0.032197
  B      -0.666956     -2.386822      0.660496
  B       0.870490     -2.131972      0.499544
  B       1.412671      0.972231     -0.836821
  B      -0.076222      1.593088     -0.865998
  B      -1.648473      1.773855     -0.627033
  B      -1.472618     -1.139283      0.097584
  B      -0.031368     -1.462543     -0.668404
  B       1.358854     -0.741474     -0.267410
12
Coordinates from ORCA-job input E -297.197900564056
  B       2.123425      0.421910      0.487910
  B       0.805879      1.229032      0.834231
  B      -0.753208      1.595927      0.706584
  B      -1.957131      0.419939      0.044197
  B      -0.603043     -2.387586      0.665698
  B       0.885650     -2.181901      0.462126
  B       1.370027      0.913820     -0.811369
  B      -0.058571      1.601960     -0.889683
  B      -1.635845      1.791725     -0.626125
  B      -1.460679     -1.163963      0.111230
  B      -0.052891     -1.507936     -0.704943
  B       1.336387     -0.732928     -0.279856
12
Coordinates from ORCA-job input E -297.200744693703
  B       2.105309      0.398418      0.510158
  B       0.800896      1.238698      0.849451
  B      -0.755533      1.617411      0.717656
  B      -1.936464      0.422214      0.024362
  B      -0.593038     -2.372640      0.660722
  B       0.921933     -2.190001      0.453057
  B       1.350916      0.867357     -0.826073
  B      -0.085821      1.611225     -0.901447
  B      -1.653546      1.812926     -0.615589
  B      -1.450072     -1.138861      0.104119
  B      -0.038122     -1.516451     -0.692163
  B       1.333542     -0.750296     -0.284253
12
Coordinates from ORCA-job input E -297.201587475166
  B       2.078741      0.390950      0.513077
  B       0.804799      1.255434      0.848488
  B      -0.762388      1.646734      0.730963
  B      -1.882058      0.414970     -0.008837
  B      -0.605679     -2.368614      0.656219
  B       0.929921     -2.213159      0.456958
  B       1.308156      0.879882     -0.837436
  B      -0.097016      1.626170     -0.895171
  B      -1.650304      1.825256     -0.600676
  B      -1.419324     -1.133977      0.104169
  B      -0.036078     -1.556475     -0.685230
  B       1.331230     -0.767172     -0.282524
12
Coordinates from ORCA-job input E -297.203210097542
  B       2.068149      0.389480      0.537135
  B       0.799487      1.239040      0.843709
  B      -0.764565      1.645657      0.726159
  B      -1.874441      0.426703     -0.016149
  B      -0.597259     -2.371084      0.663139
  B       0.936562     -2.186779      0.442608
  B       1.296715      0.828030     -0.835010
  B      -0.097209      1.605305     -0.898425
  B      -1.662507      1.844226     -0.589061
  B      -1.421089     -1.125022      0.109855
  B      -0.029336     -1.546194     -0.688504
  B       1.345494     -0.749362     -0.295454
12
Coordinates from ORCA-job input E -297.203485853928
  B       2.076069      0.372223      0.528683
  B       0.770815      1.263761      0.816861
  B      -0.765197      1.682437      0.739583
  B      -1.870253      0.431036     -0.026097
  B      -0.599364     -2.386867      0.651681
  B       0.923810     -2.205376      0.463969
  B       1.299114      0.817392     -0.835125
  B      -0.109113      1.619379     -0.891478
  B      -1.685301      1.866251     -0.567437
  B      -1.417802     -1.128149      0.105406
  B      -0.007802     -1.569509     -0.692463
  B       1.385025     -0.762577     -0.293584
12
Coordinates from ORCA-job input E -297.204866297553
  B       2.057699      0.381398      0.547399
  B       0.783158      1.264994      0.812783
  B      -0.759285      1.695751      0.738305
  B      -1.861884      0.435791     -0.032618
  B      -0.586689     -2.392741      0.646008
  B       0.931006     -2.199684      0.460989
  B       1.280319      0.804767     -0.839260
  B      -0.117612      1.607847     -0.889414
  B      -1.680475      1.871925     -0.560391
  B      -1.413618     -1.128355      0.098590
  B      -0.019071     -1.566615     -0.690809
  B       1.386453     -0.775078     -0.291580
12
Coordinates from ORCA-job input E -297.205586657642
  B       2.033774      0.374970      0.560193
  B       0.796969      1.300162      0.810689
  B      -0.763589      1.731163      0.737704
  B      -1.846628      0.425282     -0.039350
  B      -0.587210     -2.378932      0.642920
  B       0.936951     -2.200871      0.442473
  B       1.251825      0.774595     -0.829289
  B      -0.118536      1.578273     -0.878871
  B      -1.672034      1.864921     -0.550730
  B      -1.407081     -1.134385      0.099470
  B      -0.014083     -1.550698     -0.701204
  B       1.389642     -0.784481     -0.294005
12
Coordinates from ORCA-job input E -297.206885423240
  B       2.024179      0.379858      0.570633
  B       0.800218      1.312573      0.790163
  B      -0.760716      1.761728      0.738344
  B      -1.841254      0.423872     -0.048356
  B      -0.589363     -2.395407      0.623821
  B       0.935202     -2.211265      0.451929
  B       1.234350      0.753783     -0.836600
  B      -0.130401      1.567569     -0.871927
  B      -1.688447      1.887215     -0.528661
  B      -1.408786     -1.133260      0.090692
  B      -0.004081     -1.543591     -0.690186
  B       1.429100     -0.803073     -0.289853
12
Coordinates from ORCA-job input E -297.209039941581
  B       2.013264      0.388407      0.581127
  B       0.804041      1.344856      0.758121
  B      -0.746465      1.797460      0.742947
  B      -1.852503      0.427655     -0.056716
  B      -0.588027     -2.389087      0.590798
  B       0.931302     -2.227929      0.457425
  B       1.218761      0.710737     -0.835179
  B      -0.157169      1.542050     -0.859429
  B      -1.713425      1.895480     -0.497212
  B      -1.425910     -1.124919      0.073808
  B       0.012256     -1.523735     -0.679239
  B       1.503874     -0.840975     -0.276451
12
Coordinates from ORCA-job input E -297.212048335776
  B       2.012496      0.383569      0.595089
  B       0.810466      1.389760      0.729725
  B      -0.735884      1.856169      0.742514
  B      -1.865076      0.424589     -0.065708
  B      -0.583739     -2.410363      0.564950
  B       0.936553     -2.248608      0.448337
  B       1.186972      0.658699     -0.827703
  B      -0.178522      1.515406     -0.845963
  B      -1.736722      1.914575     -0.476667
  B      -1.439357     -1.127837      0.060029
  B       0.019880     -1.482810     -0.667152
  B       1.572933     -0.873148     -0.257452
12
Coordinates from ORCA-job input E -297.216304668542
  B       2.013429      0.379396      0.606842
  B       0.819969      1.434382      0.707151
  B      -0.728894      1.915329      0.739119
  B      -1.882513      0.419951     -0.070825
  B      -0.581281     -2.428368      0.538651
  B       0.947766     -2.272603      0.426336
  B       1.148607      0.598724     -0.814898
  B      -0.194421      1.484070     -0.838687
  B      -1.754740      1.931327     -0.460233
  B      -1.452351     -1.132491      0.048590
  B       0.030731     -1.428360     -0.647488
  B       1.633697     -0.901356     -0.234557
12
Coordinates from ORCA-job input E -297.221832951126
  B       2.016012      0.381289      0.618448
  B       0.830944      1.468878      0.678007
  B      -0.713991      1.965980      0.730197
  B      -1.898100      0.414013     -0.075212
  B      -0.578466     -2.437420      0.506613
  B       0.957420     -2.294282      0.406383
  B       1.113033      0.540552     -0.799075
  B      -0.218971      1.447780     -0.826324
  B      -1.773204      1.940369     -0.441713
  B      -1.465612     -1.129950      0.035117
  B       0.037980     -1.367811     -0.627584
  B       1.692956     -0.929396     -0.204856
12
Coordinates from ORCA-job input E -297.229045622577
  B       2.021345      0.383628      0.625506
  B       0.839130      1.497308      0.646099
  B      -0.700679      2.016409      0.719775
  B      -1.922453      0.410968     -0.077077
  B      -0.574491     -2.441263      0.471424
  B       0.972002     -2.315143      0.382894
  B       1.080310      0.485895     -0.779909
  B      -0.241047      1.407192     -0.812449
  B      -1.789274      1.949485     -0.423921
  B      -1.481655     -1.127365      0.020644
  B       0.051107     -1.306121     -0.600421
  B       1.745706     -0.960992     -0.172564
12
Coordinates from ORCA-job input E -297.237417457888
  B       2.033173      0.387532      0.634238
  B       0.850408      1.518285      0.613398
  B      -0.685168      2.058711      0.701531
  B      -1.946493      0.400950     -0.076621
  B      -0.577443     -2.439221      0.435858
  B       0.980712     -2.335352      0.356665
  B       1.057584      0.439914     -0.760221
  B      -0.264169      1.364035     -0.794948
  B      -1.805173      1.949317     -0.408072
  B      -1.497093     -1.124150      0.010059
  B       0.060634     -1.236488     -0.571270
  B       1.793028     -0.983533     -0.140618
12
Coordinates from ORCA-job input E -297.246882930955
  B       2.050250      0.399961      0.644381
  B       0.868687      1.523555      0.596007
  B      -0.668845      2.081969      0.670748
  B      -1.960489      0.386681     -0.076183
  B      -0.596048     -2.418231      0.398638
  B       0.996183     -2.358421      0.325627
  B       1.023717      0.390011     -0.738470
  B      -0.294195      1.317357     -0.780856
  B      -1.820236      1.940038     -0.395889
  B      -1.504099     -1.109268      0.002645
  B       0.076489     -1.155575     -0.531508
  B       1.828584     -0.998078     -0.115138
12
Coordinates from ORCA-job input E -297.252840200285
  B       2.047477      0.406810      0.643265
  B       0.886182      1.548018      0.565087
  B      -0.661626      2.129344      0.646931
  B      -1.976837      0.381326     -0.077554
  B      -0.590662     -2.409316      0.356033
  B       1.004252     -2.383066      0.293561
  B       0.980036      0.341782     -0.707838
  B      -0.313099      1.280706     -0.766637
  B      -1.818876      1.943546     -0.371984
  B      -1.507971     -1.112428     -0.017387
  B       0.091830     -1.113086     -0.477565
  B       1.859295     -1.013637     -0.085911
12
Coordinates from ORCA-job input E -297.253995882046
  B       2.048121      0.460349      0.653629
  B       0.936890      1.573507      0.572564
  B      -0.629658      2.118057      0.617433
  B      -1.973486      0.349779     -0.073493
  B      -0.639375     -2.405467      0.339128
  B       0.976877     -2.402337      0.263926
  B       0.960399      0.356290     -0.699938
  B      -0.307735      1.276376     -0.770424
  B      -1.796559      1.897242     -0.360775
  B      -1.510151     -1.142721     -0.022444
  B       0.079865     -1.103901     -0.440471
  B       1.854811     -0.977173     -0.079134
12
Coordinates from ORCA-job input E -297.259279118436
  B       2.048298      0.459466      0.652763
  B       0.942727      1.615359      0.521767
  B      -0.599192      2.180460      0.624135
  B      -2.020782      0.340248     -0.074825
  B      -0.616888     -2.443770      0.314587
  B       0.976986     -2.403656      0.237910
  B       0.971076      0.345366     -0.683698
  B      -0.304924      1.261121     -0.751145
  B      -1.797342      1.895255     -0.346363
  B      -1.545965     -1.163158     -0.042780
  B       0.058363     -1.094351     -0.414089
  B       1.887643     -0.992341     -0.038262
12
Coordinates from ORCA-job input E -297.261572100663
  B       2.027073      0.436496      0.642781
  B       0.949127      1.621783      0.509387
  B      -0.600820      2.222502      0.632635
  B      -2.018261      0.333733     -0.073714
  B      -0.580802     -2.426646      0.307620
  B       0.995667     -2.369450      0.233841
  B       0.976441      0.306026     -0.671377
  B      -0.314216      1.249662     -0.749992
  B      -1.794460      1.891981     -0.330300
  B      -1.551848     -1.158962     -0.058247
  B       0.037949     -1.098186     -0.430351
  B       1.874150     -1.008939     -0.012282
12
Coordinates from ORCA-job input E -297.268374024574
  B       2.036956      0.464759      0.649113
  B       0.972877      1.657953      0.456391
  B      -0.567813      2.279383      0.602834
  B      -2.027376      0.301641     -0.066441
  B      -0.603168     -2.460000      0.271086
  B       0.978095     -2.378425      0.208919
  B       0.986139      0.296118     -0.652749
  B      -0.326004      1.231243     -0.714356
  B      -1.784558      1.865468     -0.293838
  B      -1.579557     -1.189336     -0.076628
  B       0.025939     -1.071823     -0.426627
  B       1.888469     -0.996982      0.042295
12
Coordinates from ORCA-job input E -297.278915576036
  B       2.074474      0.518389      0.651693
  B       1.005349      1.677025      0.425560
  B      -0.525445      2.294519      0.556554
  B      -2.045914      0.274411     -0.044165
  B      -0.653223     -2.476945      0.242624
  B       0.956754     -2.353233      0.191982
  B       1.018284      0.303847     -0.636534
  B      -0.319247      1.205233     -0.682200
  B      -1.769156      1.814369     -0.251373
  B      -1.638672     -1.239972     -0.090111
  B       0.012572     -1.060238     -0.470272
  B       1.884224     -0.957407      0.106243
12
Coordinates from ORCA-job input E -297.289631346691
  B       2.103238      0.543750      0.664334
  B       1.031561      1.697295      0.387764
  B      -0.501578      2.330254      0.513063
  B      -2.035690      0.236439     -0.023565
  B      -0.668305     -2.474865      0.207466
  B       0.928380     -2.326416      0.172474
  B       1.045817      0.287457     -0.624077
  B      -0.321791      1.159313     -0.650716
  B      -1.761983      1.771179     -0.209500
  B      -1.664197     -1.272199     -0.094774
  B      -0.025196     -1.016297     -0.515422
  B       1.869744     -0.935911      0.172953
12
Coordinates from ORCA-job input E -297.301723682252
  B       2.129122      0.564296      0.675330
  B       1.043220      1.706905      0.364274
  B      -0.485640      2.351205      0.473738
  B      -2.025047      0.217886     -0.001532
  B      -0.658492     -2.447429      0.171308
  B       0.906695     -2.273905      0.162518
  B       1.075386      0.259769     -0.612897
  B      -0.315313      1.092861     -0.624830
  B      -1.759422      1.739352     -0.172866
  B      -1.682499     -1.303673     -0.092692
  B      -0.071275     -0.973768     -0.568921
  B       1.843267     -0.933499      0.226569
12
Coordinates from ORCA-job input E -297.311326084750
  B       2.162034      0.562891      0.682488
  B       1.056887      1.702220      0.332511
  B      -0.467968      2.365481      0.432581
  B      -2.038282      0.190666      0.008812
  B      -0.640714     -2.416775      0.128301
  B       0.898390     -2.222110      0.155091
  B       1.095937      0.247266     -0.597925
  B      -0.314648      1.036779     -0.590437
  B      -1.753244      1.710147     -0.144938
  B      -1.721171     -1.322961     -0.103786
  B      -0.123765     -0.930492     -0.572471
  B       1.846544     -0.923112      0.269774
12
Coordinates from ORCA-job input E -297.320202546548
  B       2.173916      0.579093      0.691167
  B       1.056358      1.703697      0.308066
  B      -0.440286      2.403470      0.394668
  B      -2.033815      0.183075      0.007870
  B      -0.632851     -2.404875      0.083709
  B       0.906066     -2.189189      0.142899
  B       1.103064      0.219108     -0.578753
  B      -0.326208      0.992133     -0.552056
  B      -1.747360      1.706150     -0.120702
  B      -1.751684     -1.358681     -0.112423
  B      -0.169977     -0.910256     -0.560143
  B       1.862777     -0.923724      0.295698
12
Coordinates from ORCA-job input E -297.328545716406
  B       2.187562      0.586710      0.696496
  B       1.056378      1.695002      0.281139
  B      -0.424879      2.426516      0.353866
  B      -2.030021      0.166753      0.003852
  B      -0.635292     -2.391515      0.039126
  B       0.907967     -2.161737      0.133957
  B       1.111850      0.200489     -0.559344
  B      -0.339941      0.961370     -0.512134
  B      -1.740379      1.702647     -0.099617
  B      -1.787197     -1.385894     -0.122181
  B      -0.212753     -0.881429     -0.534747
  B       1.906705     -0.918912      0.319587
12
Coordinates from ORCA-job input E -297.336414854506
  B       2.195520      0.596149      0.699297
  B       1.053579      1.679030      0.265071
  B      -0.409646      2.444578      0.315655
  B      -2.015834      0.156959     -0.006327
  B      -0.637365     -2.384875     -0.001130
  B       0.908157     -2.119050      0.124671
  B       1.116027      0.173752     -0.532602
  B      -0.357085      0.932162     -0.474961
  B      -1.735960      1.705073     -0.086853
  B      -1.821326     -1.415617     -0.126048
  B      -0.262100     -0.848864     -0.509972
  B       1.966032     -0.919297      0.333198
12
Coordinates from ORCA-job input E -297.343721611734
  B       2.206524      0.605836      0.702564
  B       1.052574      1.662981      0.256551
  B      -0.396696      2.454529      0.278460
  B      -1.998520      0.146372     -0.019463
  B      -0.639728     -2.383176     -0.040175
  B       0.903071     -2.057898      0.110918
  B       1.117359      0.142932     -0.497840
  B      -0.370371      0.904069     -0.444708
  B      -1.728842      1.714372     -0.078460
  B      -1.857970     -1.447615     -0.127791
  B      -0.323735     -0.826744     -0.480412
  B       2.036333     -0.915657      0.340355
12
Coordinates from ORCA-job input E -297.350059665399
  B       2.224279      0.612466      0.702165
  B       1.056360      1.645908      0.251700
  B      -0.378659      2.457102      0.241397
  B      -1.980748      0.130807     -0.035559
  B      -0.639591     -2.383989     -0.075308
  B       0.897921     -1.976490      0.098175
  B       1.108439      0.102333     -0.456695
  B      -0.385843      0.876789     -0.409076
  B      -1.725242      1.719491     -0.076049
  B      -1.892719     -1.480733     -0.128889
  B      -0.387995     -0.788490     -0.457932
  B       2.103799     -0.915194      0.346071
12
Coordinates from ORCA-job input E -297.355042909572
  B       2.234397      0.606080      0.693003
  B       1.052086      1.634421      0.257562
  B      -0.370909      2.461099      0.216557
  B      -1.964015      0.134467     -0.058811
  B      -0.630536     -2.387956     -0.103037
  B       0.896228     -1.894113      0.092299
  B       1.092164      0.064265     -0.416793
  B      -0.400939      0.867402     -0.379000
  B      -1.734284      1.754757     -0.080710
  B      -1.918949     -1.506464     -0.134561
  B      -0.437789     -0.808853     -0.424106
  B       2.182544     -0.925106      0.337597
12
Coordinates from ORCA-job input E -297.359211346145
  B       2.261483      0.620038      0.677027
  B       1.069570      1.639734      0.245350
  B      -0.350813      2.455240      0.187113
  B      -1.986913      0.114628     -0.067715
  B      -0.627660     -2.398671     -0.133353
  B       0.888481     -1.817154      0.079039
  B       1.076259      0.013304     -0.361063
  B      -0.400626      0.855301     -0.337013
  B      -1.728997      1.757780     -0.079409
  B      -1.944136     -1.531074     -0.153360
  B      -0.480054     -0.787106     -0.400814
  B       2.223405     -0.922021      0.344198
12
Coordinates from ORCA-job input E -297.361734564363
  B       2.272913      0.603718      0.647422
  B       1.074620      1.646048      0.246417
  B      -0.358052      2.441572      0.185358
  B      -2.016609      0.126816     -0.076333
  B      -0.621690     -2.384492     -0.130407
  B       0.902311     -1.803859      0.081077
  B       1.050522     -0.014444     -0.336230
  B      -0.407392      0.852470     -0.316740
  B      -1.759545      1.768241     -0.087898
  B      -1.924447     -1.515317     -0.169463
  B      -0.454894     -0.778798     -0.390093
  B       2.242264     -0.941954      0.346888
12
Coordinates from ORCA-job input E -297.364718336595
  B       2.276650      0.622723      0.623504
  B       1.088920      1.677686      0.227363
  B      -0.343962      2.463086      0.174264
  B      -2.020871      0.124927     -0.084849
  B      -0.626757     -2.412484     -0.134843
  B       0.900572     -1.825119      0.065426
  B       1.030817     -0.027398     -0.295222
  B      -0.408546      0.867366     -0.280709
  B      -1.741631      1.762812     -0.074271
  B      -1.926141     -1.522207     -0.196663
  B      -0.460220     -0.805572     -0.382144
  B       2.231169     -0.925819      0.358144
12
Coordinates from ORCA-job input E -297.366785217386
  B       2.285789      0.627911      0.595459
  B       1.089913      1.681651      0.228586
  B      -0.351638      2.450101      0.165592
  B      -2.009648      0.130462     -0.100209
  B      -0.628385     -2.392587     -0.131693
  B       0.908179     -1.826579      0.051571
  B       1.029106     -0.044110     -0.257471
  B      -0.405022      0.858918     -0.255154
  B      -1.747893      1.755158     -0.076139
  B      -1.926192     -1.517437     -0.205977
  B      -0.486176     -0.797890     -0.378560
  B       2.241967     -0.925598      0.363996
12
Coordinates from ORCA-job input E -297.368179804646
  B       2.289895      0.627738      0.560136
  B       1.093983      1.688878      0.231915
  B      -0.362595      2.450175      0.164884
  B      -2.015604      0.132525     -0.113613
  B      -0.629928     -2.388280     -0.116441
  B       0.923758     -1.847023      0.043045
  B       1.014429     -0.040171     -0.227923
  B      -0.399962      0.859488     -0.236424
  B      -1.746165      1.748385     -0.075550
  B      -1.942207     -1.514024     -0.221260
  B      -0.477254     -0.786586     -0.382958
  B       2.251651     -0.931104      0.374189
12
Coordinates from ORCA-job input E -297.368840248915
  B       2.315262      0.633043      0.534257
  B       1.095334      1.690396      0.246693
  B      -0.362002      2.452907      0.159493
  B      -2.013370      0.134815     -0.124798
  B      -0.631015     -2.394535     -0.112827
  B       0.923232     -1.840203      0.043557
  B       1.007204     -0.048798     -0.202990
  B      -0.401327      0.855741     -0.223088
  B      -1.754779      1.750925     -0.076700
  B      -1.945471     -1.513947     -0.231466
  B      -0.483629     -0.793153     -0.385165
  B       2.250560     -0.927190      0.373034
12
Coordinates from ORCA-job input E -297.368921380306
  B       2.316652      0.635678      0.512328
  B       1.103699      1.701727      0.249740
  B      -0.358815      2.452626      0.155805
  B      -2.022391      0.121950     -0.135541
  B      -0.636223     -2.402806     -0.110074
  B       0.917851     -1.843173      0.032922
  B       0.996831     -0.048161     -0.172011
  B      -0.398807      0.861849     -0.217002
  B      -1.762278      1.764775     -0.076913
  B      -1.926443     -1.513514     -0.242254
  B      -0.495521     -0.794685     -0.372178
  B       2.265445     -0.936266      0.375179
12
Coordinates from ORCA-job input E -297.369513357709
  B       2.325558      0.636508      0.506485
  B       1.097738      1.693800      0.257737
  B      -0.357526      2.451816      0.156974
  B      -2.019354      0.123786     -0.135875
  B      -0.631706     -2.393623     -0.106649
  B       0.919681     -1.839104      0.037708
  B       0.996905     -0.048880     -0.171176
  B      -0.403604      0.860949     -0.220016
  B      -1.758557      1.759016     -0.076927
  B      -1.939297     -1.516347     -0.240780
  B      -0.487708     -0.793901     -0.382066
  B       2.257870     -0.934021      0.374584
12
Coordinates from ORCA-job input E -297.369676035672
  B       2.329892      0.634712      0.501042
  B       1.096371      1.691613      0.265020
  B      -0.359013      2.450971      0.160067
  B      -2.019733      0.124070     -0.136234
  B      -0.630082     -2.392304     -0.102837
  B       0.917518     -1.839759      0.039693
  B       0.996242     -0.046073     -0.168800
  B      -0.405208      0.862169     -0.228020
  B      -1.757948      1.757917     -0.077625
  B      -1.938359     -1.516392     -0.238661
  B      -0.483433     -0.792917     -0.387621
  B       2.253753     -0.934006      0.373975
12
Coordinates from ORCA-job input E -297.369898525066
  B       2.335344      0.634033      0.493685
  B       1.097220      1.692701      0.272593
  B      -0.360600      2.448379      0.165252
  B      -2.024703      0.123722     -0.137688
  B      -0.630706     -2.387005     -0.100373
  B       0.911988     -1.836173      0.038913
  B       0.998617     -0.044167     -0.155629
  B      -0.403570      0.861854     -0.244445
  B      -1.757343      1.753903     -0.077365
  B      -1.942727     -1.519611     -0.233160
  B      -0.479185     -0.793275     -0.395741
  B       2.255665     -0.934362      0.373958
12
Coordinates from ORCA-job input E -297.370033115069
  B       2.338162      0.629733      0.486265
  B       1.091162      1.678786      0.295144
  B      -0.359372      2.444383      0.178838
  B      -2.017804      0.125691     -0.141933
  B      -0.625128     -2.389920     -0.091247
  B       0.911847     -1.829173      0.045086
  B       0.992841     -0.034368     -0.154781
  B      -0.409880      0.868662     -0.275402
  B      -1.755421      1.753967     -0.084717
  B      -1.937944     -1.519947     -0.221208
  B      -0.482500     -0.789569     -0.402489
  B       2.254037     -0.938246      0.366444
12
Coordinates from ORCA-job input E -297.370343619520
  B       2.337102      0.628449      0.492417
  B       1.095342      1.692994      0.290550
  B      -0.365633      2.439686      0.183584
  B      -2.023019      0.123523     -0.139599
  B      -0.628706     -2.390203     -0.090217
  B       0.906517     -1.834009      0.042518
  B       0.995650     -0.034736     -0.154018
  B      -0.401849      0.871780     -0.288651
  B      -1.754700      1.750126     -0.079893
  B      -1.930952     -1.517847     -0.212959
  B      -0.478403     -0.788492     -0.412781
  B       2.248650     -0.941270      0.369051
12
Coordinates from ORCA-job input E -297.370662367539
  B       2.334864      0.628474      0.503188
  B       1.100538      1.700559      0.283533
  B      -0.366611      2.438919      0.187463
  B      -2.026034      0.122296     -0.139977
  B      -0.631052     -2.388460     -0.092964
  B       0.906685     -1.832037      0.037688
  B       0.999103     -0.036244     -0.155912
  B      -0.394393      0.872532     -0.298964
  B      -1.756489      1.743185     -0.076560
  B      -1.934522     -1.516743     -0.205107
  B      -0.482393     -0.790786     -0.413841
  B       2.250305     -0.941695      0.371455
12
Coordinates from ORCA-job input E -297.371081773857
  B       2.329207      0.627105      0.519190
  B       1.099393      1.700729      0.273932
  B      -0.370035      2.436950      0.197612
  B      -2.022805      0.121799     -0.139327
  B      -0.631077     -2.387949     -0.095567
  B       0.905966     -1.828062      0.038343
  B       1.004710     -0.037144     -0.170234
  B      -0.385868      0.879884     -0.320660
  B      -1.757942      1.736873     -0.068976
  B      -1.933845     -1.514465     -0.189335
  B      -0.485251     -0.790370     -0.422565
  B       2.247547     -0.945350      0.377588
12
Coordinates from ORCA-job input E -297.371511632911
  B       2.323139      0.625013      0.532147
  B       1.097234      1.693070      0.262697
  B      -0.371009      2.436668      0.207889
  B      -2.019934      0.119671     -0.139337
  B      -0.628678     -2.385758     -0.098840
  B       0.905921     -1.822661      0.043776
  B       1.008062     -0.037145     -0.195099
  B      -0.380290      0.886826     -0.339759
  B      -1.756545      1.730319     -0.056078
  B      -1.931663     -1.511595     -0.176814
  B      -0.487039     -0.788788     -0.431481
  B       2.240801     -0.945619      0.390899
12
Coordinates from ORCA-job input E -297.371938345588
  B       2.319331      0.625680      0.530191
  B       1.092759      1.682866      0.256212
  B      -0.370487      2.437006      0.217070
  B      -2.016940      0.119247     -0.143924
  B      -0.625696     -2.385138     -0.098282
  B       0.904592     -1.820050      0.051351
  B       1.010101     -0.040348     -0.215648
  B      -0.377928      0.894724     -0.351485
  B      -1.755035      1.727752     -0.040238
  B      -1.928848     -1.510774     -0.171116
  B      -0.485697     -0.787105     -0.442837
  B       2.233849     -0.943860      0.408705
12
Coordinates from ORCA-job input E -297.372365929527
  B       2.317521      0.627866      0.519550
  B       1.090906      1.675220      0.255869
  B      -0.368966      2.433902      0.226811
  B      -2.018566      0.119395     -0.152986
  B      -0.623371     -2.381690     -0.093072
  B       0.903728     -1.819612      0.059456
  B       1.011882     -0.045121     -0.237514
  B      -0.377822      0.897079     -0.362618
  B      -1.751113      1.726326     -0.020935
  B      -1.926921     -1.509784     -0.170728
  B      -0.482736     -0.786217     -0.453510
  B       2.225456     -0.937363      0.429675
12
Coordinates from ORCA-job input E -297.372683145477
  B       2.316507      0.629419      0.506291
  B       1.094115      1.679868      0.260328
  B      -0.367296      2.430373      0.239273
  B      -2.016175      0.119250     -0.163338
  B      -0.623895     -2.382423     -0.081991
  B       0.899817     -1.824621      0.062976
  B       1.014245     -0.044934     -0.248434
  B      -0.376194      0.906809     -0.383800
  B      -1.750689      1.720147     -0.002145
  B      -1.925705     -1.511191     -0.167992
  B      -0.479295     -0.788802     -0.468682
  B       2.214565     -0.933894      0.447515
12
Coordinates from ORCA-job input E -297.372876357757
  B       2.314307      0.634938      0.495573
  B       1.091777      1.680956      0.264237
  B      -0.363681      2.418869      0.243219
  B      -2.022620      0.123336     -0.175555
  B      -0.626361     -2.374871     -0.073624
  B       0.902150     -1.823479      0.068696
  B       1.020264     -0.053124     -0.261730
  B      -0.383159      0.892858     -0.389616
  B      -1.743919      1.722143      0.017753
  B      -1.927508     -1.508083     -0.172852
  B      -0.476849     -0.787023     -0.477712
  B       2.215598     -0.926521      0.461610
12
Coordinates from ORCA-job input E -297.373059297449
  B       2.314480      0.632813      0.497694
  B       1.097263      1.687955      0.262981
  B      -0.362394      2.417597      0.243743
  B      -2.020334      0.121847     -0.177615
  B      -0.627396     -2.376560     -0.070313
  B       0.901876     -1.822395      0.066479
  B       1.018236     -0.049817     -0.256994
  B      -0.382913      0.896557     -0.393461
  B      -1.746646      1.717917      0.019998
  B      -1.927635     -1.508009     -0.171760
  B      -0.479099     -0.789430     -0.481088
  B       2.214562     -0.928475      0.460336
12
Coordinates from ORCA-job input E -297.373208286944
  B       2.313526      0.631386      0.504113
  B       1.099091      1.692074      0.263933
  B      -0.361799      2.414438      0.245800
  B      -2.019716      0.122231     -0.183592
  B      -0.628353     -2.377480     -0.062860
  B       0.901436     -1.819860      0.065859
  B       1.016771     -0.045253     -0.254706
  B      -0.383961      0.898354     -0.401960
  B      -1.747085      1.715854      0.024941
  B      -1.926243     -1.506288     -0.165982
  B      -0.480136     -0.793302     -0.491093
  B       2.216471     -0.932155      0.455547
12
Coordinates from ORCA-job input E -297.373305937622
  B       2.310104      0.629970      0.513636
  B       1.102612      1.694549      0.258337
  B      -0.359131      2.413913      0.241740
  B      -2.014045      0.124130     -0.188266
  B      -0.628803     -2.378865     -0.056156
  B       0.901370     -1.817537      0.061619
  B       1.015168     -0.045442     -0.251422
  B      -0.389384      0.894733     -0.395940
  B      -1.751562      1.716079      0.029254
  B      -1.925969     -1.505192     -0.166660
  B      -0.481442     -0.793469     -0.496265
  B       2.221083     -0.932868      0.450123
12
Coordinates from ORCA-job input E -297.373391518099
  B       2.311001      0.629786      0.518536
  B       1.099405      1.688682      0.264945
  B      -0.360319      2.410516      0.244686
  B      -2.016065      0.124990     -0.198689
  B      -0.627230     -2.376250     -0.045784
  B       0.901677     -1.812621      0.062322
  B       1.015511     -0.041860     -0.250781
  B      -0.389700      0.893089     -0.402778
  B      -1.748789      1.717661      0.031882
  B      -1.926416     -1.503255     -0.159538
  B      -0.482570     -0.796473     -0.505624
  B       2.223494     -0.934266      0.440823
12
Coordinates from ORCA-job input E -297.373442818145
  B       2.312052      0.629159      0.518286
  B       1.095429      1.683313      0.267817
  B      -0.361174      2.412104      0.244271
  B      -2.014093      0.125017     -0.202628
  B      -0.627009     -2.372976     -0.040775
  B       0.901965     -1.813638      0.060155
  B       1.014886     -0.042211     -0.250596
  B      -0.391247      0.892622     -0.399110
  B      -1.749700      1.719839      0.029826
  B      -1.926072     -1.503826     -0.159444
  B      -0.479837     -0.794668     -0.504778
  B       2.224799     -0.934736      0.436976
12
Coordinates from ORCA-job input E -297.373470521576
  B       2.312625      0.628982      0.521986
  B       1.093796      1.680064      0.267209
  B      -0.365245      2.411998      0.246317
  B      -2.012103      0.125164     -0.206562
  B      -0.627442     -2.370144     -0.036322
  B       0.902485     -1.813200      0.056947
  B       1.020515     -0.044177     -0.255624
  B      -0.385500      0.892181     -0.395463
  B      -1.753548      1.720285      0.027302
  B      -1.929907     -1.503619     -0.159216
  B      -0.480156     -0.793621     -0.499515
  B       2.224482     -0.933915      0.432940
12
Coordinates from ORCA-job input E -297.373499288569
  B       2.313727      0.628240      0.518591
  B       1.093082      1.680090      0.270547
  B      -0.364209      2.413700      0.247062
  B      -2.012066      0.124669     -0.211199
  B      -0.628090     -2.370530     -0.033382
  B       0.902419     -1.812820      0.057332
  B       1.018046     -0.042742     -0.253459
  B      -0.387358      0.892616     -0.394669
  B      -1.751769      1.718832      0.027010
  B      -1.929813     -1.503957     -0.160188
  B      -0.479981     -0.793967     -0.498536
  B       2.226012     -0.934130      0.430891
12
Coordinates from ORCA-job input E -297.373516161773
  B       2.314054      0.627777      0.517146
  B       1.093588      1.682119      0.272261
  B      -0.364440      2.413647      0.248292
  B      -2.012840      0.124554     -0.214459
  B      -0.629353     -2.370853     -0.031648
  B       0.901641     -1.812671      0.058124
  B       1.017691     -0.041705     -0.252589
  B      -0.387510      0.893243     -0.393523
  B      -1.751275      1.717699      0.025670
  B      -1.929281     -1.504272     -0.160817
  B      -0.479541     -0.794441     -0.496448
  B       2.227266     -0.935098      0.427990
12
Coordinates from ORCA-job input E -297.373526891781
  B       2.314551      0.627185      0.515200
  B       1.094054      1.683711      0.274776
  B      -0.365229      2.412858      0.250329
  B      -2.012569      0.124692     -0.218649
  B      -0.630229     -2.371267     -0.029213
  B       0.901001     -1.812337      0.059788
  B       1.018425     -0.040946     -0.253911
  B      -0.387237      0.893467     -0.392361
  B      -1.751652      1.717024      0.024308
  B      -1.929818     -1.504214     -0.162183
  B      -0.479224     -0.794692     -0.492779
  B       2.227927     -0.935481      0.424695
12
Coordinates from ORCA-job input E -297.373530466152
  B       2.314877      0.627250      0.515346
  B       1.094512      1.684402      0.274632
  B      -0.365702      2.412919      0.250728
  B      -2.013521      0.124523     -0.220284
  B      -0.630376     -2.371142     -0.029592
  B       0.900217     -1.811955      0.061025
  B       1.019132     -0.040935     -0.254962
  B      -0.386161      0.893684     -0.391251
  B      -1.751905      1.716261      0.024307
  B      -1.929970     -1.504458     -0.161847
  B      -0.479375     -0.794554     -0.491851
  B       2.228272     -0.935996      0.423748
12
Coordinates from ORCA-job input E -297.373534203955
  B       2.315095      0.627296      0.514355
  B       1.094928      1.685015      0.275038
  B      -0.366000      2.412142      0.249851
  B      -2.012291      0.124357     -0.220065
  B      -0.630672     -2.371325     -0.030804
  B       0.900039     -1.812025      0.062702
  B       1.019595     -0.041108     -0.255278
  B      -0.386307      0.893125     -0.389685
  B      -1.752774      1.717337      0.024114
  B      -1.930356     -1.504852     -0.163225
  B      -0.479194     -0.794086     -0.489931
  B       2.227937     -0.935877      0.422928
12
Coordinates from ORCA-job input E -297.373538216194
  B       2.314905      0.627418      0.514709
  B       1.094907      1.684868      0.274534
  B      -0.365768      2.412742      0.248940
  B      -2.011989      0.124346     -0.219537
  B      -0.630280     -2.371468     -0.032410
  B       0.899853     -1.812432      0.063585
  B       1.019550     -0.041037     -0.255681
  B      -0.386334      0.893026     -0.389992
  B      -1.752677      1.717073      0.025322
  B      -1.930524     -1.504875     -0.162704
  B      -0.479295     -0.793960     -0.490443
  B       2.227651     -0.935701      0.423677
12
Coordinates from ORCA-job input E -297.373543562461
  B       2.314872      0.627728      0.514852
  B       1.094938      1.684652      0.273577
  B      -0.365096      2.414047      0.245822
  B      -2.011811      0.124156     -0.218502
  B      -0.629738     -2.371639     -0.035951
  B       0.900121     -1.813588      0.064737
  B       1.018643     -0.040983     -0.253825
  B      -0.386669      0.892902     -0.389264
  B      -1.752392      1.716914      0.027316
  B      -1.930726     -1.505169     -0.162263
  B      -0.479669     -0.793598     -0.490880
  B       2.227525     -0.935422      0.424381
12
Coordinates from ORCA-job input E -297.373545236044
  B       2.314738      0.627781      0.515091
  B       1.094846      1.684810      0.273634
  B      -0.365040      2.414398      0.245089
  B      -2.011511      0.124229     -0.218612
  B      -0.629882     -2.371720     -0.036671
  B       0.900424     -1.814512      0.064918
  B       1.018293     -0.040845     -0.253018
  B      -0.386826      0.892994     -0.389592
  B      -1.752392      1.716835      0.027756
  B      -1.930654     -1.504996     -0.162021
  B      -0.479595     -0.793637     -0.490417
  B       2.227599     -0.935336      0.423844
12
Coordinates from ORCA-job input E -297.373546508462
  B       2.314805      0.627749      0.514995
  B       1.094806      1.684979      0.273742
  B      -0.365149      2.414522      0.244779
  B      -2.011583      0.124345     -0.219372
  B      -0.630081     -2.371757     -0.036843
  B       0.900994     -1.815371      0.064934
  B       1.017847     -0.040920     -0.251538
  B      -0.386845      0.893312     -0.389567
  B      -1.752445      1.716876      0.027683
  B      -1.930706     -1.504873     -0.162106
  B      -0.479710     -0.793623     -0.489413
  B       2.228066     -0.935238      0.422706
