12
Coordinates from ORCA-job input E -297.373546508462
  B           2.31480506881739      0.62774873725016      0.51499541696626
  B           1.09480610064159      1.68497898386993      0.27374238006536
  B          -0.36514928961025      2.41452216473207      0.24477872894711
  B          -2.01158326510618      0.12434452642767     -0.21937233691336
  B          -0.63008133658609     -2.37175719905662     -0.03684273726884
  B           0.90099397475359     -1.81537129350081      0.06493435152627
  B           1.01784704469228     -0.04092021631831     -0.25153841988893
  B          -0.38684453273274      0.89331219488844     -0.38956698494083
  B          -1.75244460091373      1.71687576364824      0.02768295212833
  B          -1.93070559127532     -1.50487251259132     -0.16210607163800
  B          -0.47970970356023     -0.79362348346798     -0.48941344057315
  B           2.22806613087970     -0.93523766588147      0.42270616158979
