12
B12 distorted_icosahedron_01; neutral charge=0; multiplicity=1; 3D initial geometry; nominal d=3.0 A; Low-symmetry distorted icosahedron variant 01.
B       -0.02820894      -1.41451914      -2.38523437
B        0.04209848      -1.51515694       2.37172987
B        0.04644130       1.45886554      -2.32844904
B       -0.02842912       1.41743103       2.38654831
B       -1.47265385      -2.40625432       0.01262141
B       -1.51609086       2.42446053      -0.03734915
B        1.52522052      -2.30969204       0.01672604
B        1.54193122       2.49813212      -0.01954757
B       -2.36791723      -0.04980804      -1.50335503
B       -2.43860644      -0.04750590       1.52638046
B        2.37094810      -0.02778082      -1.52629689
B        2.32526682      -0.02817202       1.48622594
