12
B12 cuboctahedral_fragment; neutral charge=0; multiplicity=1; 3D initial geometry; nominal d=2.5 A; Cuboctahedron-like 12-vertex 3D structure.
B       -1.76776695      -1.76776695       0.00000000
B       -1.76776695       1.76776695       0.00000000
B        1.76776695      -1.76776695       0.00000000
B        1.76776695       1.76776695       0.00000000
B       -1.76776695       0.00000000      -1.76776695
B       -1.76776695       0.00000000       1.76776695
B        1.76776695       0.00000000      -1.76776695
B        1.76776695       0.00000000       1.76776695
B        0.00000000      -1.76776695      -1.76776695
B        0.00000000      -1.76776695       1.76776695
B        0.00000000       1.76776695      -1.76776695
B        0.00000000       1.76776695       1.76776695
