12
Coordinates from ORCA-job input
  B           0.00000000000000      0.00000000000000      7.04589052000000
  B           5.30972910000000      0.00000000000000      3.22108566000000
  B          -2.65486455000000      4.58976583000000      3.22108566000000
  B          -2.65486455000000     -4.58976583000000      3.22108566000000
  B           3.23983471000000      5.30972910000000     -0.15374216000000
  B          -3.23983471000000      5.30972910000000     -0.15374216000000
  B           3.23983471000000     -5.30972910000000     -0.15374216000000
  B          -3.23983471000000     -5.30972910000000     -0.15374216000000
  B           5.03974288000000      0.00000000000000     -3.57356768000000
  B          -5.03974288000000      0.00000000000000     -3.57356768000000
  B           0.00000000000000      4.40977502000000     -4.47352176000000
  B           0.00000000000000     -4.40977502000000     -4.47352176000000
