12
B12 random_3d_01; neutral charge=0; multiplicity=5; 3d initial geometry; nominal d=2.5 A; Random 3D B12 cloud with controlled minimum distance 01.
B        3.05490247      -1.88841501       2.17381772
B        0.90981538       1.06319632       1.93646310
B        3.95471197      -0.83667445      -1.02948749
B       -3.09795677       4.06109698      -0.67993460
B        2.08956921       0.63771324      -0.62838882
B        0.05376326       3.34121630      -0.66404981
B       -0.29137167      -0.42829146       1.70428059
B       -3.46640060      -3.25581271       3.05353132
B        3.75894126      -2.96474778      -2.00614968
B       -2.82642171      -2.42004964      -2.87134230
B       -0.96141598       1.80453969       0.12032068
B       -3.17813683       0.88622853      -1.10906070
