12
B12 distorted_cage; neutral charge=0; multiplicity=3; 3d initial geometry; nominal d=4.0 A; Anisotropically deformed 3D cage.
B       -0.14277795      -1.81284381      -3.69636292
B       -0.15634324      -1.69955207       3.89003957
B        0.05374024       1.73486470      -3.87773604
B       -0.12584426       1.86396981       3.68904088
B       -1.81876119      -2.99353457      -0.14238569
B       -2.20736906       2.71040121       0.00758324
B        1.99614598      -3.06121170       0.11582454
B        2.58509849       2.69472400       0.08282165
B       -3.63020745       0.16052053      -2.33052488
B       -3.57416784      -0.14889274       2.27205404
B        3.53237634       0.35075982      -2.43325099
B        3.48810993       0.20079483       2.42289659
