12
Coordinates from ORCA-job input E -295.166850358939
  B       4.500000     -0.000000      1.395000
  B       2.250000      3.897114      1.395000
  B      -2.250000      3.897114      1.395000
  B      -4.500000      0.000000      1.395000
  B      -2.250000     -3.897114      1.395000
  B       2.250000     -3.897114      1.395000
  B       3.663287      2.115000     -1.395000
  B       0.000000      4.230000     -1.395000
  B      -3.663287      2.115000     -1.395000
  B      -3.663287     -2.115000     -1.395000
  B      -0.000000     -4.230000     -1.395000
  B       3.663287     -2.115000     -1.395000
12
Coordinates from ORCA-job input E -295.173920767946
  B       4.489274      0.000568      1.372000
  B       2.242806      3.885227      1.369167
  B      -2.242945      3.885372      1.371455
  B      -4.488874      0.000114      1.372345
  B      -2.243345     -3.885237      1.368485
  B       2.243240     -3.885079      1.370867
  B       3.652319      2.109402     -1.373800
  B       0.000589      4.215675     -1.366701
  B      -3.651969      2.108343     -1.371993
  B      -3.652182     -2.108848     -1.373908
  B      -0.001129     -4.217195     -1.366301
  B       3.652216     -2.108341     -1.371616
12
Coordinates from ORCA-job input E -295.181681411658
  B       4.478933      0.001185      1.348837
  B       2.235677      3.873592      1.343245
  B      -2.236033      3.873863      1.347722
  B      -4.478109      0.000220      1.349555
  B      -2.236788     -3.873619      1.341820
  B       2.236640     -3.873244      1.346457
  B       3.641898      2.104150     -1.352444
  B       0.001246      4.201820     -1.338322
  B      -3.641056      2.101977     -1.348769
  B      -3.641611     -2.103018     -1.352684
  B      -0.002368     -4.204946     -1.337436
  B       3.641571     -2.101981     -1.347981
12
Coordinates from ORCA-job input E -295.194753812437
  B       4.461702      0.002126      1.314310
  B       2.224093      3.855222      1.304829
  B      -2.224831      3.855554      1.312377
  B      -4.460267      0.000344      1.315586
  B      -2.226061     -3.855289      1.302277
  B       2.225930     -3.854443      1.310043
  B       3.625413      2.096031     -1.320486
  B       0.002350      4.180576     -1.296482
  B      -3.623723      2.092172     -1.314063
  B      -3.624912     -2.094053     -1.320964
  B      -0.004359     -4.186039     -1.294751
  B       3.624666     -2.092201     -1.312676
12
Coordinates from ORCA-job input E -295.218155135607
  B       4.432837      0.003536      1.262741
  B       2.205161      3.825927      1.248218
  B      -2.206638      3.826164      1.259869
  B      -4.430516      0.000514      1.264866
  B      -2.208423     -3.826101      1.243926
  B       2.208509     -3.824278      1.255785
  B       3.599295      2.083409     -1.272588
  B       0.004187      4.147811     -1.235260
  B      -3.596096      2.077001     -1.262150
  B      -3.598473     -2.080192     -1.273515
  B      -0.007570     -4.156690     -1.232005
  B       3.597726     -2.077101     -1.259886
12
Coordinates from ORCA-job input E -295.248419451972
  B       4.403879      0.005050      1.207855
  B       2.185982      3.796136      1.189971
  B      -2.188534      3.796185      1.204990
  B      -4.400530      0.000807      1.210980
  B      -2.190728     -3.796513      1.183617
  B       2.191253     -3.793292      1.198671
  B       3.574239      2.071317     -1.221821
  B       0.006152      4.115471     -1.172650
  B      -3.568848      2.062081     -1.207076
  B      -3.572987     -2.066712     -1.223403
  B      -0.011145     -4.128220     -1.167298
  B       3.571266     -2.062310     -1.203836
12
Coordinates from ORCA-job input E -295.283863244299
  B       4.374945      0.006416      1.151173
  B       2.167575      3.766564      1.133384
  B      -2.171285      3.765956      1.149651
  B      -4.370460      0.001425      1.155368
  B      -2.173994     -3.767306      1.124771
  B       2.174847     -3.761802      1.140752
  B       3.550817      2.059613     -1.169703
  B       0.007812      4.084461     -1.112284
  B      -3.542418      2.047421     -1.150354
  B      -3.549008     -2.053522     -1.172198
  B      -0.014574     -4.101346     -1.104284
  B       3.545744     -2.047879     -1.146274
12
Coordinates from ORCA-job input E -295.321559467862
  B       4.344166      0.007600      1.094440
  B       2.148368      3.735999      1.078564
  B      -2.153212      3.734212      1.094516
  B      -4.338537      0.002354      1.099754
  B      -2.156475     -3.737207      1.067515
  B       2.157610     -3.728613      1.082705
  B       3.526786      2.047387     -1.117771
  B       0.009038      4.052707     -1.053498
  B      -3.514841      2.032397     -1.093705
  B      -3.524325     -2.039819     -1.121315
  B      -0.017732     -4.073813     -1.042432
  B       3.519153     -2.033204     -1.088773
12
Coordinates from ORCA-job input E -295.361525917651
  B       4.310699      0.008675      1.038060
  B       2.127635      3.703972      1.025149
  B      -2.133742      3.701075      1.040659
  B      -4.303979      0.003458      1.044526
  B      -2.137305     -3.705720      1.011536
  B       2.138996     -3.693902      1.025662
  B       3.501145      2.034327     -1.066348
  B       0.009956      4.019715     -0.996074
  B      -3.485590      2.016839     -1.038198
  B      -3.497930     -2.025364     -1.071024
  B      -0.020740     -4.044980     -0.981635
  B       3.490855     -2.018096     -1.032313
12
Coordinates from ORCA-job input E -295.403908944531
  B       4.273829      0.009580      0.982237
  B       2.105178      3.670204      0.973419
  B      -2.112735      3.666515      0.988542
  B      -4.266123      0.004747      0.989851
  B      -2.116194     -3.672558      0.957156
  B       2.118860     -3.657643      0.970168
  B       3.473304      2.020070     -1.015537
  B       0.010489      3.985308     -0.940479
  B      -3.454321      2.000545     -0.984204
  B      -3.469210     -2.009865     -1.021418
  B      -0.023511     -4.014536     -0.922428
  B       3.460434     -2.002367     -0.977308
12
Coordinates from ORCA-job input E -295.448836121113
  B       4.232867      0.010275      0.927312
  B       2.080856      3.634396      0.923688
  B      -2.090056      3.630457      0.938518
  B      -4.224333      0.006213      0.936012
  B      -2.092912     -3.637420      0.904758
  B       2.097062     -3.619769      0.916681
  B       3.442695      2.004232     -0.965541
  B       0.010569      3.949303     -0.887130
  B      -3.420727      1.983276     -0.932092
  B      -3.437575     -1.993008     -0.972685
  B      -0.025962     -3.982164     -0.865324
  B       3.427516     -1.985791     -0.924195
12
Coordinates from ORCA-job input E -295.496395759034
  B       4.187251      0.010750      0.873751
  B       2.054582      3.596265      0.876266
  B      -2.065568      3.592752      0.890828
  B      -4.178089      0.007817      0.883407
  B      -2.067288     -3.600022      0.854723
  B       2.073456     -3.580145      0.865547
  B       3.408815      1.986433     -0.916676
  B       0.010146      3.911450     -0.836348
  B      -3.384516      1.964768     -0.882224
  B      -3.402511     -1.974472     -0.925120
  B      -0.028034     -3.947474     -0.810746
  B       3.391755     -1.968122     -0.873408
12
Coordinates from ORCA-job input E -295.546668090868
  B       4.136640      0.011025      0.822114
  B       2.026303      3.555585      0.831409
  B      -2.039119      3.553182      0.845599
  B      -4.127069      0.009498      0.832528
  B      -2.039180     -3.560134      0.807370
  B       2.047871     -3.538561      0.816987
  B       3.371289      1.966349     -0.869362
  B       0.009178      3.871419     -0.788292
  B      -3.345452      1.944794     -0.834937
  B      -3.363638     -1.953984     -0.879117
  B      -0.029692     -3.910016     -0.758955
  B       3.352868     -1.949158     -0.825342
12
Coordinates from ORCA-job input E -295.599765278271
  B       4.080936      0.011145      0.772934
  B       1.995992      3.512236      0.789300
  B      -2.010564      3.511503      0.802848
  B      -4.071184      0.011182      0.783868
  B      -2.008492     -3.517634      0.762937
  B       2.020145     -3.494790      0.771106
  B       3.329912      1.943760     -0.824033
  B       0.007646      3.828867     -0.742987
  B      -3.303380      1.923218     -0.790510
  B      -3.320750     -1.931354     -0.835079
  B      -0.030927     -3.869347     -0.710083
  B       3.310666     -1.928786     -0.780302
12
Coordinates from ORCA-job input E -295.655877331631
  B       4.020306      0.011170      0.726612
  B       1.963684      3.466248      0.750017
  B      -1.979807      3.467518      0.762531
  B      -4.010599      0.012781      0.737825
  B      -1.975213     -3.472545      0.721527
  B       1.990158     -3.448664      0.727934
  B       3.284680      1.918575     -0.781047
  B       0.005547      3.783513     -0.700362
  B      -3.258262      1.900014     -0.749110
  B      -3.273839     -1.906500     -0.793326
  B      -0.031751     -3.825123     -0.664150
  B       3.265096     -1.906987     -0.738449
12
Coordinates from ORCA-job input E -295.715319600368
  B       3.955154      0.011162      0.683352
  B       1.929472      3.417812      0.713501
  B      -1.946880      3.421171      0.724587
  B      -3.945720      0.014200      0.694634
  B      -1.939393     -3.425041      0.683048
  B       1.957910     -3.400162      0.687452
  B       3.235796      1.890841     -0.740635
  B       0.002926      3.735240     -0.660299
  B      -3.210211      1.875291     -0.710763
  B      -3.223088     -1.879460     -0.754037
  B      -0.032225     -3.777197     -0.621074
  B       3.216261     -1.883857     -0.699767
12
Coordinates from ORCA-job input E -295.778704596947
  B       3.886117      0.011190      0.643190
  B       1.893487      3.367278      0.679497
  B      -1.911996      3.372617      0.688992
  B      -3.877186      0.015309      0.654371
  B      -1.901092     -3.375422      0.647115
  B       1.923576     -3.349495      0.649632
  B       3.183621      1.860767     -0.702900
  B      -0.000078      3.684153     -0.622632
  B      -3.159497      1.849325     -0.675349
  B      -3.168799     -1.850425     -0.717218
  B      -0.032540     -3.725642     -0.580632
  B       3.164388     -1.859653     -0.664065
12
Coordinates from ORCA-job input E -295.848658943101
  B       3.814472      0.011630      0.605987
  B       1.856028      3.315203      0.647067
  B      -1.875992      3.322684      0.656135
  B      -3.806145      0.015644      0.616825
  B      -1.860452     -3.323966      0.612309
  B       1.887966     -3.297635      0.614836
  B       3.128491      1.828974     -0.667677
  B      -0.002816      3.630817     -0.587055
  B      -3.106749      1.822877     -0.642657
  B      -3.111128     -1.820087     -0.682415
  B      -0.033607     -3.670959     -0.542225
  B       3.109930     -1.835183     -0.631129
12
Coordinates from ORCA-job input E -295.927127747982
  B       3.742519      0.012870      0.570997
  B       1.818588      3.261956      0.615132
  B      -1.841254      3.272915      0.626114
  B      -3.734869      0.014759      0.581386
  B      -1.819800     -3.271061      0.577776
  B       1.853045     -3.245610      0.581873
  B       3.071923      1.797391     -0.633843
  B      -0.003771      3.576707     -0.553161
  B      -3.053343      1.797110     -0.612446
  B      -3.051466     -1.790644     -0.648747
  B      -0.035921     -3.614876     -0.504695
  B       3.054347     -1.811517     -0.600387
12
Coordinates from ORCA-job input E -296.012185425621
  B       3.671663      0.013829      0.538968
  B       1.781800      3.207870      0.584597
  B      -1.807026      3.221133      0.595639
  B      -3.664670      0.013432      0.549168
  B      -1.779531     -3.218087      0.545968
  B       1.817464     -3.191400      0.548641
  B       3.015746      1.767256     -0.601804
  B      -0.003668      3.521764     -0.519857
  B      -2.998727      1.772048     -0.583982
  B      -2.992086     -1.762912     -0.617597
  B      -0.038713     -3.557222     -0.468269
  B       2.997749     -1.787711     -0.571472
12
Coordinates from ORCA-job input E -296.099769095677
  B       3.600292      0.013580      0.510361
  B       1.744207      3.152879      0.555587
  B      -1.770609      3.165991      0.563754
  B      -3.594353      0.012871      0.520067
  B      -1.739209     -3.164340      0.517545
  B       1.780478     -3.135452      0.517123
  B       2.958739      1.739233     -0.572024
  B      -0.003544      3.465088     -0.487003
  B      -2.941762      1.746372     -0.556398
  B      -2.932822     -1.736046     -0.588877
  B      -0.041288     -3.497445     -0.435234
  B       2.939872     -1.762730     -0.544900
12
Coordinates from ORCA-job input E -296.187605927311
  B       3.525737      0.013052      0.484478
  B       1.704969      3.094480      0.528521
  B      -1.732131      3.107391      0.533641
  B      -3.521373      0.012834      0.493665
  B      -1.698570     -3.107292      0.491898
  B       1.742220     -3.076785      0.488201
  B       2.898514      1.709990     -0.544286
  B      -0.003681      3.404308     -0.456867
  B      -2.881644      1.719133     -0.530693
  B      -2.871161     -1.707594     -0.562006
  B      -0.042561     -3.433847     -0.406100
  B       2.879682     -1.735670     -0.520451
12
Coordinates from ORCA-job input E -296.273935641193
  B       3.448570      0.012723      0.460471
  B       1.665205      3.032620      0.503259
  B      -1.692907      3.045437      0.505343
  B      -3.446017      0.013031      0.469094
  B      -1.659284     -3.046856      0.468865
  B       1.703764     -3.015809      0.461681
  B       2.835760      1.679229     -0.517846
  B      -0.004009      3.339781     -0.429603
  B      -2.819116      1.690298     -0.506501
  B      -2.807837     -1.677077     -0.536222
  B      -0.042367     -3.367115     -0.380754
  B       2.818238     -1.706262     -0.497789
12
Coordinates from ORCA-job input E -296.369680360980
  B       3.380730      0.013018      0.426674
  B       1.632659      2.973439      0.471490
  B      -1.659440      2.985523      0.469371
  B      -3.379616      0.012898      0.434848
  B      -1.630770     -2.989605      0.439949
  B       1.670068     -2.957839      0.426999
  B       2.781872      1.652284     -0.483328
  B      -0.004499      3.278852     -0.394336
  B      -2.764344      1.663053     -0.474375
  B      -2.753543     -1.648767     -0.502547
  B      -0.040120     -3.305181     -0.346984
  B       2.767001     -1.677675     -0.467760
12
Coordinates from ORCA-job input E -296.459783415473
  B       3.313375      0.012794      0.394282
  B       1.601285      2.914184      0.441420
  B      -1.626024      2.925372      0.435438
  B      -3.313457      0.012322      0.402102
  B      -1.604709     -2.931246      0.412412
  B       1.635366     -2.899486      0.393580
  B       2.728071      1.625740     -0.450719
  B      -0.005234      3.216457     -0.361149
  B      -2.709484      1.635050     -0.443710
  B      -2.699271     -1.621204     -0.469991
  B      -0.035787     -3.241634     -0.315046
  B       2.715871     -1.648349     -0.438619
12
Coordinates from ORCA-job input E -296.559034093273
  B       3.244517      0.011787      0.364271
  B       1.572035      2.851646      0.412985
  B      -1.593918      2.862237      0.403504
  B      -3.246293      0.012201      0.371950
  B      -1.581980     -2.869837      0.386927
  B       1.601713     -2.838977      0.362288
  B       2.672562      1.598882     -0.419572
  B      -0.005967      3.150540     -0.331666
  B      -2.653437      1.606176     -0.414309
  B      -2.644571     -1.593053     -0.438730
  B      -0.029224     -3.175031     -0.286957
  B       2.664563     -1.616571     -0.410692
12
Coordinates from ORCA-job input E -296.637975681553
  B       3.174700      0.001971      0.328838
  B       1.548358      2.785791      0.388636
  B      -1.565217      2.799766      0.376414
  B      -3.181097      0.008723      0.343355
  B      -1.554600     -2.807760      0.360155
  B       1.569794     -2.773790      0.339161
  B       2.620806      1.561751     -0.391507
  B      -0.007620      3.085079     -0.305387
  B      -2.602465      1.575957     -0.387678
  B      -2.591846     -1.564588     -0.410747
  B      -0.032322     -3.105220     -0.260106
  B       2.621509     -1.567679     -0.381133
12
Coordinates from ORCA-job input E -296.720080455587
  B       3.104561     -0.006186      0.296279
  B       1.529192      2.718750      0.365703
  B      -1.540616      2.736030      0.350962
  B      -3.115708      0.004479      0.315456
  B      -1.536829     -2.740590      0.337084
  B       1.540765     -2.709530      0.314980
  B       2.570351      1.524878     -0.363079
  B      -0.007606      3.018542     -0.282725
  B      -2.553525      1.542471     -0.362439
  B      -2.541496     -1.535055     -0.381581
  B      -0.026518     -3.033809     -0.237427
  B       2.577429     -1.519980     -0.353212
12
Coordinates from ORCA-job input E -296.775415454061
  B       3.038040     -0.016183      0.265557
  B       1.511607      2.659306      0.346035
  B      -1.519920      2.679373      0.330005
  B      -3.053846      0.000467      0.281296
  B      -1.516329     -2.676073      0.321419
  B       1.507839     -2.652585      0.287511
  B       2.524369      1.488073     -0.336773
  B      -0.006640      2.959331     -0.260560
  B      -2.515933      1.497386     -0.340411
  B      -2.499129     -1.488463     -0.351507
  B      -0.000474     -2.966930     -0.214601
  B       2.530416     -1.483701     -0.327971
12
Coordinates from ORCA-job input E -296.814705240226
  B       2.983817     -0.012379      0.237500
  B       1.498054      2.606902      0.323297
  B      -1.506784      2.625941      0.306129
  B      -2.998741     -0.001600      0.250529
  B      -1.495043     -2.627834      0.298428
  B       1.502188     -2.594932      0.264234
  B       2.486380      1.458246     -0.308470
  B      -0.004388      2.904427     -0.238878
  B      -2.479503      1.463800     -0.314722
  B      -2.462342     -1.450891     -0.322244
  B      -0.014774     -2.911465     -0.193463
  B       2.491134     -1.460215     -0.302339
12
Coordinates from ORCA-job input E -296.837995405259
  B       2.945217     -0.021557      0.208062
  B       1.489448      2.574578      0.302281
  B      -1.494750      2.599551      0.282461
  B      -2.966770      0.002940      0.223412
  B      -1.499541     -2.589043      0.279593
  B       1.469544     -2.580221      0.241294
  B       2.459405      1.440254     -0.283031
  B      -0.004846      2.872322     -0.215260
  B      -2.459032      1.443159     -0.292261
  B      -2.435644     -1.437932     -0.293931
  B       0.019714     -2.879120     -0.171121
  B       2.477254     -1.424931     -0.281499
12
Coordinates from ORCA-job input E -296.856154782058
  B       2.930030     -0.003625      0.185914
  B       1.487131      2.566407      0.283586
  B      -1.497899      2.588677      0.261302
  B      -2.952428     -0.002570      0.196728
  B      -1.481787     -2.588663      0.261040
  B       1.497994     -2.557424      0.220158
  B       2.456406      1.427554     -0.258504
  B      -0.002937      2.860029     -0.194238
  B      -2.453389      1.433564     -0.271851
  B      -2.434357     -1.411587     -0.270873
  B      -0.009546     -2.866168     -0.151787
  B       2.460783     -1.446194     -0.261473
12
Coordinates from ORCA-job input E -296.871789746491
  B       2.941755     -0.023227      0.167903
  B       1.495578      2.587006      0.263035
  B      -1.508293      2.612099      0.242132
  B      -2.965440      0.008983      0.180087
  B      -1.486525     -2.608338      0.238922
  B       1.500223     -2.587609      0.205517
  B       2.456163      1.454526     -0.241444
  B      -0.005202      2.880247     -0.175058
  B      -2.465842      1.449813     -0.252238
  B      -2.433225     -1.433660     -0.251865
  B      -0.012523     -2.886644     -0.133421
  B       2.483332     -1.453195     -0.243570
12
Coordinates from ORCA-job input E -296.883885770396
  B       2.955190     -0.008483      0.145635
  B       1.498665      2.611410      0.252441
  B      -1.523029      2.637102      0.223196
  B      -2.988831     -0.000776      0.161908
  B      -1.509559     -2.617098      0.226372
  B       1.501457     -2.618633      0.188103
  B       2.486410      1.435807     -0.222976
  B      -0.004509      2.902490     -0.156068
  B      -2.483277      1.464734     -0.238834
  B      -2.453927     -1.442032     -0.230852
  B       0.020449     -2.903346     -0.117034
  B       2.500960     -1.461174     -0.231891
12
Coordinates from ORCA-job input E -296.895435935523
  B       2.959915     -0.024564      0.130183
  B       1.519332      2.617910      0.234888
  B      -1.525048      2.664279      0.206355
  B      -3.001826      0.001774      0.141889
  B      -1.502004     -2.635048      0.212155
  B       1.521600     -2.636607      0.170768
  B       2.483408      1.457287     -0.204103
  B      -0.022155      2.917111     -0.139621
  B      -2.502084      1.463507     -0.223063
  B      -2.468785     -1.427992     -0.213399
  B       0.024877     -2.916231     -0.101282
  B       2.512770     -1.481425     -0.214772
12
Coordinates from ORCA-job input E -296.903394749837
  B       2.961470     -0.034441      0.118263
  B       1.504616      2.634237      0.213348
  B      -1.559406      2.668407      0.192252
  B      -3.004606      0.024914      0.130838
  B      -1.492742     -2.641574      0.189094
  B       1.545526     -2.650355      0.159058
  B       2.476745      1.462233     -0.189887
  B       0.005640      2.923556     -0.127274
  B      -2.512116      1.481908     -0.201426
  B      -2.450646     -1.443915     -0.197161
  B       0.002353     -2.923464     -0.090900
  B       2.523166     -1.501506     -0.196205
12
Coordinates from ORCA-job input E -296.913035648769
  B       2.960394     -0.020932      0.102238
  B       1.510543      2.644597      0.201317
  B      -1.547686      2.692940      0.171706
  B      -3.004961      0.013830      0.117410
  B      -1.495980     -2.649149      0.173352
  B       1.538114     -2.681572      0.145057
  B       2.481192      1.462191     -0.171238
  B      -0.023764      2.935300     -0.112224
  B      -2.504635      1.494076     -0.187917
  B      -2.449198     -1.448885     -0.176996
  B       0.004588     -2.937132     -0.078077
  B       2.531394     -1.505264     -0.184631
12
Coordinates from ORCA-job input E -296.918633715003
  B       2.952516     -0.045099      0.090225
  B       1.511282      2.646219      0.184357
  B      -1.560146      2.712227      0.160457
  B      -3.019323      0.014886      0.101708
  B      -1.497475     -2.645966      0.162825
  B       1.556418     -2.691255      0.129469
  B       2.475585      1.451502     -0.156990
  B      -0.015337      2.942573     -0.100384
  B      -2.529587      1.486019     -0.173103
  B      -2.471531     -1.416759     -0.161844
  B       0.057615     -2.938476     -0.069775
  B       2.539983     -1.515870     -0.166947
12
Coordinates from ORCA-job input E -296.925756494476
  B       2.947467     -0.039256      0.080758
  B       1.512136      2.648315      0.168327
  B      -1.569285      2.728912      0.143223
  B      -3.019391      0.031745      0.094298
  B      -1.499185     -2.636968      0.143222
  B       1.577541     -2.708134      0.115932
  B       2.472864      1.446884     -0.140242
  B      -0.032217      2.948824     -0.091189
  B      -2.535199      1.497213     -0.155799
  B      -2.451524     -1.433586     -0.143703
  B       0.054776     -2.942519     -0.064418
  B       2.542015     -1.541429     -0.150408
12
Coordinates from ORCA-job input E -296.927040034985
  B       2.945645     -0.025326      0.071975
  B       1.488843      2.666567      0.154830
  B      -1.585841      2.731903      0.127266
  B      -3.009579      0.013926      0.088209
  B      -1.464738     -2.652372      0.127214
  B       1.568960     -2.752585      0.107945
  B       2.462786      1.456652     -0.127770
  B      -0.027136      2.956373     -0.082392
  B      -2.509166      1.543720     -0.141582
  B      -2.439354     -1.426659     -0.129955
  B       0.014047     -2.966205     -0.054892
  B       2.555534     -1.545995     -0.140848
12
Coordinates from ORCA-job input E -296.933723295622
  B       2.939645     -0.034768      0.064913
  B       1.490404      2.671448      0.143213
  B      -1.575877      2.763110      0.121701
  B      -3.018059      0.031606      0.079116
  B      -1.473337     -2.647555      0.117685
  B       1.581432     -2.760008      0.098686
  B       2.463221      1.445172     -0.119235
  B      -0.027593      2.970765     -0.074267
  B      -2.540525      1.511931     -0.132026
  B      -2.438717     -1.427486     -0.120271
  B       0.039307     -2.969121     -0.051233
  B       2.560099     -1.555093     -0.128282
12
Coordinates from ORCA-job input E -296.933145920104
  B       2.934353     -0.063383      0.065707
  B       1.517155      2.648883      0.136653
  B      -1.608890      2.759522      0.112872
  B      -3.026370      0.033003      0.079973
  B      -1.486095     -2.623362      0.112390
  B       1.605606     -2.744941      0.088531
  B       2.461263      1.442986     -0.110463
  B      -0.050561      2.967312     -0.077602
  B      -2.550363      1.538310     -0.124197
  B      -2.445330     -1.419249     -0.110637
  B       0.091665     -2.960310     -0.055727
  B       2.557566     -1.578770     -0.117498
12
Coordinates from ORCA-job input E -296.938983230843
  B       2.931012     -0.059047      0.058449
  B       1.490075      2.661473      0.126299
  B      -1.605821      2.772218      0.104567
  B      -3.022715      0.050723      0.073452
  B      -1.462167     -2.631117      0.101198
  B       1.609082     -2.775882      0.082750
  B       2.457193      1.430721     -0.103522
  B      -0.054028      2.975779     -0.069381
  B      -2.554700      1.539008     -0.113434
  B      -2.435116     -1.407252     -0.103003
  B       0.074110     -2.977298     -0.049429
  B       2.573075     -1.579326     -0.107947
12
Coordinates from ORCA-job input E -296.940288641671
  B       2.913599     -0.044563      0.056204
  B       1.487894      2.661745      0.114928
  B      -1.586850      2.790389      0.100603
  B      -3.019304      0.017096      0.071707
  B      -1.454219     -2.623624      0.090889
  B       1.598479     -2.784422      0.077377
  B       2.443760      1.446622     -0.096309
  B      -0.020996      2.989547     -0.066414
  B      -2.558084      1.532972     -0.107315
  B      -2.427988     -1.422391     -0.094666
  B       0.056633     -2.984495     -0.048737
  B       2.567076     -1.578877     -0.098267
12
Coordinates from ORCA-job input E -296.944565642890
  B       2.904563     -0.063007      0.051849
  B       1.470589      2.655244      0.101951
  B      -1.606839      2.792974      0.088675
  B      -3.014004      0.051872      0.068392
  B      -1.423509     -2.610977      0.077656
  B       1.610684     -2.806643      0.066103
  B       2.438510      1.429601     -0.085867
  B      -0.050582      2.999617     -0.063587
  B      -2.573060      1.554186     -0.091930
  B      -2.414579     -1.398962     -0.084070
  B       0.078671     -3.002014     -0.047065
  B       2.579556     -1.601890     -0.082107
12
Coordinates from ORCA-job input E -296.946508002995
  B       2.907224     -0.081493      0.050670
  B       1.453061      2.642286      0.092981
  B      -1.611896      2.783168      0.083105
  B      -3.012782      0.064309      0.068880
  B      -1.429381     -2.585047      0.068861
  B       1.640972     -2.811765      0.060879
  B       2.441475      1.417479     -0.081442
  B      -0.071069      3.007266     -0.063695
  B      -2.587968      1.570867     -0.082875
  B      -2.425450     -1.381219     -0.078012
  B       0.086983     -3.019807     -0.049824
  B       2.608830     -1.606046     -0.069530
12
Coordinates from ORCA-job input E -296.949849860807
  B       2.887974     -0.085521      0.048293
  B       1.459794      2.614735      0.078416
  B      -1.627385      2.785421      0.076644
  B      -3.014128      0.077516      0.068695
  B      -1.390044     -2.565733      0.054888
  B       1.639959     -2.818092      0.052275
  B       2.445607      1.406581     -0.072244
  B      -0.072711      3.038242     -0.065112
  B      -2.630985      1.593167     -0.068206
  B      -2.421806     -1.378004     -0.071736
  B       0.106899     -3.047922     -0.049346
  B       2.616824     -1.620390     -0.052565
12
Coordinates from ORCA-job input E -296.951957321342
  B       2.858501     -0.110888      0.045190
  B       1.417605      2.623860      0.064144
  B      -1.612715      2.796773      0.070241
  B      -2.984054      0.077161      0.066353
  B      -1.339254     -2.542507      0.040755
  B       1.627934     -2.834792      0.044312
  B       2.430344      1.410919     -0.067467
  B      -0.080816      3.083629     -0.061478
  B      -2.650309      1.616947     -0.054149
  B      -2.396468     -1.380083     -0.066164
  B       0.122668     -3.077103     -0.046757
  B       2.606564     -1.663918     -0.034979
12
Coordinates from ORCA-job input E -296.953970775166
  B       2.850891     -0.088743      0.041581
  B       1.404955      2.600553      0.048917
  B      -1.608642      2.770308      0.062516
  B      -2.967904      0.094043      0.060979
  B      -1.341447     -2.515563      0.028222
  B       1.637770     -2.859371      0.034986
  B       2.423400      1.424391     -0.059790
  B      -0.075179      3.088764     -0.057585
  B      -2.665243      1.616801     -0.037918
  B      -2.405602     -1.361821     -0.060498
  B       0.112932     -3.107970     -0.042187
  B       2.634068     -1.661391     -0.019222
12
Coordinates from ORCA-job input E -296.954933382671
  B       2.843538     -0.112582      0.038168
  B       1.412985      2.577131      0.037813
  B      -1.615972      2.785373      0.053304
  B      -2.986303      0.088411      0.055876
  B      -1.324639     -2.509623      0.019343
  B       1.662440     -2.844604      0.024610
  B       2.437412      1.388677     -0.052968
  B      -0.074372      3.112188     -0.052053
  B      -2.701462      1.643269     -0.025192
  B      -2.413397     -1.375432     -0.055185
  B       0.118067     -3.110834     -0.036185
  B       2.641704     -1.641975     -0.007529
12
Coordinates from ORCA-job input E -296.956283655337
  B       2.833054     -0.116007      0.034458
  B       1.395720      2.588466      0.028709
  B      -1.618523      2.783363      0.046525
  B      -2.965550      0.094324      0.049928
  B      -1.308429     -2.493470      0.012366
  B       1.653706     -2.866386      0.016035
  B       2.428109      1.400480     -0.048065
  B      -0.082419      3.125338     -0.046768
  B      -2.700181      1.642235     -0.014967
  B      -2.398162     -1.365871     -0.050133
  B       0.125986     -3.120891     -0.030855
  B       2.636689     -1.671581      0.002766
12
Coordinates from ORCA-job input E -296.956665401513
  B       2.816790     -0.108934      0.030867
  B       1.383736      2.584459      0.021451
  B      -1.603693      2.790888      0.038451
  B      -2.964943      0.106893      0.043683
  B      -1.303072     -2.504011      0.008146
  B       1.664436     -2.877013      0.005711
  B       2.402017      1.400368     -0.041278
  B      -0.077674      3.114692     -0.040606
  B      -2.687212      1.653292     -0.007284
  B      -2.396458     -1.366954     -0.044196
  B       0.139512     -3.124353     -0.024872
  B       2.626563     -1.669330      0.009928
12
Coordinates from ORCA-job input E -296.957561402192
  B       2.828140     -0.113557      0.027149
  B       1.395332      2.597822      0.013439
  B      -1.617688      2.789304      0.028609
  B      -2.958600      0.097285      0.035573
  B      -1.307570     -2.496638      0.004363
  B       1.659134     -2.888917     -0.006877
  B       2.405801      1.399529     -0.033212
  B      -0.081732      3.115148     -0.033048
  B      -2.683966      1.634924      0.000633
  B      -2.387298     -1.362195     -0.036136
  B       0.131781     -3.102227     -0.017451
  B       2.616666     -1.670479      0.016959
12
Coordinates from ORCA-job input E -296.958043191706
  B       2.834008     -0.117144      0.022122
  B       1.401742      2.602553      0.003888
  B      -1.623337      2.796632      0.019433
  B      -2.966436      0.096237      0.026890
  B      -1.310334     -2.499060     -0.001463
  B       1.672704     -2.898158     -0.018096
  B       2.407478      1.394810     -0.026099
  B      -0.082678      3.122702     -0.024427
  B      -2.691068      1.641362      0.010833
  B      -2.396213     -1.365441     -0.029821
  B       0.138348     -3.101758     -0.008928
  B       2.615787     -1.672736      0.025668
12
Coordinates from ORCA-job input E -296.958255917072
  B       2.834038     -0.115523      0.017623
  B       1.404475      2.605838     -0.003759
  B      -1.619749      2.795991      0.011207
  B      -2.966250      0.094862      0.019190
  B      -1.313078     -2.502435     -0.005954
  B       1.675138     -2.901090     -0.027618
  B       2.403001      1.393179     -0.019263
  B      -0.080191      3.117623     -0.016801
  B      -2.683585      1.638437      0.018442
  B      -2.399590     -1.369877     -0.023136
  B       0.140807     -3.090154     -0.002110
  B       2.604985     -1.666851      0.032179
12
Coordinates from ORCA-job input E -296.958315056942
  B       2.837955     -0.111937      0.014667
  B       1.409762      2.609426     -0.006018
  B      -1.615707      2.791736      0.008968
  B      -2.968462      0.091376      0.015376
  B      -1.319344     -2.506714     -0.007417
  B       1.674100     -2.898376     -0.029446
  B       2.407997      1.397272     -0.016991
  B      -0.076492      3.115572     -0.012960
  B      -2.679756      1.634315      0.020255
  B      -2.409360     -1.376807     -0.020750
  B       0.139431     -3.083948      0.001046
  B       2.599876     -1.661914      0.033269
12
Coordinates from ORCA-job input E -296.958407050967
  B       2.848039     -0.102341      0.009975
  B       1.421561      2.615953     -0.006844
  B      -1.605375      2.778437      0.008449
  B      -2.973564      0.082222      0.010437
  B      -1.335148     -2.515616     -0.008135
  B       1.667090     -2.885977     -0.028053
  B       2.425138      1.408483     -0.015073
  B      -0.067989      3.110401     -0.008062
  B      -2.671452      1.623093      0.019628
  B      -2.432721     -1.393157     -0.018386
  B       0.132508     -3.072135      0.004576
  B       2.591913     -1.649363      0.031489
12
Coordinates from ORCA-job input E -296.958518946858
  B       2.866973     -0.084739      0.003728
  B       1.442100      2.626477     -0.004801
  B      -1.586987      2.753142      0.010706
  B      -2.983068      0.065478      0.005145
  B      -1.363255     -2.530872     -0.007251
  B       1.650664     -2.860037     -0.021905
  B       2.458855      1.430031     -0.013989
  B      -0.053508      3.101494     -0.002940
  B      -2.657667      1.601959      0.014799
  B      -2.472839     -1.420972     -0.016321
  B       0.116761     -3.054738      0.007531
  B       2.581971     -1.627222      0.025297
12
Coordinates from ORCA-job input E -296.958584998398
  B       2.882419     -0.070741      0.000183
  B       1.457778      2.633176     -0.001177
  B      -1.572583      2.731620      0.014062
  B      -2.991631      0.051958      0.003135
  B      -1.385233     -2.541742     -0.005288
  B       1.634613     -2.834963     -0.015317
  B       2.487297      1.446992     -0.014437
  B      -0.042504      3.094021     -0.001065
  B      -2.647296      1.584261      0.009065
  B      -2.502666     -1.441055     -0.016036
  B       0.102092     -3.043917      0.008061
  B       2.577713     -1.609608      0.018816
12
Coordinates from ORCA-job input E -296.958626542830
  B       2.894230     -0.060893     -0.001661
  B       1.468856      2.637476      0.002270
  B      -1.562694      2.716236      0.016511
  B      -2.999570      0.042500      0.002736
  B      -1.400662     -2.549536     -0.003369
  B       1.620931     -2.813786     -0.010495
  B       2.507622      1.458978     -0.014837
  B      -0.035151      3.088164     -0.000713
  B      -2.639911      1.571178      0.004223
  B      -2.521666     -1.453622     -0.015928
  B       0.090122     -3.039168      0.007643
  B       2.577893     -1.597528      0.013619
12
Coordinates from ORCA-job input E -296.958663696400
  B       2.905015     -0.053061     -0.003032
  B       1.478111      2.640770      0.005125
  B      -1.555015      2.703831      0.017424
  B      -3.008487      0.034985      0.002633
  B      -1.413325     -2.556469     -0.001888
  B       1.608033     -2.792825     -0.007507
  B       2.523472      1.467940     -0.014105
  B      -0.029232      3.082165     -0.000615
  B      -2.633501      1.559971      0.000220
  B      -2.535248     -1.462051     -0.014727
  B       0.079482     -3.037460      0.007102
  B       2.580695     -1.587797      0.009369
12
Coordinates from ORCA-job input E -296.958703522001
  B       2.916492     -0.046492     -0.004479
  B       1.486667      2.643800      0.007241
  B      -1.548647      2.693380      0.016281
  B      -3.018999      0.028754      0.002298
  B      -1.424712     -2.563993     -0.001026
  B       1.594624     -2.770326     -0.006581
  B       2.535919      1.474893     -0.011459
  B      -0.024108      3.075450     -0.000287
  B      -2.627450      1.549740     -0.003024
  B      -2.544791     -1.467646     -0.011561
  B       0.069156     -3.038230      0.006707
  B       2.585850     -1.579329      0.005889
12
Coordinates from ORCA-job input E -296.958730313840
  B       2.923350     -0.044747     -0.005480
  B       1.489885      2.644835      0.007336
  B      -1.547189      2.690391      0.013487
  B      -3.025293      0.027155      0.001737
  B      -1.429101     -2.568413     -0.001459
  B       1.587945     -2.757920     -0.008253
  B       2.538173      1.475552     -0.008047
  B      -0.022447      3.071331      0.000317
  B      -2.625355      1.546146     -0.003692
  B      -2.545188     -1.467317     -0.007828
  B       0.064781     -3.040632      0.006797
  B       2.590439     -1.576381      0.005086
12
Coordinates from ORCA-job input E -296.958743351549
  B       2.925806     -0.046191     -0.005928
  B       1.488743      2.644133      0.006341
  B      -1.548950      2.692629      0.010877
  B      -3.025957      0.028765      0.001267
  B      -1.428310     -2.569868     -0.002455
  B       1.587601     -2.756181     -0.010529
  B       2.533965      1.472546     -0.005549
  B      -0.023412      3.070402      0.000880
  B      -2.626842      1.548139     -0.002732
  B      -2.540598     -1.464253     -0.005228
  B       0.065163     -3.042771      0.007087
  B       2.592791     -1.577349      0.005969
12
Coordinates from ORCA-job input E -296.958750384005
  B       2.927837     -0.047359     -0.006130
  B       1.487178      2.642975      0.005748
  B      -1.550536      2.694570      0.009356
  B      -3.024321      0.030214      0.001086
  B      -1.427682     -2.570791     -0.003087
  B       1.588226     -2.756546     -0.011669
  B       2.530808      1.470028     -0.004154
  B      -0.024480      3.070311      0.001148
  B      -2.629032      1.550681     -0.002073
  B      -2.537518     -1.462518     -0.003814
  B       0.065866     -3.043515      0.007139
  B       2.593654     -1.578050      0.006450
12
Coordinates from ORCA-job input E -296.958759729695
  B       2.933165     -0.047727     -0.006505
  B       1.485903      2.641062      0.005750
  B      -1.551860      2.695478      0.007853
  B      -3.021491      0.031259      0.001058
  B      -1.429229     -2.573543     -0.003492
  B       1.587603     -2.754448     -0.011987
  B       2.529334      1.467724     -0.002512
  B      -0.025238      3.069386      0.001309
  B      -2.631949      1.553342     -0.002116
  B      -2.536102     -1.462221     -0.002121
  B       0.065409     -3.043188      0.006842
  B       2.594456     -1.577123      0.005920
12
Coordinates from ORCA-job input E -296.958769252915
  B       2.941612     -0.047296     -0.006736
  B       1.484520      2.637760      0.006594
  B      -1.553224      2.695761      0.006671
  B      -3.017181      0.031988      0.001598
  B      -1.432484     -2.577730     -0.003484
  B       1.585011     -2.749512     -0.011129
  B       2.529718      1.465769     -0.000912
  B      -0.026174      3.067738      0.000978
  B      -2.635651      1.556138     -0.003095
  B      -2.535501     -1.462954     -0.000477
  B       0.063513     -3.042616      0.005828
  B       2.595843     -1.575047      0.004165
12
Coordinates from ORCA-job input E -296.958774504858
  B       2.946757     -0.046491     -0.006673
  B       1.484028      2.635454      0.007627
  B      -1.553907      2.695530      0.006771
  B      -3.015048      0.031790      0.002232
  B      -1.435217     -2.580279     -0.003041
  B       1.582731     -2.745311     -0.009649
  B       2.532199      1.465646     -0.000554
  B      -0.026452      3.066335      0.000451
  B      -2.636912      1.556710     -0.004315
  B      -2.536685     -1.464263     -0.000135
  B       0.061792     -3.041857      0.004888
  B       2.596712     -1.573265      0.002398
