12
Coordinates from ORCA-job input E -296.958774504858
  B           2.94675718202535     -0.04649054762768     -0.00667265044318
  B           1.48402829385439      2.63545391236944      0.00762677377638
  B          -1.55390666833940      2.69552968671005      0.00677060768996
  B          -3.01504786550760      0.03179046023025      0.00223161675513
  B          -1.43521696190352     -2.58027914393215     -0.00304145322355
  B           1.58273097120630     -2.74531079860557     -0.00964867543542
  B           2.53219941592382      1.46564619271563     -0.00055361051680
  B          -0.02645165905350      3.06633459317045      0.00045101316326
  B          -2.63691189539451      1.55671042542804     -0.00431494305313
  B          -2.53668521057053     -1.46426275410293     -0.00013545098932
  B           0.06179206268759     -3.04185716142991      0.00488827742994
  B           2.59671233507160     -1.57326486492564      0.00239849484675
