12
Optimized coordinates extracted from calculations\B12\bilayer_3d\d_4.5\mult_5\output.out
B        2.94675718      -0.04649055      -0.00667265
B        1.48402829       2.63545391       0.00762677
B       -1.55390667       2.69552969       0.00677061
B       -3.01504787       0.03179046       0.00223162
B       -1.43521696      -2.58027914      -0.00304145
B        1.58273097      -2.74531080      -0.00964868
B        2.53219942       1.46564619      -0.00055361
B       -0.02645166       3.06633459       0.00045101
B       -2.63691190       1.55671043      -0.00431494
B       -2.53668521      -1.46426275      -0.00013545
B        0.06179206      -3.04185716       0.00488828
B        2.59671234      -1.57326486       0.00239849
