12
B12 bilayer_3d; neutral charge=0; multiplicity=5; 3d initial geometry; nominal d=4.5 A; Two staggered non-planar B6 layers.
B        4.50000000      -0.00000000       1.39500000
B        2.25000000       3.89711432       1.39500000
B       -2.25000000       3.89711432       1.39500000
B       -4.50000000       0.00000000       1.39500000
B       -2.25000000      -3.89711432       1.39500000
B        2.25000000      -3.89711432       1.39500000
B        3.66328746       2.11500000      -1.39500000
B        0.00000000       4.23000000      -1.39500000
B       -3.66328746       2.11500000      -1.39500000
B       -3.66328746      -2.11500000      -1.39500000
B       -0.00000000      -4.23000000      -1.39500000
B        3.66328746      -2.11500000      -1.39500000
