12
Coordinates from ORCA-job input E -295.812826894556
  B       3.000000     -0.000000      0.930000
  B       1.500000      2.598076      0.930000
  B      -1.500000      2.598076      0.930000
  B      -3.000000      0.000000      0.930000
  B      -1.500000     -2.598076      0.930000
  B       1.500000     -2.598076      0.930000
  B       2.442192      1.410000     -0.930000
  B       0.000000      2.820000     -0.930000
  B      -2.442192      1.410000     -0.930000
  B      -2.442192     -1.410000     -0.930000
  B      -0.000000     -2.820000     -0.930000
  B       2.442192     -1.410000     -0.930000
12
Coordinates from ORCA-job input E -295.846184585107
  B       2.976615      0.001918      0.912567
  B       1.486939      2.577241      0.912190
  B      -1.487718      2.577265      0.912132
  B      -2.976527      0.001195      0.911415
  B      -1.488609     -2.575252      0.909504
  B       1.489336     -2.578751      0.912959
  B       2.417156      1.397225     -0.913861
  B      -0.000614      2.790298     -0.910621
  B      -2.416242      1.395927     -0.910545
  B      -2.419173     -1.395609     -0.912129
  B      -0.000029     -2.794254     -0.911254
  B       2.418866     -1.397204     -0.912358
12
Coordinates from ORCA-job input E -295.880625810769
  B       2.953142      0.003468      0.895076
  B       1.473505      2.556328      0.894507
  B      -1.475560      2.556445      0.894496
  B      -2.952591      0.002525      0.893042
  B      -1.477152     -2.551965      0.889214
  B       1.478626     -2.559525      0.896072
  B       2.391768      1.384516     -0.897817
  B      -0.001884      2.760304     -0.891443
  B      -2.389572      1.381640     -0.891190
  B      -2.395877     -1.380745     -0.894580
  B       0.000102     -2.768370     -0.892685
  B       2.395492     -1.384620     -0.894692
12
Coordinates from ORCA-job input E -295.934004761100
  B       2.916606      0.005526      0.869403
  B       1.452388      2.523906      0.868677
  B      -1.456755      2.524198      0.868789
  B      -2.915081      0.004572      0.866213
  B      -1.459373     -2.515663      0.859650
  B       1.461842     -2.529775      0.871442
  B       2.352631      1.365003     -0.874403
  B      -0.004462      2.714202     -0.863497
  B      -2.348068      1.359541     -0.862741
  B      -2.359853     -1.357507     -0.869073
  B       0.000463     -2.728501     -0.865679
  B       2.359664     -1.365501     -0.868780
12
Coordinates from ORCA-job input E -296.017574795454
  B       2.858356      0.008619      0.832676
  B       1.418459      2.472664      0.831727
  B      -1.426710      2.473437      0.832152
  B      -2.855297      0.007656      0.827498
  B      -1.431161     -2.458265      0.817337
  B       1.434962     -2.482832      0.836188
  B       2.291558      1.334368     -0.841181
  B      -0.009384      2.642320     -0.823501
  B      -2.282690      1.325055     -0.821550
  B      -2.303373     -1.320700     -0.832499
  B       0.001321     -2.666315     -0.827267
  B       2.303960     -1.336008     -0.831578
12
Coordinates from ORCA-job input E -296.111122683937
  B       2.794236      0.012639      0.797039
  B       1.380514      2.416936      0.795277
  B      -1.393167      2.419219      0.796197
  B      -2.789965      0.010839      0.788179
  B      -1.400134     -2.396502      0.775429
  B       1.405271     -2.432347      0.801088
  B       2.226331      1.301124     -0.809276
  B      -0.015474      2.565488     -0.783646
  B      -2.212039      1.288701     -0.780275
  B      -2.242506     -1.281011     -0.795498
  B       0.002658     -2.600266     -0.789526
  B       2.244276     -1.304821     -0.794989
12
Coordinates from ORCA-job input E -296.211302651087
  B       2.726518      0.015864      0.762523
  B       1.340702      2.359901      0.760847
  B      -1.358012      2.364254      0.760601
  B      -2.720824      0.014423      0.749746
  B      -1.366163     -2.334335      0.735440
  B       1.373270     -2.380390      0.766089
  B       2.159907      1.267320     -0.778066
  B      -0.021879      2.489487     -0.744931
  B      -2.141099      1.253535     -0.741030
  B      -2.179466     -1.242093     -0.758688
  B       0.004520     -2.534004     -0.752820
  B       2.182527     -1.273963     -0.759710
12
Coordinates from ORCA-job input E -296.311590357201
  B       2.654354      0.017209      0.728732
  B       1.299580      2.301332      0.728850
  B      -1.321244      2.308530      0.726283
  B      -2.647739      0.018358      0.713861
  B      -1.328097     -2.272346      0.697749
  B       1.338351     -2.325576      0.730760
  B       2.090997      1.231760     -0.746818
  B      -0.027587      2.414487     -0.708911
  B      -2.070396      1.219518     -0.705171
  B      -2.113070     -1.204193     -0.723038
  B       0.007545     -2.466283     -0.717176
  B       2.117306     -1.242795     -0.725121
12
Coordinates from ORCA-job input E -296.414989879315
  B       2.579778      0.016909      0.697038
  B       1.256230      2.243002      0.699519
  B      -1.282454      2.253660      0.693390
  B      -2.570835      0.023683      0.679400
  B      -1.286868     -2.213590      0.661511
  B       1.300238     -2.269348      0.694779
  B       2.017586      1.193737     -0.716051
  B      -0.030746      2.340037     -0.676169
  B      -1.999765      1.185681     -0.672319
  B      -2.041719     -1.167451     -0.686750
  B       0.010797     -2.397027     -0.682468
  B       2.047759     -1.209293     -0.691880
12
Coordinates from ORCA-job input E -296.523179853457
  B       2.504781      0.013482      0.667203
  B       1.209121      2.182067      0.669621
  B      -1.244819      2.197044      0.661620
  B      -2.492160      0.033612      0.646469
  B      -1.243731     -2.155640      0.628703
  B       1.263146     -2.210143      0.660804
  B       1.942904      1.152603     -0.685237
  B      -0.034925      2.261938     -0.644425
  B      -1.928350      1.151488     -0.640108
  B      -1.968798     -1.127859     -0.653053
  B       0.014450     -2.324633     -0.650756
  B       1.978381     -1.173958     -0.660842
12
Coordinates from ORCA-job input E -296.623349265355
  B       2.426296      0.008424      0.636522
  B       1.163060      2.120088      0.641225
  B      -1.203361      2.136951      0.635561
  B      -2.417753      0.039285      0.613407
  B      -1.203835     -2.094852      0.596967
  B       1.229747     -2.145675      0.632447
  B       1.867200      1.111087     -0.660398
  B      -0.034060      2.178839     -0.613658
  B      -1.854859      1.109730     -0.609711
  B      -1.896925     -1.084606     -0.622159
  B       0.016016     -2.245183     -0.620887
  B       1.908475     -1.134087     -0.629317
12
Coordinates from ORCA-job input E -296.720184578908
  B       2.342178      0.004130      0.612889
  B       1.115639      2.051404      0.617484
  B      -1.160083      2.072979      0.619929
  B      -2.345195      0.045043      0.591809
  B      -1.167058     -2.032262      0.576372
  B       1.196785     -2.075030      0.611111
  B       1.782025      1.064889     -0.639985
  B      -0.026853      2.080929     -0.594689
  B      -1.771428      1.061085     -0.587506
  B      -1.820871     -1.033835     -0.600370
  B       0.020902     -2.155417     -0.602246
  B       1.833959     -1.083916     -0.604797
12
Coordinates from ORCA-job input E -296.801624072819
  B       2.260166     -0.010014      0.590891
  B       1.067081      1.984711      0.596002
  B      -1.127808      2.018393      0.612266
  B      -2.272481      0.062197      0.576414
  B      -1.115408     -1.974805      0.558453
  B       1.171637     -2.018771      0.607922
  B       1.687880      1.003191     -0.617815
  B      -0.029841      1.983800     -0.583916
  B      -1.690703      1.019071     -0.571996
  B      -1.729860     -0.978031     -0.586941
  B       0.023973     -2.059149     -0.592153
  B       1.755364     -1.030593     -0.589128
12
Coordinates from ORCA-job input E -296.884338277601
  B       2.180235     -0.019271      0.585133
  B       1.016262      1.922231      0.588304
  B      -1.090718      1.964892      0.611191
  B      -2.198627      0.073972      0.574398
  B      -1.072902     -1.918684      0.552254
  B       1.142618     -1.959569      0.600888
  B       1.592264      0.940958     -0.603920
  B      -0.035005      1.883607     -0.588520
  B      -1.602689      0.974894     -0.569371
  B      -1.636905     -0.920110     -0.574984
  B       0.032710     -1.961466     -0.593574
  B       1.672757     -0.981454     -0.581801
12
Coordinates from ORCA-job input E -296.955487604360
  B       2.102500     -0.026631      0.579517
  B       0.970039      1.859423      0.581745
  B      -1.053776      1.909153      0.612091
  B      -2.127162      0.083584      0.574205
  B      -1.032407     -1.865120      0.548798
  B       1.112320     -1.900473      0.597960
  B       1.498691      0.881301     -0.592237
  B      -0.037077      1.782538     -0.594194
  B      -1.515347      0.929691     -0.568578
  B      -1.544691     -0.864799     -0.567824
  B       0.037958     -1.860358     -0.595107
  B       1.588951     -0.928308     -0.576376
12
Coordinates from ORCA-job input E -297.021797528519
  B       2.044242     -0.043293      0.597850
  B       0.923910      1.813490      0.594947
  B      -1.025966      1.864234      0.633059
  B      -2.069173      0.110021      0.598872
  B      -0.985479     -1.837379      0.567003
  B       1.094423     -1.866132      0.625744
  B       1.419152      0.828722     -0.593519
  B      -0.039240      1.705205     -0.628926
  B      -1.453481      0.897806     -0.592650
  B      -1.466562     -0.816749     -0.582684
  B       0.035151     -1.778136     -0.622325
  B       1.523022     -0.877788     -0.597372
12
Coordinates from ORCA-job input E -297.074886931444
  B       1.975632     -0.045427      0.631683
  B       0.863389      1.755004      0.616898
  B      -0.971086      1.779889      0.641011
  B      -1.983885      0.125564      0.628676
  B      -0.942872     -1.786193      0.586543
  B       1.055874     -1.812071      0.634671
  B       1.350855      0.800043     -0.591828
  B      -0.036432      1.640638     -0.671103
  B      -1.395428      0.862678     -0.625663
  B      -1.399532     -0.776634     -0.580627
  B       0.028909     -1.701052     -0.647036
  B       1.454575     -0.842438     -0.623224
12
Coordinates from ORCA-job input E -297.113991843486
  B       1.907110     -0.043835      0.661366
  B       0.805235      1.678430      0.642349
  B      -0.908556      1.678796      0.658698
  B      -1.909645      0.137072      0.671278
  B      -0.913255     -1.743325      0.622831
  B       1.020267     -1.752555      0.653907
  B       1.324084      0.786533     -0.597164
  B      -0.014219      1.608990     -0.727560
  B      -1.376416      0.836553     -0.671689
  B      -1.374578     -0.751557     -0.591429
  B       0.013305     -1.644009     -0.676014
  B       1.426666     -0.791092     -0.646572
12
Coordinates from ORCA-job input E -297.138751895481
  B       1.843598     -0.040390      0.700304
  B       0.757268      1.602208      0.671944
  B      -0.861295      1.582203      0.674451
  B      -1.822703      0.145842      0.698477
  B      -0.871108     -1.688031      0.646209
  B       0.978973     -1.702360      0.671626
  B       1.310172      0.796680     -0.614288
  B      -0.038026      1.629993     -0.777574
  B      -1.369998      0.861245     -0.712357
  B      -1.349480     -0.746803     -0.596980
  B       0.022630     -1.625448     -0.689535
  B       1.399968     -0.815140     -0.672277
12
Coordinates from ORCA-job input E -297.154448541749
  B       1.822482     -0.005936      0.721528
  B       0.787903      1.515399      0.689829
  B      -0.840667      1.469521      0.692653
  B      -1.795689      0.118534      0.713713
  B      -0.888467     -1.635515      0.675649
  B       0.953499     -1.631724      0.695172
  B       1.364724      0.813589     -0.622793
  B       0.010386      1.651898     -0.821413
  B      -1.431223      0.824708     -0.747653
  B      -1.398138     -0.745577     -0.597274
  B      -0.013833     -1.604427     -0.707032
  B       1.429023     -0.770469     -0.692378
12
Coordinates from ORCA-job input E -297.162702468273
  B       1.787621      0.026936      0.710073
  B       0.788748      1.454570      0.674813
  B      -0.798548      1.412715      0.698583
  B      -1.784384      0.094723      0.723678
  B      -0.902291     -1.624006      0.698220
  B       0.936566     -1.590097      0.718872
  B       1.365596      0.833669     -0.648300
  B       0.011035      1.687646     -0.801106
  B      -1.424708      0.888151     -0.766581
  B      -1.414102     -0.776069     -0.619616
  B       0.000316     -1.634538     -0.703919
  B       1.434151     -0.773700     -0.684716
12
Coordinates from ORCA-job input E -297.167638614472
  B       1.779377      0.031660      0.706408
  B       0.802175      1.403172      0.686030
  B      -0.812957      1.338696      0.707209
  B      -1.772982      0.068209      0.704980
  B      -0.907593     -1.560761      0.698517
  B       0.911654     -1.536520      0.725600
  B       1.402383      0.829299     -0.714651
  B      -0.037270      1.730133     -0.784914
  B      -1.427836      0.898432     -0.750493
  B      -1.406444     -0.747017     -0.634638
  B       0.038256     -1.627713     -0.676673
  B       1.431237     -0.827591     -0.667375
12
Coordinates from ORCA-job input E -297.168733029234
  B       1.756366      0.071592      0.706356
  B       0.827363      1.409376      0.686382
  B      -0.760335      1.336803      0.723328
  B      -1.777980      0.014028      0.698385
  B      -0.923581     -1.562635      0.680178
  B       0.868098     -1.501957      0.729770
  B       1.393814      0.870777     -0.749836
  B       0.000031      1.766074     -0.763804
  B      -1.396333      0.866139     -0.744652
  B      -1.376177     -0.793349     -0.646265
  B      -0.014583     -1.645462     -0.654111
  B       1.403318     -0.831385     -0.665731
12
Coordinates from ORCA-job input E -297.174138918724
  B       1.752792      0.068237      0.693617
  B       0.842004      1.389089      0.687669
  B      -0.769043      1.331756      0.719632
  B      -1.810804      0.044920      0.700307
  B      -0.952347     -1.582701      0.716813
  B       0.910247     -1.473459      0.733422
  B       1.367941      0.855569     -0.750151
  B       0.008933      1.751273     -0.747241
  B      -1.379507      0.866821     -0.737889
  B      -1.393397     -0.780555     -0.679770
  B       0.002068     -1.667418     -0.666498
  B       1.421113     -0.803531     -0.669912
12
Coordinates from ORCA-job input E -297.177213953243
  B       1.747733      0.035870      0.685724
  B       0.839826      1.404310      0.705917
  B      -0.783852      1.333086      0.719033
  B      -1.804362      0.035308      0.699107
  B      -0.951201     -1.579766      0.737553
  B       0.893274     -1.454340      0.719377
  B       1.367483      0.831566     -0.755611
  B       0.004103      1.770755     -0.745864
  B      -1.365070      0.867211     -0.745644
  B      -1.375680     -0.785739     -0.679865
  B       0.016031     -1.664150     -0.656052
  B       1.411715     -0.794110     -0.683675
12
Coordinates from ORCA-job input E -297.181589273562
  B       1.720302      0.034976      0.687927
  B       0.843827      1.410436      0.723158
  B      -0.780114      1.317561      0.718719
  B      -1.775303      0.027850      0.690432
  B      -0.946738     -1.576439      0.755152
  B       0.857147     -1.420790      0.706019
  B       1.350521      0.830269     -0.758660
  B       0.010086      1.780156     -0.742651
  B      -1.339242      0.850222     -0.746499
  B      -1.356804     -0.782025     -0.675570
  B       0.025341     -1.670243     -0.654498
  B       1.390977     -0.801973     -0.703529
12
Coordinates from ORCA-job input E -297.187376140368
  B       1.682441      0.038139      0.702442
  B       0.857729      1.433070      0.751886
  B      -0.759145      1.309983      0.719932
  B      -1.732695      0.014011      0.683797
  B      -0.936443     -1.586782      0.774958
  B       0.803835     -1.359888      0.698109
  B       1.333474      0.829468     -0.760008
  B       0.016017      1.791997     -0.740901
  B      -1.305705      0.824397     -0.748150
  B      -1.336649     -0.797606     -0.677146
  B       0.007506     -1.688607     -0.671602
  B       1.369636     -0.808182     -0.733317
12
Coordinates from ORCA-job input E -297.190747584877
  B       1.651379      0.048569      0.720198
  B       0.893196      1.485446      0.758555
  B      -0.726396      1.325468      0.728006
  B      -1.702710     -0.013641      0.691740
  B      -0.922003     -1.630308      0.782058
  B       0.731068     -1.315549      0.702584
  B       1.312206      0.824076     -0.752524
  B       0.031188      1.825420     -0.741277
  B      -1.290900      0.804341     -0.751393
  B      -1.344359     -0.810313     -0.690214
  B       0.017910     -1.723928     -0.694020
  B       1.349422     -0.819579     -0.753711
12
Coordinates from ORCA-job input E -297.194079020633
  B       1.640088      0.064465      0.732389
  B       0.918766      1.511634      0.748936
  B      -0.712576      1.292852      0.725252
  B      -1.651811     -0.034641      0.696327
  B      -0.953087     -1.641369      0.771391
  B       0.691911     -1.255434      0.717598
  B       1.301124      0.813841     -0.747472
  B       0.015292      1.856872     -0.733222
  B      -1.254682      0.802143     -0.740293
  B      -1.342495     -0.832340     -0.694161
  B      -0.010330     -1.762890     -0.712327
  B       1.357800     -0.815132     -0.764419
12
Coordinates from ORCA-job input E -297.196721296652
  B       1.633050      0.049505      0.733786
  B       0.925293      1.546133      0.718139
  B      -0.696753      1.283376      0.734317
  B      -1.618752     -0.043097      0.704889
  B      -0.973442     -1.666696      0.756381
  B       0.684217     -1.226478      0.726798
  B       1.275429      0.805547     -0.744317
  B       0.011796      1.900622     -0.717918
  B      -1.249174      0.794482     -0.740879
  B      -1.337230     -0.828601     -0.713430
  B       0.000996     -1.776517     -0.711093
  B       1.344568     -0.838277     -0.746674
12
Coordinates from ORCA-job input E -297.199619448195
  B       1.635978      0.082859      0.732158
  B       0.937036      1.586342      0.664571
  B      -0.670219      1.274806      0.746406
  B      -1.563039     -0.047707      0.715986
  B      -0.986396     -1.716515      0.720164
  B       0.628772     -1.243122      0.742264
  B       1.246019      0.775623     -0.735967
  B      -0.010182      1.944034     -0.698378
  B      -1.245100      0.799646     -0.736749
  B      -1.328370     -0.806771     -0.734866
  B       0.014525     -1.796089     -0.697926
  B       1.340976     -0.853106     -0.717663
12
Coordinates from ORCA-job input E -297.201685443487
  B       1.605614      0.096235      0.722578
  B       0.964479      1.587874      0.644650
  B      -0.646272      1.255744      0.766433
  B      -1.534555     -0.102726      0.715251
  B      -1.006386     -1.716757      0.700228
  B       0.600969     -1.196020      0.756874
  B       1.209128      0.747585     -0.752264
  B      -0.015035      1.982219     -0.684666
  B      -1.233171      0.819138     -0.740401
  B      -1.312694     -0.797708     -0.746230
  B       0.033623     -1.814460     -0.679130
  B       1.334301     -0.861123     -0.703325
12
Coordinates from ORCA-job input E -297.203863725297
  B       1.598846      0.090288      0.727980
  B       0.980839      1.625608      0.635385
  B      -0.648557      1.239120      0.782332
  B      -1.499701     -0.122901      0.714811
  B      -1.026437     -1.719370      0.679369
  B       0.577286     -1.179360      0.777436
  B       1.161967      0.769769     -0.779859
  B      -0.013537      2.001827     -0.670435
  B      -1.209611      0.826072     -0.739493
  B      -1.284608     -0.794453     -0.756379
  B       0.018003     -1.854011     -0.662558
  B       1.345510     -0.882590     -0.708590
12
Coordinates from ORCA-job input E -297.206420623848
  B       1.577167      0.106278      0.722252
  B       0.996514      1.639683      0.634666
  B      -0.637631      1.243329      0.794515
  B      -1.474154     -0.107597      0.728231
  B      -1.030080     -1.736175      0.652105
  B       0.561291     -1.155822      0.781555
  B       1.116930      0.736827     -0.794123
  B      -0.019264      2.007966     -0.642306
  B      -1.196706      0.826371     -0.742770
  B      -1.249468     -0.796751     -0.781850
  B       0.019582     -1.876265     -0.645341
  B       1.335818     -0.887843     -0.706934
12
Coordinates from ORCA-job input E -297.207547956645
  B       1.568530      0.125706      0.722168
  B       1.000902      1.667378      0.608878
  B      -0.599487      1.248999      0.804206
  B      -1.444445     -0.132476      0.732687
  B      -1.051568     -1.739842      0.611370
  B       0.540488     -1.140311      0.799545
  B       1.058551      0.696186     -0.803927
  B      -0.041497      2.000809     -0.610336
  B      -1.184006      0.828616     -0.739384
  B      -1.216095     -0.752116     -0.799563
  B       0.027775     -1.906712     -0.629326
  B       1.340853     -0.896236     -0.696319
12
Coordinates from ORCA-job input E -297.210113488005
  B       1.561759      0.131741      0.716210
  B       1.034720      1.672274      0.584675
  B      -0.602187      1.221474      0.820630
  B      -1.432798     -0.150485      0.742916
  B      -1.048432     -1.741369      0.589534
  B       0.511370     -1.125212      0.811748
  B       1.008338      0.683615     -0.810078
  B      -0.039446      2.020935     -0.602449
  B      -1.184264      0.855827     -0.745662
  B      -1.179866     -0.743481     -0.816453
  B       0.045714     -1.922081     -0.607899
  B       1.325092     -0.903238     -0.683173
12
Coordinates from ORCA-job input E -297.211879696481
  B       1.560733      0.138937      0.710943
  B       1.056113      1.688372      0.572061
  B      -0.585194      1.200261      0.829221
  B      -1.429772     -0.163402      0.751292
  B      -1.067474     -1.744061      0.574553
  B       0.485578     -1.096548      0.825340
  B       0.958225      0.682180     -0.818830
  B      -0.036637      2.035187     -0.583764
  B      -1.173807      0.865691     -0.749096
  B      -1.141979     -0.746474     -0.830030
  B       0.056506     -1.950136     -0.597975
  B       1.317708     -0.910007     -0.683715
12
Coordinates from ORCA-job input E -297.214341041795
  B       1.555642      0.137342      0.703308
  B       1.079818      1.703548      0.556019
  B      -0.553633      1.165063      0.834984
  B      -1.420992     -0.181376      0.763463
  B      -1.079169     -1.747102      0.555046
  B       0.442166     -1.057637      0.837310
  B       0.883818      0.676376     -0.828378
  B      -0.046444      2.049101     -0.561713
  B      -1.154501      0.882259     -0.759402
  B      -1.080834     -0.729335     -0.846544
  B       0.066020     -1.987891     -0.572684
  B       1.308108     -0.910347     -0.681410
12
Coordinates from ORCA-job input E -297.217037060127
  B       1.557574      0.142144      0.694660
  B       1.096621      1.713064      0.537427
  B      -0.510183      1.130301      0.835644
  B      -1.421593     -0.199628      0.775210
  B      -1.089884     -1.756109      0.533496
  B       0.400745     -1.024299      0.849526
  B       0.815092      0.670921     -0.834466
  B      -0.057246      2.066846     -0.540825
  B      -1.139155      0.899402     -0.771256
  B      -1.017845     -0.711315     -0.856819
  B       0.073858     -2.020904     -0.550689
  B       1.292018     -0.910423     -0.671909
12
Coordinates from ORCA-job input E -297.220283718927
  B       1.563108      0.147137      0.683083
  B       1.102594      1.708492      0.520884
  B      -0.452723      1.087522      0.829013
  B      -1.424813     -0.214987      0.781578
  B      -1.096328     -1.762864      0.514906
  B       0.364797     -0.998277      0.868786
  B       0.755575      0.666221     -0.842331
  B      -0.073728      2.089354     -0.521268
  B      -1.132932      0.916711     -0.788351
  B      -0.958872     -0.689611     -0.862609
  B       0.080383     -2.041452     -0.531671
  B       1.272940     -0.908247     -0.652021
12
Coordinates from ORCA-job input E -297.223529463858
  B       1.565298      0.160166      0.672585
  B       1.103438      1.699904      0.504503
  B      -0.378403      1.041721      0.814268
  B      -1.418343     -0.231369      0.780001
  B      -1.096193     -1.777442      0.492570
  B       0.333558     -0.978967      0.899690
  B       0.698533      0.657869     -0.848068
  B      -0.092562      2.116929     -0.501743
  B      -1.130046      0.933464     -0.810001
  B      -0.910538     -0.664940     -0.866082
  B       0.080210     -2.051929     -0.517331
  B       1.245048     -0.905406     -0.620393
12
Coordinates from ORCA-job input E -297.225080654033
  B       1.564225      0.162783      0.656734
  B       1.113197      1.705031      0.491539
  B      -0.335470      0.988758      0.805166
  B      -1.424906     -0.245523      0.788635
  B      -1.108471     -1.776742      0.487487
  B       0.287934     -0.942175      0.908625
  B       0.641085      0.649254     -0.854921
  B      -0.101173      2.134074     -0.473980
  B      -1.114505      0.945524     -0.825534
  B      -0.848159     -0.647089     -0.865872
  B       0.098713     -2.069768     -0.499579
  B       1.227530     -0.904128     -0.618300
12
Coordinates from ORCA-job input E -297.224872197871
  B       1.542746      0.196818      0.642843
  B       1.123018      1.707712      0.503800
  B      -0.294004      0.929821      0.804632
  B      -1.438274     -0.250067      0.770762
  B      -1.113456     -1.797868      0.501124
  B       0.280081     -0.944582      0.974439
  B       0.660033      0.633755     -0.910633
  B      -0.091063      2.153068     -0.451411
  B      -1.121425      0.942183     -0.842065
  B      -0.864485     -0.642740     -0.875327
  B       0.117751     -2.024069     -0.500859
  B       1.199078     -0.904031     -0.617305
12
Coordinates from ORCA-job input E -297.226395543477
  B       1.565033      0.182563      0.645977
  B       1.144358      1.700102      0.497765
  B      -0.315546      0.938674      0.817559
  B      -1.496697     -0.243169      0.789802
  B      -1.110733     -1.811209      0.466299
  B       0.300570     -0.945613      0.975372
  B       0.653875      0.657809     -0.925443
  B      -0.089615      2.125444     -0.468423
  B      -1.134667      0.959626     -0.838767
  B      -0.852659     -0.639991     -0.860889
  B       0.102830     -2.039802     -0.474957
  B       1.233252     -0.884433     -0.624295
12
Coordinates from ORCA-job input E -297.229102071542
  B       1.541494      0.183819      0.670604
  B       1.127653      1.741557      0.482769
  B      -0.285074      0.933732      0.808652
  B      -1.433041     -0.261766      0.790419
  B      -1.108951     -1.800357      0.468402
  B       0.272323     -0.930861      0.946939
  B       0.657278      0.660470     -0.898227
  B      -0.093841      2.138606     -0.464307
  B      -1.120204      0.949631     -0.833232
  B      -0.869463     -0.647762     -0.867039
  B       0.081321     -2.067426     -0.489405
  B       1.230503     -0.899643     -0.615576
12
Coordinates from ORCA-job input E -297.230635880839
  B       1.538149      0.177028      0.671661
  B       1.142144      1.733311      0.484559
  B      -0.263731      0.914807      0.801381
  B      -1.443130     -0.252540      0.783276
  B      -1.110157     -1.782198      0.478281
  B       0.265294     -0.927376      0.964547
  B       0.643347      0.656975     -0.897932
  B      -0.109433      2.128132     -0.461102
  B      -1.131406      0.948353     -0.837255
  B      -0.865773     -0.643741     -0.873062
  B       0.106087     -2.052959     -0.501459
  B       1.228608     -0.899792     -0.612895
12
Coordinates from ORCA-job input E -297.232271804529
  B       1.517463      0.190521      0.680539
  B       1.154657      1.744589      0.476686
  B      -0.249525      0.902139      0.802954
  B      -1.447310     -0.250987      0.779195
  B      -1.108043     -1.797980      0.474311
  B       0.271924     -0.927942      0.986361
  B       0.645363      0.653432     -0.904287
  B      -0.108407      2.125385     -0.455982
  B      -1.123860      0.947427     -0.838241
  B      -0.874133     -0.643602     -0.878463
  B       0.105629     -2.041573     -0.504518
  B       1.216242     -0.901409     -0.618558
12
Coordinates from ORCA-job input E -297.234002328960
  B       1.494509      0.197205      0.701169
  B       1.168880      1.758102      0.465678
  B      -0.231299      0.886456      0.804791
  B      -1.448767     -0.247793      0.768728
  B      -1.101661     -1.798938      0.479830
  B       0.287524     -0.931772      1.001451
  B       0.651717      0.662138     -0.898053
  B      -0.114882      2.118050     -0.453858
  B      -1.119801      0.947977     -0.841680
  B      -0.897013     -0.653247     -0.892505
  B       0.093043     -2.041096     -0.510243
  B       1.217749     -0.897082     -0.625308
12
Coordinates from ORCA-job input E -297.234780607352
  B       1.480103      0.203002      0.714167
  B       1.178498      1.770165      0.445951
  B      -0.223909      0.876496      0.812979
  B      -1.445974     -0.248372      0.761423
  B      -1.094526     -1.786987      0.476333
  B       0.294471     -0.933364      1.017275
  B       0.642391      0.657784     -0.885557
  B      -0.112793      2.113129     -0.445970
  B      -1.126318      0.946320     -0.842277
  B      -0.896370     -0.654222     -0.908702
  B       0.087307     -2.040057     -0.514584
  B       1.217120     -0.903893     -0.631038
12
Coordinates from ORCA-job input E -297.235342006453
  B       1.479518      0.204705      0.720241
  B       1.180328      1.773435      0.435340
  B      -0.217418      0.879263      0.820053
  B      -1.444008     -0.235944      0.745654
  B      -1.093199     -1.786540      0.487400
  B       0.307587     -0.947934      1.018524
  B       0.629650      0.660121     -0.866227
  B      -0.123393      2.122640     -0.446537
  B      -1.121550      0.947726     -0.840556
  B      -0.895417     -0.660683     -0.925636
  B       0.078039     -2.049997     -0.520634
  B       1.219864     -0.906792     -0.627621
12
Coordinates from ORCA-job input E -297.235984091002
  B       1.480710      0.213031      0.718671
  B       1.182355      1.772237      0.429115
  B      -0.218464      0.881247      0.839117
  B      -1.441351     -0.230046      0.733429
  B      -1.098093     -1.776280      0.486581
  B       0.310313     -0.947390      1.013808
  B       0.623102      0.649481     -0.860097
  B      -0.125765      2.124101     -0.447571
  B      -1.132533      0.944108     -0.827011
  B      -0.884418     -0.661366     -0.938746
  B       0.075374     -2.054512     -0.520505
  B       1.228770     -0.914611     -0.626791
12
Coordinates from ORCA-job input E -297.236903879221
  B       1.483943      0.218602      0.708328
  B       1.179789      1.764024      0.416634
  B      -0.201780      0.875095      0.853632
  B      -1.440832     -0.219142      0.706329
  B      -1.102335     -1.767937      0.481749
  B       0.309608     -0.948703      1.017436
  B       0.590913      0.632888     -0.855423
  B      -0.127718      2.130218     -0.444879
  B      -1.150931      0.944410     -0.802529
  B      -0.844479     -0.653143     -0.955657
  B       0.076600     -2.056194     -0.512484
  B       1.227222     -0.920117     -0.613136
12
Coordinates from ORCA-job input E -297.237401813493
  B       1.490113      0.213539      0.695631
  B       1.171977      1.772366      0.406871
  B      -0.211250      0.892693      0.891947
  B      -1.445423     -0.195195      0.666604
  B      -1.116989     -1.754395      0.484887
  B       0.324980     -0.963838      1.000099
  B       0.581512      0.622117     -0.849912
  B      -0.123380      2.119768     -0.453683
  B      -1.164584      0.929279     -0.755037
  B      -0.819324     -0.658433     -0.975735
  B       0.079018     -2.052203     -0.505784
  B       1.233350     -0.925698     -0.605887
12
Coordinates from ORCA-job input E -297.238204522380
  B       1.484524      0.214355      0.697538
  B       1.179109      1.770956      0.417267
  B      -0.187144      0.876977      0.876834
  B      -1.451780     -0.195878      0.654139
  B      -1.116796     -1.763820      0.488842
  B       0.317097     -0.950578      0.995707
  B       0.576976      0.631573     -0.863650
  B      -0.122574      2.126770     -0.450145
  B      -1.172095      0.930337     -0.742341
  B      -0.817869     -0.664233     -0.980610
  B       0.080245     -2.055730     -0.491891
  B       1.230308     -0.920729     -0.601690
12
Coordinates from ORCA-job input E -297.238464783276
  B       1.487936      0.212840      0.697758
  B       1.180658      1.772461      0.420054
  B      -0.183355      0.870292      0.868066
  B      -1.465420     -0.198529      0.646888
  B      -1.112658     -1.764808      0.488254
  B       0.319599     -0.947797      0.997185
  B       0.572542      0.636179     -0.869459
  B      -0.119584      2.123613     -0.446475
  B      -1.170328      0.936422     -0.736526
  B      -0.813356     -0.664455     -0.980388
  B       0.081298     -2.059096     -0.480186
  B       1.222667     -0.917123     -0.605171
12
Coordinates from ORCA-job input E -297.238593399906
  B       1.487589      0.214634      0.701925
  B       1.182292      1.776486      0.418076
  B      -0.176801      0.867735      0.867346
  B      -1.473056     -0.192348      0.632948
  B      -1.113228     -1.761340      0.488167
  B       0.322544     -0.949734      0.996699
  B       0.571266      0.637163     -0.871026
  B      -0.118998      2.121276     -0.446623
  B      -1.174684      0.932762     -0.717933
  B      -0.806528     -0.667567     -0.986954
  B       0.082826     -2.062422     -0.474613
  B       1.216779     -0.916645     -0.608011
12
Coordinates from ORCA-job input E -297.238691424008
  B       1.488613      0.214483      0.705469
  B       1.182986      1.776766      0.419665
  B      -0.180801      0.868644      0.861256
  B      -1.481535     -0.192956      0.633720
  B      -1.112296     -1.760284      0.488774
  B       0.325143     -0.951967      0.997759
  B       0.576701      0.640734     -0.874235
  B      -0.117126      2.123049     -0.446758
  B      -1.172990      0.933006     -0.713889
  B      -0.802893     -0.669284     -0.983838
  B       0.085915     -2.067213     -0.472244
  B       1.208285     -0.914977     -0.615679
12
Coordinates from ORCA-job input E -297.238776915333
  B       1.485503      0.217016      0.708651
  B       1.182447      1.774515      0.417774
  B      -0.181577      0.867447      0.861531
  B      -1.487049     -0.190179      0.629913
  B      -1.110491     -1.753905      0.488673
  B       0.330556     -0.954367      0.999381
  B       0.577203      0.641349     -0.874498
  B      -0.118659      2.125485     -0.446253
  B      -1.170642      0.931386     -0.708191
  B      -0.790325     -0.669494     -0.983760
  B       0.085910     -2.074846     -0.469934
  B       1.197123     -0.914407     -0.623288
12
Coordinates from ORCA-job input E -297.238821304616
  B       1.483539      0.216986      0.711424
  B       1.181926      1.772082      0.417403
  B      -0.183055      0.869184      0.861300
  B      -1.488069     -0.188126      0.631273
  B      -1.108500     -1.751270      0.488790
  B       0.334272     -0.956897      0.998986
  B       0.581515      0.643495     -0.873453
  B      -0.120489      2.127451     -0.447088
  B      -1.172166      0.930367     -0.709398
  B      -0.785468     -0.670053     -0.982039
  B       0.084622     -2.078771     -0.470791
  B       1.191872     -0.914447     -0.626406
12
Coordinates from ORCA-job input E -297.238850615004
  B       1.481666      0.217103      0.711739
  B       1.182097      1.772371      0.416921
  B      -0.182695      0.868525      0.862495
  B      -1.487807     -0.186635      0.630689
  B      -1.108994     -1.750569      0.490554
  B       0.336302     -0.957273      0.997285
  B       0.583335      0.644938     -0.872698
  B      -0.122130      2.128202     -0.445691
  B      -1.173753      0.929927     -0.711204
  B      -0.778736     -0.670266     -0.981605
  B       0.082656     -2.081572     -0.470284
  B       1.188061     -0.914752     -0.628201
12
Coordinates from ORCA-job input E -297.238872712884
  B       1.481735      0.217465      0.711196
  B       1.181792      1.773256      0.417490
  B      -0.181808      0.868673      0.863674
  B      -1.486708     -0.185630      0.630270
  B      -1.109649     -1.750256      0.492074
  B       0.337979     -0.958015      0.995262
  B       0.586246      0.646491     -0.872299
  B      -0.124376      2.126004     -0.444239
  B      -1.175853      0.929485     -0.713941
  B      -0.775089     -0.669870     -0.981764
  B       0.079764     -2.082375     -0.469898
  B       1.185968     -0.915229     -0.627825
12
Coordinates from ORCA-job input E -297.238881953993
  B       1.482563      0.217935      0.710325
  B       1.181621      1.774702      0.417768
  B      -0.180556      0.867381      0.863580
  B      -1.486508     -0.185679      0.630109
  B      -1.111369     -1.750941      0.493290
  B       0.337639     -0.957714      0.994442
  B       0.587430      0.647502     -0.873110
  B      -0.125451      2.124406     -0.442665
  B      -1.176394      0.929256     -0.714773
  B      -0.772750     -0.669272     -0.982559
  B       0.078548     -2.082085     -0.468955
  B       1.185226     -0.915491     -0.627451
12
Coordinates from ORCA-job input E -297.238884736003
  B       1.483561      0.218234      0.709803
  B       1.181181      1.775244      0.418098
  B      -0.180067      0.866896      0.863433
  B      -1.486116     -0.186027      0.630591
  B      -1.112330     -1.751234      0.493544
  B       0.337140     -0.957492      0.994275
  B       0.588143      0.647941     -0.873546
  B      -0.126150      2.123558     -0.442211
  B      -1.175808      0.928754     -0.715068
  B      -0.773042     -0.669014     -0.983384
  B       0.077897     -2.081172     -0.468561
  B       1.185591     -0.915688     -0.626974
