12
Coordinates from ORCA-job input E -297.238884736003
  B           1.48356057977365      0.21823447001844      0.70980296441744
  B           1.18118076480396      1.77524440383716      0.41809764947671
  B          -0.18006718262102      0.86689612404870      0.86343255239183
  B          -1.48611560859270     -0.18602732435482      0.63059055355102
  B          -1.11232957649290     -1.75123399623867      0.49354426668285
  B           0.33713986563270     -0.95749204631403      0.99427535809304
  B           0.58814278786453      0.64794070363118     -0.87354584178635
  B          -0.12615046800853      2.12355786620635     -0.44221052904187
  B          -1.17580766877761      0.92875389278450     -0.71506795125671
  B          -0.77304180811815     -0.66901410195884     -0.98338420669898
  B           0.07789726921253     -2.08117159299943     -0.46856053682989
  B           1.18559104532353     -0.91568839866055     -0.62697427899911
