12
Optimized coordinates extracted from calculations/B12/bilayer_3d/d_3.0/mult_5/output.out
B        1.48356058       0.21823447       0.70980296
B        1.18118076       1.77524440       0.41809765
B       -0.18006718       0.86689612       0.86343255
B       -1.48611561      -0.18602732       0.63059055
B       -1.11232958      -1.75123400       0.49354427
B        0.33713987      -0.95749205       0.99427536
B        0.58814279       0.64794070      -0.87354584
B       -0.12615047       2.12355787      -0.44221053
B       -1.17580767       0.92875389      -0.71506795
B       -0.77304181      -0.66901410      -0.98338421
B        0.07789727      -2.08117159      -0.46856054
B        1.18559105      -0.91568840      -0.62697428
