12
B12 bilayer_3d; neutral charge=0; multiplicity=5; 3d initial geometry; nominal d=3.0 A; Two staggered non-planar B6 layers.
B        3.00000000      -0.00000000       0.93000000
B        1.50000000       2.59807621       0.93000000
B       -1.50000000       2.59807621       0.93000000
B       -3.00000000       0.00000000       0.93000000
B       -1.50000000      -2.59807621       0.93000000
B        1.50000000      -2.59807621       0.93000000
B        2.44219164       1.41000000      -0.93000000
B        0.00000000       2.82000000      -0.93000000
B       -2.44219164       1.41000000      -0.93000000
B       -2.44219164      -1.41000000      -0.93000000
B       -0.00000000      -2.82000000      -0.93000000
B        2.44219164      -1.41000000      -0.93000000
