12
Coordinates from ORCA-job input E -297.264893675698
  B           1.57399245501267     -0.00223146087969      0.76545822489535
  B           0.79552368722237      1.42648766895330      0.74943271154102
  B          -0.81717019001857      1.43990675748462      0.74521084358700
  B          -1.57521384011761      0.00210139290687      0.76521236781954
  B          -0.79475432439238     -1.42569092313781      0.74931496944309
  B           0.81795755714565     -1.44101791438263      0.74440819053342
  B           1.25764113086709      0.82281551111570     -0.77425462532314
  B          -0.00155945438201      1.82181748228224     -0.71336504372802
  B          -1.25651582242836      0.81482900979175     -0.77159734151145
  B          -1.25859095257484     -0.82295784524576     -0.77412461715963
  B           0.00149188683565     -1.82107095344979     -0.71403317171439
  B           1.25719786683034     -0.81498872543883     -0.77166250838279
