12
Coordinates from ORCA-job input E -296.959748365772
  B       2.000000     -0.000000      0.620000
  B       1.000000      1.732051      0.620000
  B      -1.000000      1.732051      0.620000
  B      -2.000000      0.000000      0.620000
  B      -1.000000     -1.732051      0.620000
  B       1.000000     -1.732051      0.620000
  B       1.628128      0.940000     -0.620000
  B       0.000000      1.880000     -0.620000
  B      -1.628128      0.940000     -0.620000
  B      -1.628128     -0.940000     -0.620000
  B      -0.000000     -1.880000     -0.620000
  B       1.628128     -0.940000     -0.620000
12
Coordinates from ORCA-job input E -297.020563882248
  B       1.964849      0.000222      0.631239
  B       0.976297      1.707149      0.627532
  B      -0.976505      1.707030      0.627411
  B      -1.964766     -0.000448      0.630865
  B      -0.975884     -1.707680      0.627399
  B       0.976994     -1.707312      0.627303
  B       1.593913      0.925011     -0.627503
  B       0.000526      1.848061     -0.631907
  B      -1.594105      0.925506     -0.627205
  B      -1.594535     -0.924757     -0.627067
  B      -0.000678     -1.847645     -0.631574
  B       1.593894     -0.925136     -0.626493
12
Coordinates from ORCA-job input E -297.065643434984
  B       1.933817     -0.008832      0.640823
  B       0.954792      1.682739      0.638048
  B      -0.964250      1.679214      0.635352
  B      -1.933595      0.008274      0.640051
  B      -0.954106     -1.684031      0.637799
  B       0.965153     -1.679699      0.635206
  B       1.560779      0.903960     -0.634934
  B      -0.003218      1.812130     -0.642022
  B      -1.562801      0.911139     -0.638199
  B      -1.561767     -0.903406     -0.633993
  B       0.002809     -1.811067     -0.641237
  B       1.562388     -0.910422     -0.636893
12
Coordinates from ORCA-job input E -297.108076462483
  B       1.900063     -0.016925      0.650841
  B       0.931061      1.656424      0.648257
  B      -0.948982      1.650113      0.643418
  B      -1.899727      0.016145      0.649785
  B      -0.930236     -1.658474      0.647913
  B       0.950254     -1.650791      0.643251
  B       1.528377      0.884390     -0.642136
  B      -0.006433      1.778156     -0.652830
  B      -1.532448      0.897627     -0.648939
  B      -1.529721     -0.883544     -0.640799
  B       0.005786     -1.776542     -0.651590
  B       1.532006     -0.896578     -0.647173
12
Coordinates from ORCA-job input E -297.163743143993
  B       1.846774     -0.029011      0.665934
  B       0.893387      1.615177      0.663493
  B      -0.923578      1.604164      0.655565
  B      -1.846411      0.028092      0.664632
  B      -0.892608     -1.618321      0.663073
  B       0.925326     -1.605041      0.655389
  B       1.481767      0.856768     -0.652198
  B      -0.010465      1.729613     -0.669440
  B      -1.488660      0.877845     -0.665286
  B      -1.483519     -0.855563     -0.650422
  B       0.009544     -1.727343     -0.667607
  B       1.488442     -0.876381     -0.663134
12
Coordinates from ORCA-job input E -297.221042288474
  B       1.763455     -0.048186      0.689245
  B       0.833925      1.550475      0.687322
  B      -0.881740      1.529653      0.674223
  B      -1.763544      0.047390      0.687931
  B      -0.833701     -1.555222      0.686928
  B       0.884047     -1.530411      0.674069
  B       1.419643      0.819809     -0.665934
  B      -0.014276      1.663437     -0.695820
  B      -1.429778      0.849053     -0.691445
  B      -1.421601     -0.818299     -0.663708
  B       0.013248     -1.660430     -0.693377
  B       1.430320     -0.847270     -0.689433
12
Coordinates from ORCA-job input E -297.238604734493
  B       1.697632     -0.061551      0.709874
  B       0.789126      1.495549      0.709142
  B      -0.842778      1.458498      0.691255
  B      -1.699114      0.061350      0.709019
  B      -0.789763     -1.501855      0.708923
  B       0.845353     -1.458443      0.691179
  B       1.389439      0.800736     -0.675720
  B      -0.011814      1.624896     -0.720426
  B      -1.398274      0.827137     -0.716575
  B      -1.391047     -0.799363     -0.673108
  B       0.011433     -1.621294     -0.717974
  B       1.399806     -0.825659     -0.715591
12
Coordinates from ORCA-job input E -297.246005279075
  B       1.696287     -0.055886      0.718400
  B       0.785527      1.467158      0.716203
  B      -0.827924      1.424239      0.705153
  B      -1.698805      0.056529      0.717998
  B      -0.785875     -1.473571      0.716052
  B       0.829722     -1.424172      0.705111
  B       1.390055      0.805639     -0.684315
  B      -0.008915      1.632983     -0.730403
  B      -1.395374      0.826181     -0.727346
  B      -1.391566     -0.804795     -0.681286
  B       0.009134     -1.628904     -0.728631
  B       1.397734     -0.825400     -0.726936
12
Coordinates from ORCA-job input E -297.253643385720
  B       1.683481     -0.044655      0.728175
  B       0.782768      1.428416      0.723780
  B      -0.814684      1.391156      0.723734
  B      -1.685815      0.045885      0.728013
  B      -0.782778     -1.433802      0.723449
  B       0.815532     -1.391558      0.723606
  B       1.374184      0.802668     -0.700639
  B      -0.013122      1.640500     -0.739394
  B      -1.382860      0.829210     -0.737520
  B      -1.375898     -0.802376     -0.697577
  B       0.013398     -1.636357     -0.738383
  B       1.385793     -0.829087     -0.737243
12
Coordinates from ORCA-job input E -297.259458506634
  B       1.662272     -0.016411      0.745231
  B       0.792827      1.380220      0.733499
  B      -0.803162      1.364887      0.752401
  B      -1.662776      0.017686      0.745181
  B      -0.792732     -1.382246      0.732417
  B       0.803026     -1.366060      0.751952
  B       1.353929      0.796276     -0.729143
  B      -0.025213      1.662236     -0.753047
  B      -1.374778      0.841947     -0.749500
  B      -1.356645     -0.796967     -0.726751
  B       0.025486     -1.659017     -0.753300
  B       1.377766     -0.842550     -0.748939
12
Coordinates from ORCA-job input E -297.260944115034
  B       1.667533     -0.018748      0.746905
  B       0.791466      1.385055      0.735112
  B      -0.813824      1.386678      0.751728
  B      -1.667490      0.018991      0.746773
  B      -0.791513     -1.385740      0.733953
  B       0.813883     -1.387558      0.751177
  B       1.348552      0.792970     -0.731957
  B      -0.029726      1.679409     -0.752444
  B      -1.382783      0.851400     -0.749418
  B      -1.351246     -0.793956     -0.730164
  B       0.029978     -1.676530     -0.752795
  B       1.385168     -0.851970     -0.748871
12
Coordinates from ORCA-job input E -297.262087929682
  B       1.660872     -0.024321      0.751070
  B       0.780744      1.378927      0.741550
  B      -0.827358      1.410435      0.750677
  B      -1.660486      0.023740      0.750889
  B      -0.780829     -1.378309      0.740420
  B       0.827651     -1.410941      0.749940
  B       1.328001      0.782806     -0.738404
  B      -0.033827      1.703477     -0.751374
  B      -1.387509      0.860961     -0.752926
  B      -1.330604     -0.784062     -0.737426
  B       0.034072     -1.701238     -0.751901
  B       1.389272     -0.861474     -0.752516
12
Coordinates from ORCA-job input E -297.262800607069
  B       1.648718     -0.030187      0.753371
  B       0.768552      1.369960      0.748576
  B      -0.840054      1.430060      0.747456
  B      -1.648530      0.029594      0.753214
  B      -0.768410     -1.369051      0.747678
  B       0.840451     -1.430365      0.746592
  B       1.302171      0.771924     -0.744621
  B      -0.033929      1.723099     -0.747320
  B      -1.385938      0.864954     -0.756486
  B      -1.304551     -0.773168     -0.744211
  B       0.034151     -1.721434     -0.748006
  B       1.387369     -0.865387     -0.756244
12
Coordinates from ORCA-job input E -297.263158475038
  B       1.634787     -0.033193      0.753840
  B       0.759698      1.363654      0.753696
  B      -0.847989      1.443215      0.744116
  B      -1.635015      0.032973      0.753760
  B      -0.759332     -1.363033      0.753123
  B       0.848422     -1.443545      0.743238
  B       1.279652      0.765164     -0.750326
  B      -0.031688      1.736112     -0.741959
  B      -1.378873      0.865095     -0.758305
  B      -1.281674     -0.766168     -0.750222
  B       0.031822     -1.734732     -0.742707
  B       1.380190     -0.865541     -0.758252
12
Coordinates from ORCA-job input E -297.263385045412
  B       1.621564     -0.033142      0.753751
  B       0.755201      1.363442      0.756504
  B      -0.850821      1.451937      0.741367
  B      -1.622146      0.033222      0.753749
  B      -0.754749     -1.363158      0.756210
  B       0.851300     -1.452406      0.740544
  B       1.265199      0.764478     -0.755075
  B      -0.028288      1.744984     -0.737128
  B      -1.369103      0.863347     -0.758414
  B      -1.266828     -0.765190     -0.755133
  B       0.028306     -1.743680     -0.737821
  B       1.370367     -0.863834     -0.758555
12
Coordinates from ORCA-job input E -297.263614230942
  B       1.601533     -0.030467      0.754139
  B       0.752514      1.368915      0.759123
  B      -0.851044      1.461983      0.738027
  B      -1.602440      0.030698      0.754214
  B      -0.752025     -1.368837      0.759128
  B       0.851541     -1.462729      0.737308
  B       1.251574      0.769429     -0.761882
  B      -0.022306      1.757640     -0.730745
  B      -1.351926      0.858873     -0.757751
  B      -1.252579     -0.769722     -0.762131
  B       0.022133     -1.756352     -0.731244
  B       1.353026     -0.859431     -0.758185
12
Coordinates from ORCA-job input E -297.263905433865
  B       1.580517     -0.024931      0.755402
  B       0.754640      1.380787      0.760294
  B      -0.847302      1.468766      0.735416
  B      -1.581759      0.025190      0.755526
  B      -0.754160     -1.380810      0.760471
  B       0.847950     -1.469772      0.734791
  B       1.247004      0.781183     -0.768851
  B      -0.014709      1.770836     -0.724804
  B      -1.330696      0.850938     -0.756639
  B      -1.247566     -0.781109     -0.769244
  B       0.014484     -1.769721     -0.725038
  B       1.331597     -0.851358     -0.757325
12
Coordinates from ORCA-job input E -297.264260597077
  B       1.564663     -0.017433      0.757752
  B       0.763035      1.396632      0.759390
  B      -0.840210      1.468501      0.735185
  B      -1.566028      0.017413      0.757842
  B      -0.762480     -1.396326      0.759517
  B       0.840936     -1.469734      0.734594
  B       1.256063      0.797966     -0.774738
  B      -0.007552      1.781885     -0.720987
  B      -1.309831      0.839686     -0.755817
  B      -1.256419     -0.797715     -0.775156
  B       0.007360     -1.780976     -0.721014
  B       1.310462     -0.839899     -0.756569
12
Coordinates from ORCA-job input E -297.264518079348
  B       1.560982     -0.012399      0.760975
  B       0.773074      1.409241      0.757391
  B      -0.833519      1.462531      0.737503
  B      -1.562305      0.012052      0.760925
  B      -0.772384     -1.408380      0.757292
  B       0.834299     -1.463849      0.736836
  B       1.273022      0.811965     -0.776708
  B      -0.003787      1.786676     -0.721290
  B      -1.297344      0.828828     -0.757012
  B      -1.273555     -0.811856     -0.776982
  B       0.003730     -1.785986     -0.721343
  B       1.297787     -0.828822     -0.757586
12
Coordinates from ORCA-job input E -297.264627530745
  B       1.559524     -0.011344      0.763758
  B       0.777145      1.414470      0.757475
  B      -0.830885      1.460902      0.739217
  B      -1.560863      0.010936      0.763595
  B      -0.776336     -1.413311      0.757270
  B       0.831714     -1.462230      0.738459
  B       1.278313      0.818594     -0.777343
  B      -0.001746      1.790793     -0.721834
  B      -1.288689      0.821831     -0.760313
  B      -1.278978     -0.818642     -0.777508
  B       0.001770     -1.790247     -0.722045
  B       1.289032     -0.821752     -0.760730
12
Coordinates from ORCA-job input E -297.264711465807
  B       1.560434     -0.011770      0.766382
  B       0.780100      1.416728      0.757875
  B      -0.829670      1.459507      0.741645
  B      -1.561844      0.011473      0.766096
  B      -0.779172     -1.415409      0.757614
  B       0.830564     -1.460826      0.740784
  B       1.279125      0.822911     -0.777182
  B      -0.000792      1.795117     -0.722040
  B      -1.279473      0.815546     -0.765621
  B      -1.279932     -0.823099     -0.777185
  B       0.000852     -1.794679     -0.722519
  B       1.279808     -0.815497     -0.765852
12
Coordinates from ORCA-job input E -297.264745971701
  B       1.560896     -0.012399      0.767305
  B       0.781221      1.417125      0.757785
  B      -0.829602      1.459258      0.743186
  B      -1.562428      0.012204      0.766950
  B      -0.780203     -1.415867      0.757570
  B       0.830540     -1.460540      0.742287
  B       1.275529      0.824471     -0.777054
  B      -0.000607      1.799562     -0.720558
  B      -1.271765      0.812544     -0.769589
  B      -1.276324     -0.824661     -0.776951
  B       0.000622     -1.799110     -0.721201
  B       1.272121     -0.812587     -0.769731
12
Coordinates from ORCA-job input E -297.264789124544
  B       1.564025     -0.013218      0.766845
  B       0.781495      1.415294      0.756613
  B      -0.830349      1.457970      0.744484
  B      -1.565635      0.013100      0.766435
  B      -0.780448     -1.414216      0.756488
  B       0.831324     -1.459200      0.743588
  B       1.270725      0.823092     -0.775923
  B      -0.001798      1.802653     -0.718470
  B      -1.267964      0.812771     -0.772508
  B      -1.271494     -0.823221     -0.775745
  B       0.001719     -1.802107     -0.719203
  B       1.268399     -0.812918     -0.772605
12
Coordinates from ORCA-job input E -297.264803887005
  B       1.563486     -0.012170      0.766349
  B       0.782871      1.416165      0.754590
  B      -0.829819      1.456926      0.745341
  B      -1.565181      0.012061      0.765855
  B      -0.781795     -1.415268      0.754612
  B       0.830871     -1.458167      0.744473
  B       1.264035      0.824014     -0.775914
  B      -0.001396      1.810823     -0.713937
  B      -1.258522      0.811706     -0.775448
  B      -1.264714     -0.823981     -0.775715
  B       0.001168     -1.810210     -0.714671
  B       1.258996     -0.811899     -0.775536
12
Coordinates from ORCA-job input E -297.264827010286
  B       1.565844     -0.011017      0.765763
  B       0.783945      1.416235      0.752708
  B      -0.829060      1.454357      0.745494
  B      -1.567454      0.010856      0.765226
  B      -0.782892     -1.415384      0.752765
  B       0.830106     -1.455620      0.744656
  B       1.263536      0.823246     -0.774913
  B      -0.001718      1.812595     -0.712726
  B      -1.258687      0.812923     -0.775377
  B      -1.264262     -0.823182     -0.774728
  B       0.001448     -1.811923     -0.713410
  B       1.259192     -0.813084     -0.775459
12
Coordinates from ORCA-job input E -297.264874222476
  B       1.567718     -0.008576      0.765471
  B       0.785838      1.418353      0.750411
  B      -0.826786      1.450834      0.745044
  B      -1.569182      0.008323      0.764900
  B      -0.784813     -1.417510      0.750479
  B       0.827806     -1.452134      0.744246
  B       1.264460      0.823434     -0.773911
  B      -0.001155      1.814930     -0.711916
  B      -1.259207      0.814038     -0.774186
  B      -1.265303     -0.823396     -0.773773
  B       0.000921     -1.814212     -0.712508
  B       1.259703     -0.814084     -0.774259
12
Coordinates from ORCA-job input E -297.264873982287
  B       1.569076     -0.006942      0.765743
  B       0.787465      1.419902      0.749428
  B      -0.824970      1.448380      0.744988
  B      -1.570419      0.006647      0.765168
  B      -0.786455     -1.418993      0.749477
  B       0.825934     -1.449707      0.744198
  B       1.264704      0.823746     -0.773480
  B      -0.000780      1.816446     -0.712077
  B      -1.259019      0.814212     -0.773687
  B      -1.265613     -0.823764     -0.773358
  B       0.000578     -1.815680     -0.712667
  B       1.259497     -0.814246     -0.773731
12
Coordinates from ORCA-job input E -297.264879890651
  B       1.571001     -0.004792      0.766241
  B       0.789990      1.422356      0.748646
  B      -0.822201      1.445111      0.744922
  B      -1.572222      0.004533      0.765704
  B      -0.789041     -1.421402      0.748649
  B       0.823112     -1.446449      0.744126
  B       1.263860      0.824101     -0.773173
  B      -0.000351      1.818696     -0.712666
  B      -1.258139      0.814228     -0.773049
  B      -1.264876     -0.824200     -0.773055
  B       0.000220     -1.817923     -0.713289
  B       1.258646     -0.814259     -0.773056
12
Coordinates from ORCA-job input E -297.264894946711
  B       1.572821     -0.003178      0.766470
  B       0.792460      1.424485      0.748599
  B      -0.819662      1.442317      0.744875
  B      -1.573995      0.002963      0.766029
  B      -0.791568     -1.423537      0.748545
  B       0.820507     -1.443586      0.744068
  B       1.262015      0.823899     -0.773261
  B      -0.000381      1.820263     -0.713489
  B      -1.257561      0.814381     -0.772274
  B      -1.263072     -0.824082     -0.773137
  B       0.000323     -1.819473     -0.714158
  B       1.258111     -0.814451     -0.772268
12
Coordinates from ORCA-job input E -297.264896634154
  B       1.573776     -0.002409      0.766153
  B       0.794330      1.425846      0.749028
  B      -0.818007      1.440671      0.744965
  B      -1.574966      0.002258      0.765823
  B      -0.793510     -1.424965      0.748930
  B       0.818817     -1.441855      0.744152
  B       1.259648      0.823395     -0.773742
  B      -0.000862      1.821209     -0.713748
  B      -1.256928      0.814562     -0.771748
  B      -1.260678     -0.823582     -0.773610
  B       0.000824     -1.820443     -0.714436
  B       1.257556     -0.814686     -0.771768
12
Coordinates from ORCA-job input E -297.264893675698
  B       1.573992     -0.002231      0.765458
  B       0.795524      1.426488      0.749433
  B      -0.817170      1.439907      0.745211
  B      -1.575214      0.002101      0.765212
  B      -0.794754     -1.425691      0.749315
  B       0.817958     -1.441018      0.744408
  B       1.257641      0.822816     -0.774255
  B      -0.001559      1.821817     -0.713365
  B      -1.256516      0.814829     -0.771597
  B      -1.258591     -0.822958     -0.774125
  B       0.001492     -1.821071     -0.714033
  B       1.257198     -0.814989     -0.771663
