12
Optimized coordinates extracted from calculations/B12/bilayer_3d/d_2.0/mult_3/output.out
B        1.57399246      -0.00223146       0.76545822
B        0.79552369       1.42648767       0.74943271
B       -0.81717019       1.43990676       0.74521084
B       -1.57521384       0.00210139       0.76521237
B       -0.79475432      -1.42569092       0.74931497
B        0.81795756      -1.44101791       0.74440819
B        1.25764113       0.82281551      -0.77425463
B       -0.00155945       1.82181748      -0.71336504
B       -1.25651582       0.81482901      -0.77159734
B       -1.25859095      -0.82295785      -0.77412462
B        0.00149189      -1.82107095      -0.71403317
B        1.25719787      -0.81498873      -0.77166251
