12
B12 bilayer_3d; neutral charge=0; multiplicity=3; 3d initial geometry; nominal d=2.0 A; Two staggered non-planar B6 layers.
B        2.00000000       0.00000000       0.62000000
B        1.00000000       1.73205081       0.62000000
B       -1.00000000       1.73205081       0.62000000
B       -2.00000000       0.00000000       0.62000000
B       -1.00000000      -1.73205081       0.62000000
B        1.00000000      -1.73205081       0.62000000
B        1.62812776       0.94000000      -0.62000000
B        0.00000000       1.88000000      -0.62000000
B       -1.62812776       0.94000000      -0.62000000
B       -1.62812776      -0.94000000      -0.62000000
B       -0.00000000      -1.88000000      -0.62000000
B        1.62812776      -0.94000000      -0.62000000
