12
B12 planar_double_ring; neutral charge=0; multiplicity=3; planar initial geometry; nominal d=4.0 A; Planar B6@B6 double-ring control motif.
B        4.00000000       0.00000000       0.00000000
B        2.00000000       3.46410162       0.00000000
B       -2.00000000       3.46410162       0.00000000
B       -4.00000000       0.00000000       0.00000000
B       -2.00000000      -3.46410162       0.00000000
B        2.00000000      -3.46410162       0.00000000
B        6.00000000       3.46410162       0.00000000
B        0.00000000       6.92820323       0.00000000
B       -6.00000000       3.46410162       0.00000000
B       -6.00000000      -3.46410162       0.00000000
B       -0.00000000      -6.92820323       0.00000000
B        6.00000000      -3.46410162       0.00000000
