12
B12 random_3d_01; neutral charge=0; multiplicity=5; 3D initial geometry; nominal d=3.0 A; Random 3D B12 cloud with controlled minimum distance 01.
B       -2.17395735      -4.13645254       3.44824607
B       -1.69224385      -0.99728187      -1.66263213
B        2.52761945       1.50418527       2.05403678
B        2.09971148       2.72451881      -5.84962362
B        0.47988961       1.38993697      -2.08278240
B       -0.50712649       3.56171089       2.53382841
B        0.59736033       2.69932522       0.54301127
B        0.13214456      -3.26031234       0.10377891
B       -3.97698793      -1.72848109      -2.12499113
B        2.47419892      -3.16603946       1.32674690
B        0.85041218       5.10482381       3.67924195
B       -0.81102089      -3.69593366      -1.96886101
