12
B12 random_3d_02; neutral charge=0; multiplicity=5; 3D initial geometry; nominal d=3.0 A; Random 3D B12 cloud with controlled minimum distance 02.
B        1.84483661       3.49165634      -1.71538800
B        4.13191315      -2.29468784       5.36344327
B       -3.44926771       2.21370333      -0.81284830
B       -1.56859955       2.51400222       5.58267678
B       -0.34135077      -1.29801186       1.12698878
B       -2.38688107       3.89955109      -3.91309507
B        1.77484304       1.53079565      -4.68434036
B       -4.63950715       2.87892562       5.13037766
B        0.52086107      -3.48222206      -2.10596640
B       -2.30226839      -2.51991109      -3.01180679
B        3.38959531      -3.32134891      -4.25990971
B        3.02582545      -3.61245248       3.29986816
