12
B12 planar_triangular_patch; neutral charge=0; multiplicity=3; planar initial geometry; nominal d=5.0 A; Compact planar triangular-lattice B12 control motif.
B       -8.33333333      -4.33012702       0.00000000
B       -3.33333333      -4.33012702       0.00000000
B        1.66666667      -4.33012702       0.00000000
B        6.66666667      -4.33012702       0.00000000
B       -5.83333333       0.00000000       0.00000000
B       -0.83333333       0.00000000       0.00000000
B        4.16666667       0.00000000       0.00000000
B        9.16666667       0.00000000       0.00000000
B       -8.33333333       4.33012702       0.00000000
B       -3.33333333       4.33012702       0.00000000
B        1.66666667       4.33012702       0.00000000
B        6.66666667       4.33012702       0.00000000
