12
B12 icosahedron; neutral charge=0; multiplicity=5; 3d initial geometry; nominal d=3.0 A; Regular icosahedral B12 vertex shell.
B        0.00000000      -1.50000000      -2.42705098
B        0.00000000      -1.50000000       2.42705098
B        0.00000000       1.50000000      -2.42705098
B        0.00000000       1.50000000       2.42705098
B       -1.50000000      -2.42705098       0.00000000
B       -1.50000000       2.42705098       0.00000000
B        1.50000000      -2.42705098       0.00000000
B        1.50000000       2.42705098       0.00000000
B       -2.42705098       0.00000000      -1.50000000
B       -2.42705098       0.00000000       1.50000000
B        2.42705098       0.00000000      -1.50000000
B        2.42705098       0.00000000       1.50000000
