12
Optimized coordinates extracted from calculations\B12\compact_3d\d_4.0\mult_5\output.out
B        0.00000000       0.00000000       8.05244631
B        6.06826183       0.00000000       3.68124076
B       -3.03413092       5.24544667       3.68124076
B       -3.03413092      -5.24544667       3.68124076
B        3.70266824       6.06826183      -0.17570532
B       -3.70266824       6.06826183      -0.17570532
B        3.70266824      -6.06826183      -0.17570532
B       -3.70266824      -6.06826183      -0.17570532
B        5.75970614       0.00000000      -4.08407735
B       -5.75970614       0.00000000      -4.08407735
B        0.00000000       5.03974288      -5.11259630
B        0.00000000      -5.03974288      -5.11259630
