
                                 *****************
                                 * O   R   C   A *
                                 *****************

                                            #,                                       
                                            ###                                      
                                            ####                                     
                                            #####                                    
                                            ######                                   
                                           ########,                                 
                                     ,,################,,,,,                         
                               ,,#################################,,                 
                          ,,##########################################,,             
                       ,#########################################, ''#####,          
                    ,#############################################,,   '####,        
                  ,##################################################,,,,####,       
                ,###########''''           ''''###############################       
              ,#####''   ,,,,##########,,,,          '''####'''          '####       
            ,##' ,,,,###########################,,,                        '##       
           ' ,,###''''                  '''############,,,                           
         ,,##''                                '''############,,,,        ,,,,,,###''
      ,#''                                            '''#######################'''  
     '                                                          ''''####''''         
             ,#######,   #######,   ,#######,      ##                                
            ,#'     '#,  ##    ##  ,#'     '#,    #''#        ,####,    ,#,          
            ##       ##  ##   ,#'  ##            #'  '#       #'       ,# #          
            ##       ##  #######   ##           ,######,      #####,      #          
            '#,     ,#'  ##    ##  '#,     ,#' ,#      #,     #,   #      #          
             '#######'   ##     ##  '#######'  #'      '#     '####' #    #          



                #########################################################
                #                        -***-                          #
                #          Department of theory and spectroscopy        #
                #                                                       #
                #                      Frank Neese                      #
                #                                                       #
                #     Directorship, Architecture, Infrastructure        #
                #                    SHARK, DRIVERS                     #
                #        Core code/Algorithms in most modules           #
                #                                                       #
                #        Max Planck Institute fuer Kohlenforschung      #
                #                Kaiser Wilhelm Platz 1                 #
                #                 D-45470 Muelheim/Ruhr                 #
                #                      Germany                          #
                #                                                       #
                #                  All rights reserved                  #
                #                        -***-                          #
                #########################################################


                         Program Version 6.1.1  -  RELEASE   -
                                (GIT: $487d211c$)
                          ($2025-11-21 10:33:24 +0100$)
                                                                         
                                  - NO-DMRG VERSION -                    
                                                                         


 With contributions from (in alphabetic order):
[Max-Planck-Institut fuer Kohlenforschung]                               
  Daniel Aravena         : Magnetic Suceptibility                        
  Michael Atanasov       : Ab Initio Ligand Field Theory (pilot matlab implementation)
  Alexander A. Auer      : GIAO ZORA, VPT2 properties, NMR spectrum      
  Ute Becker             : All parallelization in ORCA, NUMFREQ, NUMCALC 
  Giovanni Bistoni       : ED, misc. LED, open-shell LED, HFLD           
  Dmytro Bykov           : pre 5.0 version of the SCF Hessian            
  Marcos Casanova-Páez   : Triplet and SCS-CIS(D). UHF-(DLPNO)-IP/EA/STEOM-CCSD. UHF-CVS-IP/STEOM-CCSD   
  Vijay G. Chilkuri      : MRCI spin determinant printing, contributions to CSF-ICE 
  Pauline Colinet        : FMM embedding                                 
  Dipayan Datta          : RHF DLPNO-CCSD density                        
  Achintya Kumar Dutta   : EOM-CC, STEOM-CC                              
  Nicolas Foglia         : Exact transition moments, OPA infrastructure, MCD improvements    
  Dmitry Ganyushin       : Spin-Orbit,Spin-Spin,Magnetic field MRCI      
  Miquel Garcia-Rates    : C-PCM and meta-GGA Hessian, CCSD/C-PCM, Gaussian charge scheme 
  Tiago L. C. Gouveia    : GS-ROHF, GS-ROCIS                             
  Yang Guo               : DLPNO-NEVPT2, F12-NEVPT2, CIM, IAO-localization        
  Andreas Hansen         : Spin unrestricted coupled pair/coupled cluster methods 
  Ingolf Harden          : AUTO-CI MPn and infrastructure                
  Benjamin Helmich-Paris : MC-RPA, TRAH-(SCF,CASSCF), AVAS, COSX integrals, SCF dyn. polar., MC-PDFT, srDFT 
  Lee Huntington         : MR-EOM, pCC                                   
  Robert Izsak           : Overlap fitted RIJCOSX, COSX-SCS-MP3, EOM     
  Riya Kayal             : Wick's Theorem for AUTO-CI, AUTO-CI UHF-CCSDT 
  Emily Kempfer          : AUTO-CI RHF CISDT and CCSDT, approximate NEVPT4
  Christian Kollmar      : KDIIS, OOCD, Brueckner-CCSD(T), CCSD density, CASPT2, CASPT2-K, improved NEVPT2 
  Axel Koslowski         : Symmetry handling                             
  Simone Kossmann        : meta-GGA functionals, TD-DFT gradient, OOMP2, (MP2 Hessian; deprecated post 5.0) 
  Lucas Lang             : DCDCAS, Hyperfine gauge corrections, ICE-SOC+SSC
  Marvin Lechner         : AUTO-CI (C++ implementation), FIC-MRCC        
  Spencer Leger          : CASSCF response                               
  Dagmar Lenk            : GEPOL surface, SMD, ORCA-2-JSON               
  Dimitrios Liakos       : Extrapolation schemes; Compound Job, Property file
  Dimitrios Manganas     : Further ROCIS development; embedding schemes. LFT, Crystal Embedding 
  Dimitrios Pantazis     : SARC Basis sets                               
  Anastasios Papadopoulos: AUTO-CI, single reference methods and gradients 
  Taras Petrenko         : pre 6.0 DFT Hessian and TD-DFT gradient,  ECA, NRVS 
  Petra Pikulova         : Analytic Raman intensities                    
  Peter Pinski           : DLPNO-MP2, DLPNO-MP2 Gradient                 
  Shashank Vittal Rao    : ES-AILFT, MagRelax                            
  Christoph Reimann      : Effective Core Potentials                     
  Marius Retegan         : Local ZFS, SOC                                
  Christoph Riplinger    : Optimizer, TS searches, QM/MM, DLPNO-CCSD(T), (RO)-DLPNO pert. Triples 
  Michael Roemelt        : Original ROCIS implementation, recursive CI coupling coefficients
  Masaaki Saitow         : Open-shell DLPNO-CCSD energy and density      
  Barbara Sandhoefer     : DKH picture change effects                    
  Yorick L. A. Schmerwitz: GMF and freeze-and-release deltaSCF, NEB S-IDPP initial path                    
  Kantharuban Sivalingam : CASSCF convergence/infrastructure, NEVPT2, NEVPT3, NEVPT4(SD), FIC-MRCI and CEPA variants
  Bernardo de Souza      : ESD, SOC TD-DFT                               
  Georgi L. Stoychev     : AutoAux, RI-MP2 NMR, DLPNO-MP2 response, X2C  
  Van Anh Tran           : RI-MP2 g-tensors                              
  Willem Van den Heuvel  : Paramagnetic NMR                              
  Zikuan Wang            : NOTCH, Electric field optimization            
  Frank Wennmohs         : Technical directorship and infrastructure     
  Hang Xu                : AUTO-CI-Response properties                   
                                                                         
[FACCTs GmbH]                                                            
  Markus Bursch, Nicolas Foglia, Miquel Garcia-Rates, Ingolf Harden, Hagen Neugebauer, Anastasios Papadopoulos, 
  Christoph Riplinger, Bernardo de Souza, Georgi L. Stoychev                                                    
                                                                 
  APM, various basis sets, CI-OPT, improved COSX, DLPNO-Multilevel,           
  DOCKER, DRACO, updates on ESD, Fragmentator, GOAT, IRC, LR-CPCM, L-BFGS, MBIS, meta-GGA TD-DFT gradient, ML-optimized integration grids, 
  MM, NACMEs, nearIR, NEB, NEB-TS, NL-DFT gradient (VV10), 2- and 3-layer-ONIOM, interface openCOSMO-RS, QMMM,   
  Crystal-QMMM, RESP, rigid body optimization, SF, symmetry and pop. for TD-DFT, various functionals, SOLVATOR                                   
                                                                         
[Other institutions]                                                     
  V. Asgeirsson          : NEB                                           
  Christoph Bannwarth    : sTDA-DFT, sTD-DFT, PBEh-3c, B97-3c, D3        
  Giovanni Bistoni       : ETS/NOCV, ADLD/ADEX, COVALED                  
  Martin Brehm           : Molecular dynamics                            
  Ronald Cardenas        : ETS/NOCV                                      
  Martina Colucci        : COVALED                                       
  Sebastian Ehlert       : rSCAN, r2SCAN, r2SCAN-3c, D4, dhf basis sets  
  Marvin Friede          : D4 for Fr, Ra, Ac-Lr                          
  Lars Goerigk           : TD-DFT with DH, B97 family of functionals     
  Stefan Grimme          : VdW corrections, initial TS optimization, DFT functionals, gCP, sTDA/sTD-DF 
  Waldemar Hujo          : DFT-NL                                        
  H. Jonsson             : NEB                                           
  Holger Kruse           : gCP                                           
  Marcel Mueller         : wB97X-3c, vDZP basis set                      
  Hagen Neugebauer       : wr2SCAN, Native XTB                           
  Gianluca Regni         : ADLD/ADEX                                     
  Tobias Risthaus        : pre 6.0 range-separated hybrid DFT and stability analysis
  Lukas Wittmann         : regularized MP2, r2SCAN double-hybrids, wr2SCAN        
                                                                         
We gratefully acknowledge several colleagues who have allowed us to      
interface, adapt or use parts of their codes:                            
  Ed Valeev, F. Pavosevic, A. Kumar             : LibInt (2-el integral package), F12 methods 
  Garnet Chan, S. Sharma, J. Yang, R. Olivares  : DMRG                   
  Ulf Ekstrom                                   : XCFun DFT Library      
  Mihaly Kallay                                 : mrcc  (arbitrary order and MRCC methods)
  Frank Weinhold                                : gennbo (NPA and NBO analysis)           
  Simon Mueller                                 : openCOSMO-RS                            
  Christopher J. Cramer and Donald G. Truhlar   : smd solvation model                     
  S Lehtola, MJT Oliveira, MAL Marques          : LibXC Library                           
  Liviu Ungur et al                             : ANISO software                          


 Your calculation uses the libint2 library for the computation of 2-el integrals
 For citations please refer to: http://libint.valeyev.net

 Your ORCA version has been built with support for libXC version: 7.0.0
 For citations please refer to: https://libxc.gitlab.io

 This ORCA versions uses:
   CBLAS   interface :  Fast vector & matrix operations
   LAPACKE interface :  Fast linear algebra routines
   SCALAPACK package :  Parallel linear algebra routines
   Shared memory     :  Shared parallel matrices
   BLAS/LAPACK       :  OpenBLAS 0.3.29  USE64BITINT DYNAMIC_ARCH NO_AFFINITY Zen SINGLE_THREADED
        Core in use  :  Zen
   Copyright (c) 2011-2014, The OpenBLAS Project


  ***********************************
  * Starting time: Thu May  7 08:00:55 2026
  * Host name:     vmi3233575
  * Process ID:    332881
  * Working dir.:  /root/B12_ORCA_workflow/calculations/B12/compact_3d/d_4.0/mult_5
  ***********************************

NOTE: MaxCore=2500 MB was set to SCF,MP2,MDCI,CIPSI,MRCI,RASCI and CIS
      => If you want to overwrite this, your respective input block should be placed after the MaxCore statement


***************************************
The coordinates will be read from file: start.xyz
***************************************


ReadChargeInXYXFile::Warning
Found 'charge' in the comment line of the xyz file
not followed by a number. If the intention was to pass
a charge, it's value will be ignored
ReadMultInXYXFile::WarningFound 'mult' or 'multiplicity' in the comment line of the xyz filenot followed by a number. If the intention was to passa multiplicity, it's value will be ignoredYour calculation utilizes the atom-pairwise dispersion correction
with the Becke-Johnson damping scheme (D3BJ)


================================================================================

----- Orbital basis set information -----
Your calculation utilizes the basis: def2-SVP
   F. Weigend and R. Ahlrichs, Phys. Chem. Chem. Phys. 7, 3297 (2005).

================================================================================
                                        WARNINGS
                       Please study these warnings very carefully!
================================================================================


WARNING: your system is open-shell and RHF/RKS was chosen
  ===> : WILL SWITCH to UHF/UKS


================================================================================
                                       INPUT FILE
================================================================================
NAME = input.inp
|  1> # B12 only. Neutral 3D boron cluster. Preliminary geometry optimization + frequency check.
|  2> # Alternative screening level: B3LYP-D3BJ/def2-SVP
|  3> # Run with: orca input.inp > output.out
|  4> 
|  5> ! PBE0 D3BJ def2-SVP NoRI Opt TightSCF NoAutoStart XYZFile
|  6> 
|  7> %pal
|  8> nprocs 8
|  9> end
| 10> 
| 11> %maxcore 2500
| 12> 
| 13> %geom
| 14> MaxIter 300
| 15> end
| 16> 
| 17> %scf
| 18> MaxIter 500
| 19> end
| 20> 
| 21> %output
| 22> PrintLevel Normal
| 23> Print[P_Cartesian] 1
| 24> end
| 25> 
| 26> * xyzfile 0 5 start.xyz
| 27> 
| 28>                          ****END OF INPUT****
================================================================================

                       *****************************
                       * Geometry Optimization Run *
                       *****************************

Geometry optimization settings:
Update method            Update   .... BFGS
Choice of coordinates    CoordSys .... (2022) Redundant Internals
Initial Hessian          InHess   .... Almloef's Model
Max. no of cycles        MaxIter  .... 300

Convergence Tolerances:
Energy Change            TolE     ....  5.0000e-06 Eh
Max. Gradient            TolMAXG  ....  3.0000e-04 Eh/bohr
RMS Gradient             TolRMSG  ....  1.0000e-04 Eh/bohr
Max. Displacement        TolMAXD  ....  4.0000e-03 bohr
RMS Displacement         TolRMSD  ....  2.0000e-03 bohr
Strict Convergence                .... False

------------------------------------------------------------------------------
                        ORCA OPTIMIZATION COORDINATE SETUP
------------------------------------------------------------------------------

The optimization will be done in redundant internal coordinates (2022)
Making redundant internal coordinates   ...  (2022 redundants) done
Evaluating the initial hessian          ...  (Almloef) done
Evaluating the coordinates              ...  done
Calculating the B-matrix                .... done
Calculating the G-matrix                .... done
The number of degrees of freedom        ....  290

    -----------------------------------------------------------------
                    Redundant Internal Coordinates


    -----------------------------------------------------------------
         Definition                    Initial Value    Approx d2E/dq
    -----------------------------------------------------------------
      1. B(B   1,B   0)                  7.4787         0.010000   
      2. B(B   2,B   0)                  7.4718         0.010000   
      3. B(B   3,B   0)                  7.4718         0.010000   
      4. B(B   4,B   2)                  7.8062         0.010000   
      5. B(B   4,B   1)                  7.5694         0.010000   
      6. B(B   4,B   0)                 10.8736         0.010000   
      7. B(B   5,B   4)                  7.4053         0.010000   
      8. B(B   5,B   2)                  4.0000         0.010000   
      9. B(B   6,B   1)                  7.5694         0.010000   
     10. B(B   6,B   3)                  7.8062         0.010000   
     11. B(B   6,B   4)                 12.1365         0.010000   
     12. B(B   6,B   0)                 10.8736         0.010000   
     13. B(B   7,B   6)                  7.4053         0.010000   
     14. B(B   7,B   3)                  4.0000         0.010000   
     15. B(B   8,B   1)                  7.7714         0.010000   
     16. B(B   8,B   6)                  7.5054         0.010000   
     17. B(B   8,B   4)                  7.5054         0.010000   
     18. B(B   9,B   6)                 11.9011         0.010000   
     19. B(B   9,B   4)                 11.9011         0.010000   
     20. B(B   9,B   0)                 13.4339         0.010000   
     21. B(B   9,B   7)                  7.5054         0.010000   
     22. B(B   9,B   5)                  7.5054         0.010000   
     23. B(B  10,B   5)                  6.2562         0.010000   
     24. B(B  10,B   9)                  7.7221         0.010000   
     25. B(B  10,B   4)                  6.2562         0.010000   
     26. B(B  10,B   8)                  7.7221         0.010000   
     27. B(B  11,B   9)                  7.7221         0.010000   
     28. B(B  11,B   6)                  6.2562         0.010000   
     29. B(B  11,B   8)                  7.7221         0.010000   
     30. B(B  11,B   7)                  6.2562         0.010000   
     31. A(B   1,B   0,B   2)           89.2868         0.089017   
     32. A(B   2,B   0,B   3)           89.1803         0.089017   
     33. A(B   1,B   0,B   3)           89.2868         0.089017   
     34. A(B   0,B   1,B   6)           92.5357         0.089015   
     35. A(B   0,B   1,B   4)           92.5357         0.089015   
     36. A(B   0,B   1,B   8)          123.4912         0.089013   
     37. A(B   4,B   1,B   6)          106.5822         0.089014   
     38. A(B   4,B   1,B   8)           58.5637         0.089012   
     39. A(B   6,B   1,B   8)           58.5637         0.089012   
     40. A(B   0,B   2,B   4)           90.7222         0.089013   
     41. A(B   4,B   2,B   5)           69.2764         0.089227   
     42. A(B   0,B   2,B   5)          140.9306         0.089300   
     43. A(B   0,B   3,B   6)           90.7222         0.089013   
     44. A(B   0,B   3,B   7)          140.9306         0.089300   
     45. A(B   6,B   3,B   7)           69.2764         0.089227   
     46. A(B   1,B   4,B   5)          108.2112         0.089016   
     47. A(B   1,B   4,B  10)          117.0813         0.089042   
     48. A(B   1,B   4,B   8)           62.0636         0.089015   
     49. A(B   5,B   4,B  10)           53.7126         0.089049   
     50. A(B   2,B   4,B   5)           30.3448         0.089013   
     51. A(B   5,B   4,B   8)          105.9069         0.089017   
     52. A(B   2,B   4,B  10)           82.0566         0.089035   
     53. A(B   1,B   4,B   2)           86.1839         0.089012   
     54. A(B   8,B   4,B  10)           67.5648         0.089045   
     55. A(B   2,B   4,B   8)          114.1167         0.089012   
     56. A(B   2,B   5,B   9)          112.4335         0.089292   
     57. A(B   4,B   5,B  10)           53.7126         0.089049   
     58. A(B   9,B   5,B  10)           67.5648         0.089045   
     59. A(B   2,B   5,B   4)           80.3788         0.089317   
     60. A(B   4,B   5,B   9)          105.9069         0.089017   
     61. A(B   2,B   5,B  10)          128.9145         0.089824   
     62. A(B   1,B   6,B   3)           86.1839         0.089012   
     63. A(B   1,B   6,B   7)          108.2112         0.089016   
     64. A(B   1,B   6,B  11)          117.0813         0.089042   
     65. A(B   8,B   6,B  11)           67.5648         0.089045   
     66. A(B   3,B   6,B   7)           30.3448         0.089013   
     67. A(B   3,B   6,B  11)           82.0566         0.089035   
     68. A(B   1,B   6,B   8)           62.0636         0.089015   
     69. A(B   3,B   6,B   8)          114.1167         0.089012   
     70. A(B   7,B   6,B   8)          105.9069         0.089017   
     71. A(B   7,B   6,B  11)           53.7126         0.089049   
     72. A(B   9,B   7,B  11)           67.5648         0.089045   
     73. A(B   3,B   7,B   9)          112.4335         0.089292   
     74. A(B   3,B   7,B   6)           80.3788         0.089317   
     75. A(B   3,B   7,B  11)          128.9145         0.089824   
     76. A(B   6,B   7,B   9)          105.9069         0.089017   
     77. A(B   6,B   7,B  11)           53.7126         0.089049   
     78. A(B   1,B   8,B  11)           99.3637         0.089011   
     79. A(B   1,B   8,B  10)           99.3637         0.089011   
     80. A(B   1,B   8,B   6)           59.3727         0.089013   
     81. A(B   1,B   8,B   4)           59.3727         0.089013   
     82. A(B  10,B   8,B  11)           81.4815         0.089011   
     83. A(B   6,B   8,B  11)           48.4909         0.089013   
     84. A(B   4,B   8,B  11)          113.1167         0.089013   
     85. A(B   6,B   8,B  10)          113.1167         0.089013   
     86. A(B   4,B   8,B  10)           48.4909         0.089013   
     87. A(B   4,B   8,B   6)          107.9037         0.089016   
     88. A(B  10,B   9,B  11)           81.4815         0.089011   
     89. A(B   7,B   9,B  11)           48.4909         0.089013   
     90. A(B   5,B   9,B  11)          113.1167         0.089013   
     91. A(B   7,B   9,B  10)          113.1167         0.089013   
     92. A(B   5,B   9,B  10)           48.4909         0.089013   
     93. A(B   5,B   9,B   7)          107.9037         0.089016   
     94. A(B   4,B  10,B   5)           72.5749         0.089126   
     95. A(B   4,B  10,B   8)           63.9443         0.089037   
     96. A(B   5,B  10,B   8)          116.3353         0.089037   
     97. A(B   8,B  10,B   9)           96.4680         0.089011   
     98. A(B   4,B  10,B   9)          116.3353         0.089037   
     99. A(B   5,B  10,B   9)           63.9443         0.089037   
    100. A(B   6,B  11,B   7)           72.5749         0.089126   
    101. A(B   6,B  11,B   8)           63.9443         0.089037   
    102. A(B   7,B  11,B   8)          116.3353         0.089037   
    103. A(B   8,B  11,B   9)           96.4680         0.089011   
    104. A(B   6,B  11,B   9)          116.3353         0.089037   
    105. A(B   7,B  11,B   9)           63.9443         0.089037   
    106. D(B   6,B   1,B   0,B   2)    -97.9610         0.010000   
    107. D(B   6,B   1,B   0,B   3)     -8.7720         0.010000   
    108. D(B   8,B   1,B   0,B   2)    -44.5945         0.010000   
    109. D(B   4,B   1,B   0,B   2)      8.7720         0.010000   
    110. D(B   8,B   1,B   0,B   3)     44.5945         0.010000   
    111. D(B   4,B   1,B   0,B   3)     97.9610         0.010000   
    112. D(B   5,B   2,B   0,B   1)     48.4133         0.010000   
    113. D(B   5,B   2,B   0,B   3)    -40.8836         0.010000   
    114. D(B   4,B   2,B   0,B   1)     -8.4961         0.010000   
    115. D(B   4,B   2,B   0,B   3)    -97.7930         0.010000   
    116. D(B   6,B   3,B   0,B   1)      8.4961         0.010000   
    117. D(B   7,B   3,B   0,B   2)     40.8836         0.010000   
    118. D(B   7,B   3,B   0,B   1)    -48.4133         0.010000   
    119. D(B   6,B   3,B   0,B   2)     97.7930         0.010000   
    120. D(B  10,B   4,B   2,B   5)    -19.1822         0.010000   
    121. D(B  10,B   4,B   2,B   0)    126.4456         0.010000   
    122. D(B   5,B   4,B   2,B   0)    145.6278         0.010000   
    123. D(B   1,B   4,B   2,B   0)      8.4117         0.010000   
    124. D(B   2,B   4,B   1,B   6)     84.9934         0.010000   
    125. D(B   5,B   4,B   1,B   8)     98.7499         0.010000   
    126. D(B   8,B   4,B   2,B   0)     65.4352         0.010000   
    127. D(B  10,B   4,B   1,B   6)      5.9265         0.010000   
    128. D(B   2,B   4,B   1,B   8)    119.9266         0.010000   
    129. D(B  10,B   4,B   1,B   8)     40.8596         0.010000   
    130. D(B   8,B   4,B   1,B   0)   -128.3381         0.010000   
    131. D(B   8,B   4,B   2,B   5)    -80.1926         0.010000   
    132. D(B  10,B   4,B   1,B   0)    -87.4785         0.010000   
    133. D(B   2,B   4,B   1,B   0)     -8.4115         0.010000   
    134. D(B   1,B   4,B   2,B   5)   -137.2161         0.010000   
    135. D(B   5,B   4,B   1,B   0)    -29.5883         0.010000   
    136. D(B   5,B   4,B   1,B   6)     63.8167         0.010000   
    137. D(B   9,B   5,B   4,B  10)     45.4474         0.010000   
    138. D(B  10,B   5,B   4,B   8)    -45.4474         0.010000   
    139. D(B   9,B   5,B   4,B   2)   -110.7417         0.010000   
    140. D(B  10,B   5,B   4,B   1)   -110.6715         0.010000   
    141. D(B   2,B   5,B   4,B   8)    110.7417         0.010000   
    142. D(B  10,B   5,B   4,B   2)   -156.1891         0.010000   
    143. D(B   9,B   5,B   4,B   1)    -65.2240         0.010000   
    144. D(B  10,B   5,B   2,B   4)     24.7231         0.010000   
    145. D(B   2,B   5,B   4,B   1)     45.5177         0.010000   
    146. D(B  10,B   5,B   2,B   0)    -38.8747         0.010000   
    147. D(B   2,B   5,B   4,B  10)    156.1891         0.010000   
    148. D(B   4,B   5,B   2,B   0)    -63.5978         0.010000   
    149. D(B   9,B   5,B   2,B   4)    103.3417         0.010000   
    150. D(B   9,B   5,B   4,B   8)      0.0000         0.010000   
    151. D(B   9,B   5,B   2,B   0)     39.7439         0.010000   
    152. D(B   8,B   6,B   3,B   0)    -65.4352         0.010000   
    153. D(B   1,B   6,B   3,B   0)     -8.4117         0.010000   
    154. D(B  11,B   6,B   3,B   7)     19.1822         0.010000   
    155. D(B  11,B   6,B   3,B   0)   -126.4456         0.010000   
    156. D(B   8,B   6,B   1,B   0)    128.3381         0.010000   
    157. D(B   7,B   6,B   3,B   0)   -145.6278         0.010000   
    158. D(B   3,B   6,B   1,B   8)   -119.9266         0.010000   
    159. D(B   3,B   6,B   1,B   4)    -84.9934         0.010000   
    160. D(B   1,B   6,B   3,B   7)    137.2161         0.010000   
    161. D(B  11,B   6,B   1,B   8)    -40.8596         0.010000   
    162. D(B  11,B   6,B   1,B   4)     -5.9265         0.010000   
    163. D(B  11,B   6,B   1,B   0)     87.4785         0.010000   
    164. D(B   7,B   6,B   1,B   0)     29.5883         0.010000   
    165. D(B   7,B   6,B   1,B   4)    -63.8167         0.010000   
    166. D(B   3,B   6,B   1,B   0)      8.4115         0.010000   
    167. D(B   8,B   6,B   3,B   7)     80.1926         0.010000   
    168. D(B   7,B   6,B   1,B   8)    -98.7499         0.010000   
    169. D(B   9,B   7,B   6,B   8)      0.0000         0.010000   
    170. D(B   9,B   7,B   6,B   3)    110.7417         0.010000   
    171. D(B  11,B   7,B   6,B   3)    156.1891         0.010000   
    172. D(B   3,B   7,B   6,B   8)   -110.7417         0.010000   
    173. D(B   3,B   7,B   6,B   1)    -45.5177         0.010000   
    174. D(B  11,B   7,B   6,B   1)    110.6715         0.010000   
    175. D(B   3,B   7,B   6,B  11)   -156.1891         0.010000   
    176. D(B  11,B   7,B   6,B   8)     45.4474         0.010000   
    177. D(B   9,B   7,B   3,B   6)   -103.3417         0.010000   
    178. D(B   9,B   7,B   3,B   0)    -39.7439         0.010000   
    179. D(B   6,B   7,B   3,B   0)     63.5978         0.010000   
    180. D(B   9,B   7,B   6,B   1)     65.2240         0.010000   
    181. D(B  11,B   7,B   3,B   6)    -24.7231         0.010000   
    182. D(B  11,B   7,B   3,B   0)     38.8747         0.010000   
    183. D(B   9,B   7,B   6,B  11)    -45.4474         0.010000   
    184. D(B  11,B   8,B   6,B   3)    -69.5954         0.010000   
    185. D(B  11,B   8,B   6,B   7)    -38.4213         0.010000   
    186. D(B  10,B   8,B   6,B   1)    -87.2976         0.010000   
    187. D(B  10,B   8,B   6,B   7)     15.2178         0.010000   
    188. D(B  10,B   8,B   6,B  11)     53.6390         0.010000   
    189. D(B   4,B   8,B   6,B   1)    -35.5670         0.010000   
    190. D(B   4,B   8,B   6,B   3)     35.7743         0.010000   
    191. D(B   4,B   8,B   6,B   7)     66.9484         0.010000   
    192. D(B   4,B   8,B   6,B  11)    105.3696         0.010000   
    193. D(B  11,B   8,B   4,B   1)     87.2976         0.010000   
    194. D(B  11,B   8,B   4,B   5)    -15.2178         0.010000   
    195. D(B  11,B   8,B   4,B  10)    -53.6390         0.010000   
    196. D(B  10,B   8,B   4,B   1)    140.9367         0.010000   
    197. D(B  10,B   8,B   1,B   0)     41.4106         0.010000   
    198. D(B   6,B   8,B   4,B   2)    -35.7743         0.010000   
    199. D(B  11,B   8,B   4,B   2)     15.9564         0.010000   
    200. D(B   6,B   8,B   4,B   5)    -66.9484         0.010000   
    201. D(B  10,B   8,B   1,B   4)    -28.5733         0.010000   
    202. D(B  10,B   8,B   1,B   6)    111.3946         0.010000   
    203. D(B   6,B   8,B   4,B  10)   -105.3696         0.010000   
    204. D(B   6,B   8,B   4,B   1)     35.5670         0.010000   
    205. D(B   6,B   8,B   1,B   4)   -139.9679         0.010000   
    206. D(B  10,B   8,B   4,B   5)     38.4213         0.010000   
    207. D(B  10,B   8,B   6,B   3)    -15.9564         0.010000   
    208. D(B   6,B   8,B   1,B   0)    -69.9839         0.010000   
    209. D(B   4,B   8,B   1,B   6)    139.9679         0.010000   
    210. D(B   4,B   8,B   1,B   0)     69.9839         0.010000   
    211. D(B  11,B   8,B   6,B   1)   -140.9367         0.010000   
    212. D(B  10,B   8,B   4,B   2)     69.5954         0.010000   
    213. D(B  11,B   9,B   7,B   3)    124.3867         0.010000   
    214. D(B  10,B   9,B   7,B   6)    -15.2178         0.010000   
    215. D(B  10,B   9,B   7,B  11)    -53.6390         0.010000   
    216. D(B   5,B   9,B   7,B   6)    -66.9484         0.010000   
    217. D(B   5,B   9,B   7,B  11)   -105.3696         0.010000   
    218. D(B   5,B   9,B   7,B   3)     19.0170         0.010000   
    219. D(B  11,B   9,B   5,B   4)     15.2178         0.010000   
    220. D(B  11,B   9,B   5,B  10)     53.6390         0.010000   
    221. D(B  11,B   9,B   5,B   2)    -70.7476         0.010000   
    222. D(B  10,B   9,B   5,B   4)    -38.4213         0.010000   
    223. D(B  10,B   9,B   7,B   3)     70.7476         0.010000   
    224. D(B  10,B   9,B   5,B   2)   -124.3867         0.010000   
    225. D(B   7,B   9,B   5,B   4)     66.9484         0.010000   
    226. D(B   7,B   9,B   5,B  10)    105.3696         0.010000   
    227. D(B  11,B   9,B   7,B   6)     38.4213         0.010000   
    228. D(B   7,B   9,B   5,B   2)    -19.0170         0.010000   
    229. D(B   8,B  10,B   4,B   5)   -132.1459         0.010000   
    230. D(B   5,B  10,B   4,B   8)    132.1459         0.010000   
    231. D(B   5,B  10,B   4,B   1)     93.4417         0.010000   
    232. D(B   5,B  10,B   4,B   2)     11.8843         0.010000   
    233. D(B   8,B  10,B   9,B  11)    -15.3024         0.010000   
    234. D(B   8,B  10,B   9,B   7)     22.2708         0.010000   
    235. D(B   8,B  10,B   9,B   5)    116.2024         0.010000   
    236. D(B   4,B  10,B   9,B   7)    -41.8081         0.010000   
    237. D(B   4,B  10,B   9,B   5)     52.1235         0.010000   
    238. D(B   5,B  10,B   9,B  11)   -131.5048         0.010000   
    239. D(B   5,B  10,B   9,B   7)    -93.9316         0.010000   
    240. D(B   4,B  10,B   8,B   1)     33.3390         0.010000   
    241. D(B   4,B  10,B   8,B  11)    131.5048         0.010000   
    242. D(B   4,B  10,B   8,B   6)     93.9316         0.010000   
    243. D(B   5,B  10,B   8,B   1)    -18.7845         0.010000   
    244. D(B   5,B  10,B   8,B  11)     79.3814         0.010000   
    245. D(B   5,B  10,B   8,B   6)     41.8081         0.010000   
    246. D(B   5,B  10,B   8,B   4)    -52.1235         0.010000   
    247. D(B   9,B  10,B   5,B   2)    101.3778         0.010000   
    248. D(B   8,B  10,B   5,B   9)    -84.1394         0.010000   
    249. D(B   8,B  10,B   5,B   4)     48.0065         0.010000   
    250. D(B   8,B  10,B   5,B   2)     17.2384         0.010000   
    251. D(B   4,B  10,B   5,B   9)   -132.1459         0.010000   
    252. D(B   4,B  10,B   5,B   2)    -30.7681         0.010000   
    253. D(B   9,B  10,B   4,B   8)     84.1394         0.010000   
    254. D(B   9,B  10,B   4,B   1)     45.4352         0.010000   
    255. D(B   4,B  10,B   9,B  11)    -79.3814         0.010000   
    256. D(B   9,B  10,B   4,B   2)    -36.1222         0.010000   
    257. D(B   9,B  10,B   4,B   5)    -48.0065         0.010000   
    258. D(B   8,B  10,B   4,B   1)    -38.7042         0.010000   
    259. D(B   8,B  10,B   4,B   2)   -120.2616         0.010000   
    260. D(B   8,B  11,B   9,B  10)     15.3024         0.010000   
    261. D(B   8,B  11,B   9,B   7)   -116.2024         0.010000   
    262. D(B   6,B  11,B   9,B  10)     79.3814         0.010000   
    263. D(B   6,B  11,B   9,B   7)    -52.1235         0.010000   
    264. D(B   6,B  11,B   9,B   5)     41.8081         0.010000   
    265. D(B   7,B  11,B   9,B  10)    131.5048         0.010000   
    266. D(B   7,B  11,B   9,B   5)     93.9316         0.010000   
    267. D(B   6,B  11,B   8,B   1)    -33.3390         0.010000   
    268. D(B   6,B  11,B   8,B  10)   -131.5048         0.010000   
    269. D(B   7,B  11,B   8,B   1)     18.7845         0.010000   
    270. D(B   7,B  11,B   8,B  10)    -79.3814         0.010000   
    271. D(B   7,B  11,B   8,B   6)     52.1235         0.010000   
    272. D(B   7,B  11,B   8,B   4)    -41.8081         0.010000   
    273. D(B   9,B  11,B   7,B   3)   -101.3778         0.010000   
    274. D(B   8,B  11,B   7,B   9)     84.1394         0.010000   
    275. D(B   8,B  11,B   7,B   6)    -48.0065         0.010000   
    276. D(B   8,B  11,B   7,B   3)    -17.2384         0.010000   
    277. D(B   6,B  11,B   7,B   9)    132.1459         0.010000   
    278. D(B   6,B  11,B   7,B   3)     30.7681         0.010000   
    279. D(B   6,B  11,B   8,B   4)    -93.9316         0.010000   
    280. D(B   9,B  11,B   6,B   8)    -84.1394         0.010000   
    281. D(B   9,B  11,B   6,B   1)    -45.4352         0.010000   
    282. D(B   9,B  11,B   6,B   3)     36.1222         0.010000   
    283. D(B   9,B  11,B   6,B   7)     48.0065         0.010000   
    284. D(B   8,B  11,B   6,B   1)     38.7042         0.010000   
    285. D(B   8,B  11,B   6,B   3)    120.2616         0.010000   
    286. D(B   8,B  11,B   6,B   7)    132.1459         0.010000   
    287. D(B   8,B  11,B   9,B   5)    -22.2708         0.010000   
    288. D(B   7,B  11,B   6,B   8)   -132.1459         0.010000   
    289. D(B   7,B  11,B   6,B   1)    -93.4417         0.010000   
    290. D(B   7,B  11,B   6,B   3)    -11.8843         0.010000   
    -----------------------------------------------------------------

Number of atoms                         .... 12
Number of degrees of freedom            .... 290


         *************************************************************
         *                GEOMETRY OPTIMIZATION CYCLE   1            *
         *************************************************************
---------------------------------
CARTESIAN COORDINATES (ANGSTROEM)
---------------------------------
  B      0.000000    0.000000    8.052446
  B      6.068262    0.000000    3.681241
  B     -3.034131    5.245447    3.681241
  B     -3.034131   -5.245447    3.681241
  B      3.702668    6.068262   -0.175705
  B     -3.702668    6.068262   -0.175705
  B      3.702668   -6.068262   -0.175705
  B     -3.702668   -6.068262   -0.175705
  B      5.759706    0.000000   -4.084077
  B     -5.759706    0.000000   -4.084077
  B      0.000000    5.039743   -5.112596
  B      0.000000   -5.039743   -5.112596

----------------------------
CARTESIAN COORDINATES (A.U.)
----------------------------
  NO LB      ZA    FRAG     MASS         X           Y           Z
   0 B     5.0000    0    10.810    0.000000    0.000000   15.216918
   1 B     5.0000    0    10.810   11.467353    0.000000    6.956537
   2 B     5.0000    0    10.810   -5.733676    9.912458    6.956537
   3 B     5.0000    0    10.810   -5.733676   -9.912458    6.956537
   4 B     5.0000    0    10.810    6.997029   11.467353   -0.332035
   5 B     5.0000    0    10.810   -6.997029   11.467353   -0.332035
   6 B     5.0000    0    10.810    6.997029  -11.467353   -0.332035
   7 B     5.0000    0    10.810   -6.997029  -11.467353   -0.332035
   8 B     5.0000    0    10.810   10.884267    0.000000   -7.717788
   9 B     5.0000    0    10.810  -10.884267    0.000000   -7.717788
  10 B     5.0000    0    10.810    0.000000    9.523734   -9.661407
  11 B     5.0000    0    10.810    0.000000   -9.523734   -9.661407

--------------------------------
INTERNAL COORDINATES (ANGSTROEM)
--------------------------------
 B      0   0   0     0.000000000000     0.00000000     0.00000000
 B      1   0   0     7.478719114781     0.00000000     0.00000000
 B      1   2   0     7.471820338302    89.28681777     0.00000000
 B      1   2   3     7.471820338302    89.28681777    89.18904979
 B      2   1   3     7.569403393565    92.53565476     8.77197036
 B      3   1   2     3.999999999973   140.93055773    48.41330500
 B      2   1   3     7.569403393565    92.53565476   262.03897985
 B      4   1   2     3.999999999973   140.93055773   311.58669500
 B      5   2   1     7.505369976514    62.06359555   231.66187843
 B      6   3   1     7.505369976514   112.43351156    39.74394640
 B      5   2   1     6.256236558381   117.08129150   272.52151094
 B      7   2   1     6.256236558381   117.08129150    87.47848906

---------------------------
INTERNAL COORDINATES (A.U.)
---------------------------
 B      0   0   0     0.000000000000     0.00000000     0.00000000
 B      1   0   0    14.132730959457     0.00000000     0.00000000
 B      1   2   0    14.119694161254    89.28681777     0.00000000
 B      1   2   3    14.119694161254    89.28681777    89.18904979
 B      2   1   3    14.304099411012    92.53565476     8.77197036
 B      3   1   2     7.558904535634   140.93055773    48.41330500
 B      2   1   3    14.304099411012    92.53565476   262.03897985
 B      4   1   2     7.558904535634   140.93055773   311.58669500
 B      5   2   1    14.183093789366    62.06359555   231.66187843
 B      6   3   1    14.183093789366   112.43351156    39.74394640
 B      5   2   1    11.822573724366   117.08129150   272.52151094
 B      7   2   1    11.822573724366   117.08129150    87.47848906

---------------------
BASIS SET INFORMATION
---------------------
There are 1 groups of distinct atoms

 Group   1 Type B   : 7s4p1d contracted to 3s2p1d pattern {511/31/1}

Atom   0B    basis set group =>   1
Atom   1B    basis set group =>   1
Atom   2B    basis set group =>   1
Atom   3B    basis set group =>   1
Atom   4B    basis set group =>   1
Atom   5B    basis set group =>   1
Atom   6B    basis set group =>   1
Atom   7B    basis set group =>   1
Atom   8B    basis set group =>   1
Atom   9B    basis set group =>   1
Atom  10B    basis set group =>   1
Atom  11B    basis set group =>   1


           ************************************************************
           *        Program running with 8 parallel MPI-processes     *
           *              working on a common directory               *
           ************************************************************
------------------------------------------------------------------------------
                             ORCA STARTUP CALCULATIONS
------------------------------------------------------------------------------
------------------------------------------------------------------------------
                   ___                                                        
                  /   \      - P O W E R E D   B Y -                         
                 /     \                                                     
                 |  |  |   _    _      __       _____    __    __             
                 |  |  |  | |  | |    /  \     |  _  \  |  |  /  |          
                  \  \/   | |  | |   /    \    | | | |  |  | /  /          
                 / \  \   | |__| |  /  /\  \   | |_| |  |  |/  /          
                |  |  |   |  __  | /  /__\  \  |    /   |      \           
                |  |  |   | |  | | |   __   |  |    \   |  |\   \          
                \     /   | |  | | |  |  |  |  | |\  \  |  | \   \       
                 \___/    |_|  |_| |__|  |__|  |_| \__\ |__|  \__/        
                                                                              
                      - O R C A' S   B I G   F R I E N D -                    
                                      &                                       
                       - I N T E G R A L  F E E D E R -                       
                                                                              
 v1 FN, 2020, v2 2021, v3 2022-2024                                           
------------------------------------------------------------------------------


----------------------
SHARK INTEGRAL PACKAGE
----------------------

Number of atoms                             ...     12
Number of basis functions                   ...    168
Number of shells                            ...     72
Maximum angular momentum                    ...      2
Integral batch strategy                     ... SHARK/LIBINT Hybrid
RI-J (if used) integral strategy            ... SPLIT-RIJ (Revised 2003 algorithm where possible)
Printlevel                                  ...      1
Contraction scheme used                     ... SEGMENTED contraction
Prescreening option                         ... SCHWARTZ
   Thresh                                   ... 2.500e-11
   Tcut                                     ... 2.500e-12
   Tpresel                                  ... 2.500e-12 
Coulomb Range Separation                    ... NOT USED
Exchange Range Separation                   ... NOT USED
Multipole approximations                    ... NOT USED
Finite Nucleus Model                        ... NOT USED
CABS basis                                  ... NOT available
Auxiliary Coulomb fitting basis             ... NOT available
Auxiliary J/K fitting basis                 ... NOT available
Auxiliary Correlation fitting basis         ... NOT available
Auxiliary 'external' fitting basis          ... NOT available

Checking pre-screening integrals            ... done (  0.0 sec) Dimension = 72
   => SHARK Basis and OBASIS are compatible. Storing Pre-screening
Shell pair information
Shell pair cut-off parameter TPreSel        ...   2.5e-12
Total number of shell pairs                 ...      2628
Shell pairs after pre-screening             ...      1009
Total number of primitive shell pairs       ...     10596
Primitive shell pairs kept                  ...      2437
          la=0 lb=0:    260 shell pairs
          la=1 lb=0:    374 shell pairs
          la=1 lb=1:    157 shell pairs
          la=2 lb=0:    110 shell pairs
          la=2 lb=1:     94 shell pairs
          la=2 lb=2:     14 shell pairs

Checking whether 4 symmetric matrices of dimension 168 fit in memory
:Max Core in MB      =   2500.00
 MB in use           =      2.47
 MB left             =   2497.53
 MB needed           =      0.43
 Data fit in memory  = YES
Calculating Nuclear repulsion               ... done (  0.0 sec) ENN=     93.068236248129 Eh

Diagonalization of the overlap matrix:
Smallest eigenvalue                        ... 1.352e-01
Time for diagonalization                   ...    0.004 sec
Threshold for overlap eigenvalues          ... 1.000e-07
Number of eigenvalues below threshold      ... 0
Time for construction of square roots      ...    0.002 sec
Total time needed                          ...    0.043 sec

-------------------
DFT GRID GENERATION
-------------------

General Integration Accuracy     IntAcc      ... 4.388
Radial Grid Type                 RadialGrid  ... OptM3 with GC (2021)
Angular Grid (max. ang.)         AngularGrid ... 4 (Lebedev-302)
Angular grid pruning method      GridPruning ... 4 (adaptive)
Weight generation scheme         WeightScheme... mBecke (2022)
Basis function cutoff            BFCut       ... 1.0000e-11
Integration weight cutoff        WCut        ... 1.0000e-14
Partially contracted basis set               ... off
Rotationally invariant grid construction     ... off
Angular grids for H and He will be reduced by one unit

Total number of grid points                  ...    73628
Total number of batches                      ...     1156
Average number of points per batch           ...       63
Average number of grid points per atom       ...     6136
Grids setup in   0.9 sec
Initializing property integral containers    ... done (  0.0 sec)

SHARK setup successfully completed in   1.1 seconds

Maximum memory used throughout the entire STARTUP-calculation: 15.6 MB


           ************************************************************
           *        Program running with 8 parallel MPI-processes     *
           *              working on a common directory               *
           ************************************************************
-------------------------------------------------------------------------------
                                 ORCA GUESS
                   Start orbitals & Density for SCF / CASSCF
-------------------------------------------------------------------------------

------------
SCF SETTINGS
------------
Hamiltonian:
 Density Functional     Method          .... DFT(GTOs)
 Exchange Functional    Exchange        .... PBE
   PBE kappa parameter   XKappa         ....  0.804000
   PBE mue parameter    XMuePBE         ....  0.219520
 Correlation Functional Correlation     .... PBE
   PBE beta parameter  CBetaPBE         ....  0.066725
 LDA part of GGA corr.  LDAOpt          .... PW91-LDA
 Gradients option       PostSCFGGA      .... off
 Hybrid DFT is turned on
   Fraction HF Exchange ScalHFX         ....  0.250000
   Scaling of DF-GGA-X  ScalDFX         ....  0.750000
   Scaling of DF-GGA-C  ScalDFC         ....  1.000000
   Scaling of DF-LDA-C  ScalLDAC        ....  1.000000
   Perturbative correction              ....  0.000000
   NL short-range parameter             ....  6.900000


General Settings:
 Integral files         IntName         .... input
 Hartree-Fock type      HFTyp           .... UHF
 Total Charge           Charge          ....    0
 Multiplicity           Mult            ....    5
 Number of Electrons    NEL             ....   60
 Basis Dimension        Dim             ....  168
 Nuclear Repulsion      ENuc            ....     93.0682362481 Eh

Convergence Acceleration:
 AO-DIIS                CNVDIIS         .... on
   Start iteration      DIISMaxIt       ....    12
   Startup error        DIISStart       ....  0.200000
   # of expansion vecs  DIISMaxEq       ....     5
   Bias factor          DIISBfac        ....   1.050
   Max. coefficient     DIISMaxC        ....  10.000
 MO-DIIS                CNVKDIIS        .... off
 Trust-Rad. Augm. Hess. CNVTRAH         .... auto
   Auto Start mean grad. ratio tolernc. ....  1.125000
   Auto Start start iteration           ....    50
   Auto Start num. interpolation iter.  ....    10
   Max. Number of Micro iterations      ....    24
   Max. Number of Macro iterations      .... Maxiter - #DIIS iter
   Number of Davidson start vectors     ....     2
   Converg. threshold    (grad. norm)   ....   1.000e-05
   Grad. Scal. Fac. for Micro threshold ....   0.100
   Minimum threshold for Micro iter.    ....   1.000e-02
   NR start threshold (gradient norm)   ....   1.000e-04
   Initial trust radius                 ....   0.400
   Minimum AH scaling param. (alpha)    ....   1.000
   Maximum AH scaling param. (alpha)    .... 1000.000
   Quad. conv. algorithm                .... NR
   White noise on init. David. guess    .... on
   Maximum white noise                  ....   0.010
   Pseudo random numbers                .... off
   Inactive MOs                         .... canonical
   Orbital update algorithm             .... Taylor
   Preconditioner                       .... Diag
   Full preconditioner red. dimension   ....   250
 SOSCF                 CNVSOSCF           .... on
   Start iteration     SOSCFMaxIt         ....   150
   Startup grad/error  SOSCFStart         ....  0.003300
   Hessian update      SOSCFHessUp        .... L-BFGS
   Autom. constraints  SOSCFAutoConstrain .... off
 Level Shifting         CNVShift        .... on
   Level shift para.    LevelShift      ....    0.2500
   Turn off err/grad.   ShiftErr        ....    0.0010
 Zerner damping         CNVZerner       .... off
 Static damping         CNVDamp         .... on
   Fraction old density DampFac         ....    0.7000
   Max. Damping (<1)    DampMax         ....    0.9800
   Min. Damping (>=0)   DampMin         ....    0.0000
   Turn off err/grad.   DampErr         ....    0.1000

SCF Procedure:
 Maximum # iterations   MaxIter         ....   500
 SCF integral mode      SCFMode         .... Direct
   Integral package                     .... SHARK and LIBINT hybrid scheme
 Reset frequency        DirectResetFreq ....    20
 Integral Threshold     Thresh          ....  2.500e-11 Eh
 Primitive CutOff       TCut            ....  2.500e-12 Eh

Convergence Tolerance:
 Convergence Check Mode ConvCheckMode   .... Total+1el-Energy
 Convergence forced     ConvForced      .... 0
 Energy Change          TolE            ....  1.000e-08 Eh
 1-El. energy change                    ....  1.000e-05 Eh
 Orbital Gradient       TolG            ....  1.000e-05
 Orbital Rotation angle TolX            ....  1.000e-05
 DIIS Error             TolErr          ....  5.000e-07

------------------------------
INITIAL GUESS: MODEL POTENTIAL
------------------------------
Loading Hartree-Fock densities                     ... done
Calculating cut-offs                               ... done
Initializing the effective Hamiltonian             ... done
Setting up the integral package (SHARK)            ... done
Starting the Coulomb interaction                   ... done (   0.1 sec)
Making the grid                                    ... done (   0.2 sec)
Mapping shells                                     ... done
Starting the XC term evaluation                    ... done (   0.0 sec)
  promolecular density results
     # of electrons  =     59.999290730
     EX              =    -43.872433494
     EC              =     -1.393544929
     EX+EC           =    -45.265978423
Transforming the Hamiltonian                       ... done (   0.0 sec)
Diagonalizing the Hamiltonian                      ... done (   0.0 sec)
Back transforming the eigenvectors                 ... done (   0.0 sec)
Now organizing SCF variables                       ... done
                      ------------------
                      INITIAL GUESS DONE (   0.3 sec)
                      ------------------
             **** ENERGY FILE WAS UPDATED (input.en.tmp) ****
Finished Guess after   0.8 sec
Maximum memory used throughout the entire GUESS-calculation: 6.2 MB


           ************************************************************
           *        Program running with 8 parallel MPI-processes     *
           *              working on a common directory               *
           ************************************************************

-------------------------------------------------------------------------------------------
                                      ORCA LEAN-SCF
                              memory conserving SCF solver
-------------------------------------------------------------------------------------------

----------------------------------------D-I-I-S--------------------------------------------
Iteration    Energy (Eh)           Delta-E    RMSDP     MaxDP     DIISErr   Damp  Time(sec)
-------------------------------------------------------------------------------------------
               ***  Starting incremental Fock matrix formation  ***
    1    -292.3657509022319232     0.00e+00  1.97e-02  1.92e-01  6.56e-02  0.700   0.4
Warning: op=0 Small HOMO/LUMO gap (  -0.662) - skipping pre-diagonalization
         LevelShift set to 0.762 Eh
         Will do a full diagonalization
    2    -293.2850449395864416    -9.19e-01  1.31e-02  1.17e-01  5.28e-02  0.700   0.3
                               ***Turning on AO-DIIS***
    3    -290.7591319051824712     2.53e+00  9.87e-03  9.03e-02  8.90e-02  0.700   0.3
    4    -287.6117679675249974     3.15e+00  2.47e-02  2.47e-01  1.29e-01  0.000   0.4
    5    -276.2210000584278191     1.14e+01  1.16e-03  1.87e-02  2.47e-01  0.700   0.5
    6    -276.3781892015157382    -1.57e-01  2.30e-03  4.21e-02  2.72e-01  0.700   0.4
    7    -276.7306656949478452    -3.52e-01  4.73e-03  7.26e-02  3.05e-01  0.700   0.4
    8    -277.6215126982680204    -8.91e-01  1.95e-02  2.14e-01  2.63e-01  0.700   0.3
    9    -287.7059782217672819    -1.01e+01  2.01e-02  2.43e-01  1.25e-01  0.700   0.7
   10    -292.3203403320762845    -4.61e+00  1.24e-02  1.42e-01  3.97e-02  0.700   0.6
   11    -292.0217704122290456     2.99e-01  2.72e-02  3.31e-01  7.86e-02  0.000   0.5
   12    -280.9724278263948918     1.10e+01  5.02e-03  6.63e-02  3.30e-01  0.000   0.4
   13    -281.4236317021526474    -4.51e-01  8.54e-04  1.11e-02  3.06e-01  0.700   0.5
   14    -281.4917440388632031    -6.81e-02  1.14e-03  1.47e-02  3.02e-01  0.700   0.3
   15    -281.5794482491385793    -8.77e-02  2.34e-03  2.81e-02  2.96e-01  0.700   0.4
   16    -281.7951812942355332    -2.16e-01  3.04e-02  3.63e-01  2.82e-01  0.700   0.4
   17    -290.7991065350650501    -9.00e+00  1.90e-02  3.03e-01  9.05e-02  0.700   0.3
   18    -291.3790147409505948    -5.80e-01  4.18e-02  5.93e-01  1.06e-01  0.000   0.4
   19    -272.7313074240159949     1.86e+01  4.04e-03  4.64e-02  5.18e-01  0.700   0.3
   20    -273.3533202505422537    -6.22e-01  5.35e-03  5.69e-02  5.18e-01  0.700   0.4
               *** Restarting incremental Fock matrix formation ***
                             ****Resetting DIIS****
Warning: op=0 Small HOMO/LUMO gap (  -3.431) - skipping pre-diagonalization
         LevelShift set to 1.000 Eh
         Will do a full diagonalization
   21    -274.1470454759297581    -7.94e-01  3.39e-02  3.65e-01  5.17e-01  0.700   0.4
   22    -288.3656262445178982    -1.42e+01  1.79e-02  1.71e-01  2.25e-01  0.700   0.3
   23    -289.8540614027930360    -1.49e+00  1.18e-02  1.20e-01  1.14e-01  0.700   0.3
   24    -287.5720040086292215     2.28e+00  1.03e-02  8.38e-02  1.82e-01  0.700   0.3
   25    -284.8697959880595931     2.70e+00  9.45e-03  8.66e-02  2.10e-01  0.700   0.3
   26    -282.8443700206024118     2.03e+00  8.44e-03  7.80e-02  2.13e-01  0.700   0.3
   27    -281.8158958678682211     1.03e+00  7.03e-03  9.82e-02  2.65e-01  0.700   0.4
   28    -281.5165930546517643     2.99e-01  8.71e-03  1.26e-01  3.45e-01  0.700   0.4
   29    -281.9774535409878240    -4.61e-01  2.17e-02  2.55e-01  3.12e-01  0.700   0.3
   30    -289.7882359853910543    -7.81e+00  1.59e-02  2.95e-01  1.40e-01  0.700   0.4
   31    -291.8737491199472629    -2.09e+00  1.08e-02  1.56e-01  9.40e-02  0.700   0.4
   32    -291.5617520474351636     3.12e-01  2.86e-02  3.37e-01  1.42e-01  0.000   0.4
   33    -285.7042561434585650     5.86e+00  2.14e-03  3.54e-02  2.45e-01  0.700   0.3
   34    -285.8189257034379693    -1.15e-01  3.02e-03  4.97e-02  2.43e-01  0.700   0.3
   35    -286.0050586793361163    -1.86e-01  3.75e-03  5.27e-02  2.39e-01  0.700   0.3
   36    -286.4802519720754503    -4.75e-01  6.08e-03  9.50e-02  2.94e-01  0.700   0.3
   37    -287.8500854815521848    -1.37e+00  2.33e-02  2.88e-01  3.65e-01  0.700   0.4
   38    -292.4381677738853682    -4.59e+00  1.40e-02  1.47e-01  1.08e-01  0.700   0.3
   39    -292.0040965853871171     4.34e-01  9.31e-03  1.03e-01  1.16e-01  0.700   0.3
   40    -290.2175194439582810     1.79e+00  7.44e-03  7.23e-02  1.91e-01  0.700   0.3
               *** Restarting incremental Fock matrix formation ***
                             ****Resetting DIIS****
Warning: op=0 Small HOMO/LUMO gap (  -1.935) - skipping pre-diagonalization
         LevelShift set to 1.000 Eh
         Will do a full diagonalization
   41    -288.5255607142781287     1.69e+00  1.94e-02  2.66e-01  2.47e-01  0.700   0.4
   42    -292.3818239439967783    -3.86e+00  1.06e-02  1.01e-01  9.43e-02  0.700   0.3
   43    -292.1155630431896952     2.66e-01  2.51e-02  2.35e-01  1.18e-01  0.000   0.3
   44    -283.8906839193999190     8.22e+00  2.98e-03  3.48e-02  3.63e-01  0.700   0.3
   45    -284.2256185550992313    -3.35e-01  4.21e-03  5.07e-02  3.34e-01  0.700   0.3
   46    -284.7446950904381424    -5.19e-01  4.61e-03  5.59e-02  2.95e-01  0.700   0.3
   47    -285.4555389944355852    -7.11e-01  4.51e-03  4.91e-02  2.79e-01  0.700   0.3
   48    -286.2938147995449754    -8.38e-01  2.28e-02  2.93e-01  3.33e-01  0.700   0.3
   49    -292.2375301029186403    -5.94e+00  1.24e-02  1.31e-01  1.10e-01  0.700   0.3
   50    -292.3084531050625401    -7.09e-02  7.91e-03  7.12e-02  1.07e-01  0.700   0.4

       ******************************************************************************
       ***                                                                        ***
       ***                               Auto-TRAH                                ***
       ***                               ---------                                ***
       *** the maximum gradient error decreased on average only by a factor   1.0 ***
       *** during the last  10 iterations                                         ***
       ***                                                                        ***
       ***               Leaving SCF to start the TRAH-SCF procedure              ***
       ***                                                                        ***
       ******************************************************************************

 --------------------------------------------------------------------------------------------
   Iter.        energy            ||Error||_2        Shift      TRadius  Mac/Mic        Rej.
 --------------------------------------------------------------------------------------------
    0       -283.999743605187     1.979271e+00                     0.400 (TRAH MAcro)   No
WARNING: 2171 diagonal Hessian elements are negative!
WARNING : negative HOMO - LUMO gap : (op = alpha) -2.757329
WARNING : negative HOMO - LUMO gap : (op =  beta) -2.746157
WARNING : negative HOMO - LUMO gap : (op = alpha) -2.757329
WARNING : negative HOMO - LUMO gap : (op =  beta) -2.746157
    0     dE    -1.481101e+00     1.294702e-01    -4.3945e+00      0.400 (TRAH MIcro)
    0     dE    -1.485456e+00     5.673644e-03    -4.5152e+00      0.400 (TRAH MIcro)
    1       -285.463604867843     1.727493e+00                     0.480 (TRAH MAcro)   No
WARNING: 1912 diagonal Hessian elements are negative!
WARNING : negative HOMO - LUMO gap : (op = alpha) -2.518173
WARNING : negative HOMO - LUMO gap : (op =  beta) -2.471036
WARNING : negative HOMO - LUMO gap : (op = alpha) -2.518173
WARNING : negative HOMO - LUMO gap : (op =  beta) -2.471036
    1     dE    -1.622129e+00     1.884776e-01    -3.6423e+00      0.480 (TRAH MIcro)
    1     dE    -1.631996e+00     1.644892e-02    -3.8346e+00      0.480 (TRAH MIcro)
    1     dE    -1.632063e+00     5.557196e-04    -3.8302e+00      0.480 (TRAH MIcro)
    2       -287.043433730948     1.675381e+00                     0.576 (TRAH MAcro)   No
WARNING: 1657 diagonal Hessian elements are negative!
WARNING : negative HOMO - LUMO gap : (op = alpha) -2.188802
WARNING : negative HOMO - LUMO gap : (op =  beta) -2.168576
WARNING : negative HOMO - LUMO gap : (op = alpha) -2.188802
WARNING : negative HOMO - LUMO gap : (op =  beta) -2.168576
    2     dE    -1.876015e+00     1.535065e-01    -3.4022e+00      0.543 (TRAH MIcro)
    2     dE    -1.935012e+00     7.987649e-03    -3.4136e+00      0.557 (TRAH MIcro)
    3       -288.842094642260     1.545773e+00                     0.691 (TRAH MAcro)   No
WARNING: 1297 diagonal Hessian elements are negative!
WARNING : negative HOMO - LUMO gap : (op = alpha) -1.971295
WARNING : negative HOMO - LUMO gap : (op =  beta) -1.963795
WARNING : negative HOMO - LUMO gap : (op = alpha) -1.971295
WARNING : negative HOMO - LUMO gap : (op =  beta) -1.963795
    3     dE    -1.841492e+00     2.017117e-01    -1.6713e+00      0.691 (TRAH MIcro)
    3     dE    -1.862924e+00     4.768309e-02    -1.8279e+00      0.691 (TRAH MIcro)
    3     dE    -1.865710e+00     7.082650e-03    -1.8032e+00      0.691 (TRAH MIcro)
    4       -290.512157619286     8.716108e-01                     0.829 (TRAH MAcro)   No
WARNING: 949 diagonal Hessian elements are negative!
WARNING : negative HOMO - LUMO gap : (op = alpha) -1.729322
WARNING : negative HOMO - LUMO gap : (op =  beta) -1.724800
WARNING : negative HOMO - LUMO gap : (op = alpha) -1.729322
WARNING : negative HOMO - LUMO gap : (op =  beta) -1.724800
    4     dE    -6.862340e-01     9.755494e-01    -6.7008e-01      0.615 (TRAH MIcro)
    4     dE    -5.764211e-01     3.003880e-01    -8.6021e-01      0.467 (TRAH MIcro)
    4     dE    -9.228856e-01     5.699707e-01    -9.7866e-01      0.701 (TRAH MIcro)
    4     dE    -4.204546e-01     7.143114e-02    -2.1051e+00      0.291 (TRAH MIcro)
    4     dE    -4.237443e-01     2.995452e-03    -2.1175e+00      0.292 (TRAH MIcro)
    5       -290.934247988304     6.118577e-01                     0.995 (TRAH MAcro)   No
WARNING: 845 diagonal Hessian elements are negative!
WARNING : negative HOMO - LUMO gap : (op = alpha) -1.644163
WARNING : negative HOMO - LUMO gap : (op =  beta) -1.633039
WARNING : negative HOMO - LUMO gap : (op = alpha) -1.644163
WARNING : negative HOMO - LUMO gap : (op =  beta) -1.633039
    5     dE    -1.328268e+00     1.188827e+00    -9.5944e-01      0.966 (TRAH MIcro)
    5     dE    -1.848324e+00     3.103035e-01    -1.5804e+00      0.995 (TRAH MIcro)
    5     dE    -7.556427e-01     2.657210e-02    -1.7437e+00      0.564 (TRAH MIcro)
    5     dE    -8.069237e-01     3.706847e-03    -1.7480e+00      0.589 (TRAH MIcro)
    6       -291.673040558335     8.296207e-01                     1.194 (TRAH MAcro)   No
WARNING: 578 diagonal Hessian elements are negative!
WARNING : negative HOMO - LUMO gap : (op = alpha) -1.281321
WARNING : negative HOMO - LUMO gap : (op =  beta) -1.406694
WARNING : negative HOMO - LUMO gap : (op = alpha) -1.281321
WARNING : negative HOMO - LUMO gap : (op =  beta) -1.406694
    6     dE    -2.795147e+00     2.889885e-01    -1.3619e+00      1.194 (TRAH MIcro)
    6     dE    -2.833727e+00     7.514346e-02    -1.4319e+00      1.194 (TRAH MIcro)
    6     dE    -2.384681e+00     7.635106e-02    -1.5205e+00      1.057 (TRAH MIcro)
    6     dE    -2.263974e+00     6.478905e-03    -1.5238e+00      1.017 (TRAH MIcro)
    7       -293.260461014367     6.119097e-01                     1.194 (TRAH MAcro)   No
WARNING: 279 diagonal Hessian elements are negative!
WARNING : negative HOMO - LUMO gap : (op = alpha) -0.475917
WARNING : negative HOMO - LUMO gap : (op =  beta) -0.480047
WARNING : negative HOMO - LUMO gap : (op = alpha) -0.475917
WARNING : negative HOMO - LUMO gap : (op =  beta) -0.480047
    7     dE    -5.334847e-01     3.395813e-01    -3.6934e-01      0.667 (TRAH MIcro)
    7     dE    -9.727971e-01     2.766418e-01    -4.1413e-01      1.194 (TRAH MIcro)
    7     dE    -9.444937e-01     1.199108e-01    -4.6593e-01      1.013 (TRAH MIcro)
    7     dE    -1.011974e+00     5.632439e-02    -4.7266e-01      1.068 (TRAH MIcro)
    7     dE    -1.170426e+00     7.169768e-02    -5.0676e-01      1.194 (TRAH MIcro)
    7     dE    -1.177447e+00     3.620894e-02    -5.1563e-01      1.194 (TRAH MIcro)
    7     dE    -1.180695e+00     1.346763e-02    -5.1694e-01      1.194 (TRAH MIcro)
    7     dE    -1.181066e+00     6.260628e-03    -5.1838e-01      1.194 (TRAH MIcro)
    8       -293.999553498339     2.885875e-01                     1.194 (TRAH MAcro)   No
WARNING: 114 diagonal Hessian elements are negative!
WARNING : negative HOMO - LUMO gap : (op = alpha) -0.182237
WARNING : negative HOMO - LUMO gap : (op =  beta) -0.174348
WARNING : negative HOMO - LUMO gap : (op = alpha) -0.182237
WARNING : negative HOMO - LUMO gap : (op =  beta) -0.174348
    8     dE    -5.015118e-01     2.555088e-01    -2.3870e-01      1.049 (TRAH MIcro)
    8     dE    -6.491375e-01     7.977002e-02    -2.7413e-01      1.194 (TRAH MIcro)
    8     dE    -6.557282e-01     5.127603e-02    -2.8126e-01      1.194 (TRAH MIcro)
    8     dE    -6.588816e-01     2.583168e-02    -2.8405e-01      1.194 (TRAH MIcro)
    8     dE    -6.597056e-01     1.267055e-02    -2.8539e-01      1.194 (TRAH MIcro)
    8     dE    -6.598993e-01     4.962924e-03    -2.8471e-01      1.194 (TRAH MIcro)
    9       -294.539647754588     2.289257e-01                     1.433 (TRAH MAcro)   No
WARNING: 29 diagonal Hessian elements are negative!
WARNING : negative HOMO - LUMO gap : (op = alpha) -0.063687
WARNING : negative HOMO - LUMO gap : (op =  beta) -0.051486
WARNING : negative HOMO - LUMO gap : (op = alpha) -0.063687
WARNING : negative HOMO - LUMO gap : (op =  beta) -0.051486
    9     dE    -2.696269e-01     1.660481e-01    -1.6558e-01      0.793 (TRAH MIcro)
    9     dE    -3.355161e-01     4.915887e-02    -1.8414e-01      0.907 (TRAH MIcro)
    9     dE    -3.449239e-01     3.384518e-02    -1.8592e-01      0.925 (TRAH MIcro)
    9     dE    -3.605373e-01     1.436380e-02    -1.8726e-01      0.962 (TRAH MIcro)
    9     dE    -3.631763e-01     7.934206e-03    -1.8742e-01      0.968 (TRAH MIcro)
   10       -294.848431544735     1.130755e-01                     1.720 (TRAH MAcro)   No
WARNING: 3 diagonal Hessian elements are negative!
WARNING : negative HOMO - LUMO gap : (op = alpha) -0.016724
WARNING : negative HOMO - LUMO gap : (op =  beta) -0.000788
WARNING : negative HOMO - LUMO gap : (op = alpha) -0.016724
WARNING : negative HOMO - LUMO gap : (op =  beta) -0.000788
   10     dE    -8.078536e-02     1.012957e-01    -5.8067e-02      0.625 (TRAH MIcro)
   10     dE    -1.028608e-01     4.733700e-02    -6.8139e-02      0.714 (TRAH MIcro)
   10     dE    -1.147061e-01     3.057338e-02    -7.1425e-02      0.778 (TRAH MIcro)
   10     dE    -1.256585e-01     2.546299e-02    -7.3128e-02      0.848 (TRAH MIcro)
   10     dE    -1.390042e-01     2.023204e-02    -7.4337e-02      0.933 (TRAH MIcro)
   10     dE    -1.833944e-01     5.327561e-02    -7.6259e-02      1.185 (TRAH MIcro)
   10     dE    -3.203359e-01     7.464414e-02    -8.2952e-02      1.720 (TRAH MIcro)
   10     dE    -3.353469e-01     4.116809e-02    -8.9939e-02      1.720 (TRAH MIcro)
   10     dE    -3.380351e-01     3.038011e-02    -9.1137e-02      1.720 (TRAH MIcro)
   10     dE    -3.403722e-01     9.827058e-03    -9.2060e-02      1.720 (TRAH MIcro)
   11       -295.039689793764     7.980662e-02                     1.720 (TRAH MAcro)   No
   11     dE    -2.397993e-02     5.857417e-02    -2.1492e-02      0.340 (TRAH MIcro)
   11     dE    -3.415240e-02     2.074700e-02    -2.7817e-02      0.477 (TRAH MIcro)
   11     dE    -3.689378e-02     1.110602e-02    -2.9129e-02      0.516 (TRAH MIcro)
   11     dE    -3.727530e-02     3.869310e-03    -2.9341e-02      0.520 (TRAH MIcro)
   12       -295.074340292354     1.687418e-02                     2.064 (TRAH MAcro)   No
   12     dE    -1.721518e-03     1.024416e-02    -1.6961e-03      0.122 (TRAH MIcro)
   12     dE    -2.180778e-03     7.959026e-03    -2.1335e-03      0.149 (TRAH MIcro)
   12     dE    -2.428931e-03     2.458927e-03    -2.3635e-03      0.166 (TRAH MIcro)
   12     dE    -2.450294e-03     1.440636e-03    -2.3825e-03      0.169 (TRAH MIcro)
   13       -295.076827732429     1.748729e-03                     2.477 (TRAH MAcro)   No
   13     dE    -1.828472e-05     1.667260e-03    -1.8281e-05      0.014 (TRAH MIcro)
   13     dE    -4.143417e-05     2.345950e-03    -4.1360e-05      0.042 (TRAH MIcro)
   13     dE    -1.482997e-04     3.165817e-03    -1.4307e-04      0.191 (TRAH MIcro)
   13     dE    -2.120499e-04     2.601123e-03    -1.9705e-04      0.276 (TRAH MIcro)
   13     dE    -2.460867e-04     1.910929e-03    -2.2325e-04      0.320 (TRAH MIcro)
   13     dE    -2.758657e-04     1.562481e-03    -2.4467e-04      0.357 (TRAH MIcro)
   13     dE    -2.854844e-04     1.035078e-03    -2.5128e-04      0.369 (TRAH MIcro)
   13     dE    -3.129056e-04     2.741092e-03    -2.6898e-04      0.404 (TRAH MIcro)
   13     dE    -3.895446e-04     2.618666e-03    -3.1031e-04      0.505 (TRAH MIcro)
   13     dE    -4.194516e-04     1.114256e-03    -3.2384e-04      0.543 (TRAH MIcro)
   13     dE    -4.459660e-04     2.502298e-03    -3.3482e-04      0.576 (TRAH MIcro)
   13     dE    -6.435430e-04     5.776149e-03    -3.9504e-04      0.793 (TRAH MIcro)
   13     dE    -1.116932e-03     4.300969e-03    -4.7592e-04      1.161 (TRAH MIcro)
   13     dE    -1.376212e-03     3.393567e-03    -5.0542e-04      1.313 (TRAH MIcro)
   13     dE    -1.660610e-03     4.581296e-03    -5.3174e-04      1.457 (TRAH MIcro)
   13     dE    -1.970929e-03     4.074540e-03    -5.5558e-04      1.596 (TRAH MIcro)
   13     dE    -2.676489e-03     9.501154e-03    -5.9775e-04      1.865 (TRAH MIcro)
   13     dE    -5.285554e-03     1.624457e-02    -7.5862e-04      2.477 (TRAH MIcro)
   13     dE    -6.154159e-03     3.806345e-03    -9.1427e-04      2.477 (TRAH MIcro)
   13     dE    -6.178936e-03     1.457216e-03    -9.1869e-04      2.477 (TRAH MIcro)
   13     dE    -6.171567e-03     2.510492e-03    -9.2169e-04      2.472 (TRAH MIcro)
   13     dE    -6.342849e-03     6.645419e-03    -9.4822e-04      2.477 (TRAH MIcro)
   13     dE    -6.485482e-03     4.142925e-03    -9.7428e-04      2.477 (TRAH MIcro)
 ---------------------------------
          TRAH Step control 
 ---------------------------------
  predicted energy change =    -6.485482255508e-03
  actual energy  change   =     3.601821284730e-02
  energy change ratio     = -5.553668
  old trust radius        = 2.476695
  new trust radius        = 1.659385
  reject step?            = YES
   14       -295.040809519581     1.748729e-03                     1.659 (TRAH MAcro)  Yes
   15       -295.040809519581     1.978654e-01                     1.659 (TRAH MAcro)   No
   15     dE    -3.414559e-02     1.602298e-02    -3.2981e-02      0.188 (TRAH MIcro)
   15     dE    -3.444030e-02     3.753990e-03    -3.3321e-02      0.183 (TRAH MIcro)
   16       -295.075009021632     6.126986e-03                     1.991 (TRAH MAcro)   No
   16     dE    -7.537871e-05     2.840918e-03    -7.5353e-05      0.018 (TRAH MIcro)
   16     dE    -1.008480e-04     2.127006e-03    -1.0076e-04      0.029 (TRAH MIcro)
   16     dE    -1.393639e-04     2.604523e-03    -1.3886e-04      0.060 (TRAH MIcro)
   16     dE    -1.753375e-04     3.490078e-03    -1.7347e-04      0.104 (TRAH MIcro)
   16     dE    -7.140488e-03     6.220271e-02    -1.4784e-03      1.991 (TRAH MIcro)
   16     dE    -1.203285e-02     1.852037e-02    -2.7361e-03      1.991 (TRAH MIcro)
   16     dE    -1.283448e-02     9.366475e-03    -2.9424e-03      1.991 (TRAH MIcro)
   16     dE    -1.334262e-02     1.628647e-02    -3.0739e-03      1.991 (TRAH MIcro)
   16     dE    -1.175465e-02     2.147243e-02    -3.6174e-03      1.730 (TRAH MIcro)
   16     dE    -1.664665e-02     1.188987e-02    -3.9599e-03      1.991 (TRAH MIcro)
   16     dE    -1.684664e-02     3.838792e-03    -4.0139e-03      1.991 (TRAH MIcro)
   16     dE    -1.691906e-02     5.601933e-03    -4.0335e-03      1.991 (TRAH MIcro)
   16     dE    -1.711128e-02     6.243304e-03    -4.0864e-03      1.991 (TRAH MIcro)
   16     dE    -1.718296e-02     3.164927e-03    -4.1066e-03      1.991 (TRAH MIcro)
   16     dE    -1.723185e-02     4.320369e-03    -4.1206e-03      1.991 (TRAH MIcro)
   16     dE    -1.725055e-02     1.326558e-03    -4.1257e-03      1.991 (TRAH MIcro)
   16     dE    -1.725374e-02     8.361637e-04    -4.1266e-03      1.991 (TRAH MIcro)
   16     dE    -1.725829e-02     1.784938e-03    -4.1279e-03      1.991 (TRAH MIcro)
   16     dE    -1.726422e-02     1.046013e-03    -4.1297e-03      1.991 (TRAH MIcro)
   16     dE    -1.726546e-02     3.572935e-04    -4.1300e-03      1.991 (TRAH MIcro)
 ---------------------------------
          TRAH Step control 
 ---------------------------------
  predicted energy change =    -1.726546403545e-02
  actual energy  change   =     1.994846727467e-02
  energy change ratio     = -1.155397
  old trust radius        = 1.991262
  new trust radius        = 1.334146
  reject step?            = YES
   17       -295.055060554357     6.126986e-03                     1.334 (TRAH MAcro)  Yes
   18       -295.055060554357     1.544039e-01                     1.334 (TRAH MAcro)   No
   18     dE    -2.109004e-02     1.328384e-02    -2.0482e-02      0.172 (TRAH MIcro)
   18     dE    -2.132558e-02     3.118870e-03    -2.0715e-02      0.172 (TRAH MIcro)
   19       -295.076223138732     3.724240e-03                     1.601 (TRAH MAcro)   No
   19     dE    -4.744873e-05     2.235396e-03    -4.7433e-05      0.018 (TRAH MIcro)
   19     dE    -7.345629e-05     2.616257e-03    -7.3353e-05      0.038 (TRAH MIcro)
   19     dE    -2.735888e-04     8.057017e-03    -2.5761e-04      0.249 (TRAH MIcro)
   19     dE    -1.021784e-03     1.431628e-02    -6.5318e-04      0.751 (TRAH MIcro)
   19     dE    -5.375861e-03     2.585425e-02    -1.6106e-03      1.601 (TRAH MIcro)
   19     dE    -6.631928e-03     7.171559e-03    -2.1159e-03      1.601 (TRAH MIcro)
   19     dE    -6.707836e-03     2.811220e-03    -2.1462e-03      1.601 (TRAH MIcro)
   19     dE    -6.752817e-03     4.529631e-03    -2.1643e-03      1.601 (TRAH MIcro)
   19     dE    -7.022429e-03     9.617769e-03    -2.2817e-03      1.601 (TRAH MIcro)
   19     dE    -6.496357e-03     4.033618e-03    -2.3878e-03      1.506 (TRAH MIcro)
   19     dE    -6.735186e-03     3.051979e-03    -2.4044e-03      1.533 (TRAH MIcro)
   19     dE    -7.231364e-03     6.033971e-03    -2.4333e-03      1.587 (TRAH MIcro)
   19     dE    -7.485195e-03     5.281442e-03    -2.5064e-03      1.601 (TRAH MIcro)
   19     dE    -7.553444e-03     3.456132e-03    -2.5420e-03      1.601 (TRAH MIcro)
   19     dE    -7.604712e-03     3.688952e-03    -2.5694e-03      1.601 (TRAH MIcro)
   19     dE    -7.641486e-03     2.395329e-03    -2.5894e-03      1.601 (TRAH MIcro)
   19     dE    -7.671872e-03     4.055827e-03    -2.6062e-03      1.601 (TRAH MIcro)
   19     dE    -7.752479e-03     4.001603e-03    -2.6514e-03      1.601 (TRAH MIcro)
   19     dE    -7.792055e-03     2.146351e-03    -2.6740e-03      1.601 (TRAH MIcro)
   19     dE    -7.797125e-03     6.942197e-04    -2.6770e-03      1.601 (TRAH MIcro)
   19     dE    -7.798973e-03     8.083895e-04    -2.6781e-03      1.601 (TRAH MIcro)
   19     dE    -7.803904e-03     1.785940e-03    -2.6810e-03      1.601 (TRAH MIcro)
   19     dE    -7.808423e-03     6.670890e-04    -2.6837e-03      1.601 (TRAH MIcro)
 ---------------------------------
          TRAH Step control 
 ---------------------------------
  predicted energy change =    -7.808422635575e-03
  actual energy  change   =     1.150119580063e-02
  energy change ratio     = -1.472922
  old trust radius        = 1.600975
  new trust radius        = 1.072653
  reject step?            = YES
   20       -295.064721942931     3.724240e-03                     1.073 (TRAH MAcro)  Yes
   21       -295.064721942931     1.088260e-01                     1.073 (TRAH MAcro)   No
   21     dE    -1.091750e-02     1.048881e-02    -1.0705e-02      0.141 (TRAH MIcro)
   21     dE    -1.106860e-02     2.133745e-03    -1.0845e-02      0.144 (TRAH MIcro)
   22       -295.075770158867     2.738004e-03                     1.287 (TRAH MAcro)   No
   22     dE    -7.823909e-05     5.353829e-03    -7.8113e-05      0.040 (TRAH MIcro)
   22     dE    -3.138727e-04     1.038402e-02    -3.0299e-04      0.190 (TRAH MIcro)
   22     dE    -2.940581e-03     1.606796e-02    -1.4442e-03      1.018 (TRAH MIcro)
   22     dE    -5.448529e-03     1.564608e-02    -2.2328e-03      1.287 (TRAH MIcro)
   22     dE    -5.988332e-03     7.096341e-03    -2.5795e-03      1.287 (TRAH MIcro)
   22     dE    -6.091370e-03     3.372294e-03    -2.6459e-03      1.287 (TRAH MIcro)
   22     dE    -6.105941e-03     1.239645e-03    -2.6549e-03      1.287 (TRAH MIcro)
   22     dE    -6.118860e-03     3.263931e-03    -2.6632e-03      1.287 (TRAH MIcro)
   22     dE    -6.177475e-03     3.381722e-03    -2.7085e-03      1.287 (TRAH MIcro)
   22     dE    -6.193100e-03     8.983061e-04    -2.7219e-03      1.287 (TRAH MIcro)
   22     dE    -6.194877e-03     5.938436e-04    -2.7233e-03      1.287 (TRAH MIcro)
   22     dE    -6.196452e-03     6.992066e-04    -2.7247e-03      1.287 (TRAH MIcro)
   22     dE    -6.197614e-03     4.177669e-04    -2.7259e-03      1.287 (TRAH MIcro)
   22     dE    -6.198743e-03     6.528294e-04    -2.7271e-03      1.287 (TRAH MIcro)
   22     dE    -6.200169e-03     5.945783e-04    -2.7286e-03      1.287 (TRAH MIcro)
   22     dE    -6.200757e-03     2.620952e-04    -2.7292e-03      1.287 (TRAH MIcro)
 ---------------------------------
          TRAH Step control 
 ---------------------------------
  predicted energy change =    -6.200756898420e-03
  actual energy  change   =     4.256515465897e-03
  energy change ratio     = -0.686451
  old trust radius        = 1.287184
  new trust radius        = 0.862413
  reject step?            = YES
   23       -295.071513643401     2.738004e-03                     0.862 (TRAH MAcro)  Yes
   24       -295.071513643401     7.449820e-02                     0.862 (TRAH MAcro)   No
   24     dE    -5.065859e-03     7.258984e-03    -5.0197e-03      0.096 (TRAH MIcro)
   25       -295.076592758738     7.107030e-03                     1.035 (TRAH MAcro)   No
   25     dE    -8.657166e-05     2.033141e-03    -8.6547e-05      0.017 (TRAH MIcro)
   25     dE    -1.361552e-04     3.707638e-03    -1.3584e-04      0.048 (TRAH MIcro)
   25     dE    -2.595206e-04     5.815445e-03    -2.5335e-04      0.156 (TRAH MIcro)
   25     dE    -4.223630e-04     5.596368e-03    -3.8837e-04      0.296 (TRAH MIcro)
   25     dE    -8.890421e-04     1.048926e-02    -6.5100e-04      0.605 (TRAH MIcro)
   25     dE    -1.277729e-03     4.520637e-03    -7.9369e-04      0.781 (TRAH MIcro)
   25     dE    -1.332742e-03     1.571186e-03    -8.1107e-04      0.802 (TRAH MIcro)
   25     dE    -1.347747e-03     1.823154e-03    -8.1580e-04      0.808 (TRAH MIcro)
   25     dE    -1.433270e-03     4.815756e-03    -8.3884e-04      0.842 (TRAH MIcro)
   25     dE    -1.685889e-03     4.097884e-03    -8.8903e-04      0.947 (TRAH MIcro)
   25     dE    -1.789236e-03     2.243518e-03    -9.0533e-04      0.988 (TRAH MIcro)
   25     dE    -1.849699e-03     2.383712e-03    -9.1404e-04      1.012 (TRAH MIcro)
   25     dE    -1.931748e-03     2.987007e-03    -9.5571e-04      1.035 (TRAH MIcro)
   25     dE    -1.962843e-03     3.139308e-03    -1.0025e-03      1.035 (TRAH MIcro)
   25     dE    -2.027572e-03     5.482787e-03    -1.1032e-03      1.035 (TRAH MIcro)
   25     dE    -2.105096e-03     3.171354e-03    -1.2259e-03      1.035 (TRAH MIcro)
   25     dE    -2.136924e-03     2.640574e-03    -1.2759e-03      1.035 (TRAH MIcro)
   25     dE    -2.040056e-03     8.698763e-03    -1.4864e-03      0.960 (TRAH MIcro)
   25     dE    -2.408935e-03     3.920588e-03    -1.6720e-03      1.035 (TRAH MIcro)
   25     dE    -1.061965e-03     5.209566e-04    -1.9240e-03      0.544 (TRAH MIcro)
   26       -295.077087967084     1.426979e-02                     1.035 (TRAH MAcro)   No
   26     dE    -1.889322e-04     1.875057e-03    -1.8887e-04      0.018 (TRAH MIcro)
   26     dE    -1.940204e-04     4.676808e-04    -1.9396e-04      0.018 (TRAH MIcro)
   27       -295.077282197856     4.635933e-04                     1.242 (TRAH MAcro)   No
   27     dE    -1.646122e-06     8.518066e-04    -1.6461e-06      0.005 (TRAH MIcro)
   27     dE    -8.447413e-06     1.748311e-03    -8.4375e-06      0.034 (TRAH MIcro)
   27     dE    -4.827889e-05     3.526113e-03    -4.6267e-05      0.209 (TRAH MIcro)
   27     dE    -3.943223e-04     1.063247e-02    -2.0468e-04      0.963 (TRAH MIcro)
   27     dE    -9.316138e-04     7.081405e-03    -4.3556e-04      1.242 (TRAH MIcro)
   27     dE    -1.031523e-03     2.897755e-03    -5.0102e-04      1.242 (TRAH MIcro)
   27     dE    -1.052984e-03     2.271210e-03    -5.1517e-04      1.242 (TRAH MIcro)
   27     dE    -1.052807e-03     5.089834e-03    -5.5303e-04      1.205 (TRAH MIcro)
   27     dE    -1.259728e-03     5.295572e-03    -6.5522e-04      1.242 (TRAH MIcro)
   27     dE    -1.311791e-03     2.204109e-03    -6.9173e-04      1.242 (TRAH MIcro)
   27     dE    -1.328297e-03     2.611910e-03    -7.0339e-04      1.242 (TRAH MIcro)
   27     dE    -1.376184e-03     4.609777e-03    -7.3774e-04      1.242 (TRAH MIcro)
   27     dE    -1.205605e-03     2.949666e-03    -8.0505e-04      1.114 (TRAH MIcro)
   27     dE    -1.533336e-03     5.518780e-03    -8.5504e-04      1.242 (TRAH MIcro)
   27     dE    -1.588617e-03     2.546322e-03    -8.9732e-04      1.242 (TRAH MIcro)
   27     dE    -1.605214e-03     1.938807e-03    -9.1007e-04      1.242 (TRAH MIcro)
   27     dE    -1.619099e-03     2.237338e-03    -9.2076e-04      1.242 (TRAH MIcro)
   27     dE    -1.655707e-03     4.101277e-03    -9.4915e-04      1.242 (TRAH MIcro)
   27     dE    -1.669423e-03     1.100500e-03    -9.5987e-04      1.242 (TRAH MIcro)
   27     dE    -1.671237e-03     6.335421e-04    -9.6129e-04      1.242 (TRAH MIcro)
   27     dE    -1.674597e-03     2.134478e-03    -9.6393e-04      1.242 (TRAH MIcro)
   27     dE    -1.703604e-03     2.064095e-03    -9.8740e-04      1.242 (TRAH MIcro)
   27     dE    -1.712424e-03     1.142746e-03    -9.9476e-04      1.242 (TRAH MIcro)
 ---------------------------------
          TRAH Step control 
 ---------------------------------
  predicted energy change =    -1.712424323811e-03
  actual energy  change   =     2.812711023466e-03
  energy change ratio     = -1.642532
  old trust radius        = 1.241875
  new trust radius        = 0.832056
  reject step?            = YES
   28       -295.074469486832     4.635933e-04                     0.832 (TRAH MAcro)  Yes
   29       -295.074469486833     6.014283e-02                     0.832 (TRAH MAcro)   No
   29     dE    -3.041791e-03     2.595861e-03    -3.0314e-03      0.059 (TRAH MIcro)
   30       -295.077513343010     2.643730e-03                     0.998 (TRAH MAcro)   No
   30     dE    -6.308303e-06     7.112778e-04    -6.3082e-06      0.004 (TRAH MIcro)
   30     dE    -7.775025e-06     6.414516e-04    -7.7748e-06      0.005 (TRAH MIcro)
   30     dE    -1.007338e-05     7.585872e-04    -1.0071e-05      0.014 (TRAH MIcro)
   30     dE    -1.167222e-05     7.613503e-04    -1.1666e-05      0.023 (TRAH MIcro)
   30     dE    -1.814813e-05     2.637601e-03    -1.8070e-05      0.066 (TRAH MIcro)
   30     dE    -8.856189e-05     3.621571e-03    -7.3145e-05      0.459 (TRAH MIcro)
   30     dE    -1.212018e-04     1.260484e-03    -9.0407e-05      0.584 (TRAH MIcro)
   30     dE    -1.276223e-04     8.317891e-04    -9.3401e-05      0.605 (TRAH MIcro)
   30     dE    -1.356386e-04     1.408198e-03    -9.6973e-05      0.631 (TRAH MIcro)
   30     dE    -1.580948e-04     1.994314e-03    -1.0608e-04      0.700 (TRAH MIcro)
   30     dE    -1.986884e-04     3.146778e-03    -1.1989e-04      0.811 (TRAH MIcro)
   30     dE    -2.727702e-04     3.422436e-03    -1.3934e-04      0.979 (TRAH MIcro)
   30     dE    -3.087553e-04     2.529951e-03    -1.7060e-04      0.998 (TRAH MIcro)
   30     dE    -3.152459e-04     9.902950e-04    -1.7788e-04      0.998 (TRAH MIcro)
   30     dE    -3.359077e-04     6.911277e-03    -2.0133e-04      0.998 (TRAH MIcro)
   30     dE    -5.098143e-04     8.424341e-03    -4.0757e-04      0.998 (TRAH MIcro)
   30     dE    -5.980759e-04     3.117106e-03    -5.1074e-04      0.998 (TRAH MIcro)
   30     dE    -3.413765e-04     2.634452e-03    -5.7535e-04      0.692 (TRAH MIcro)
   30     dE    -5.655628e-04     3.450789e-03    -6.2060e-04      0.892 (TRAH MIcro)
   30     dE    -7.523165e-04     4.876170e-03    -6.8512e-04      0.998 (TRAH MIcro)
   30     dE    -1.508832e-04     1.752780e-03    -8.7797e-04      0.361 (TRAH MIcro)
   30     dE    -2.761397e-04     1.103706e-03    -9.2630e-04      0.506 (TRAH MIcro)
   30     dE    -2.991999e-04     3.716613e-04    -9.3267e-04      0.528 (TRAH MIcro)
 ---------------------------------
          TRAH Step control 
 ---------------------------------
  predicted energy change =    -2.991999181270e-04
  actual energy  change   =     1.081802000158e-04
  energy change ratio     = -0.361565
  old trust radius        = 0.998468
  new trust radius        = 0.668973
  reject step?            = YES
   31       -295.077405162810     2.643730e-03                     0.669 (TRAH MAcro)  Yes
   32       -295.077405162810     1.296707e-02                     0.669 (TRAH MAcro)   No
   32     dE    -1.430405e-04     6.626547e-04    -1.4302e-04      0.012 (TRAH MIcro)
   33       -295.077548408009     6.646874e-04                     0.669 (TRAH MAcro)   No
   33     dE    -1.079007e-06     5.483815e-04    -1.0790e-06      0.003 (TRAH MIcro)
   33     dE    -4.164392e-06     1.558390e-03    -4.1629e-06      0.019 (TRAH MIcro)
   33     dE    -3.517606e-05     3.162032e-03    -3.3983e-05      0.187 (TRAH MIcro)
   33     dE    -5.175578e-05     1.357659e-03    -4.8264e-05      0.269 (TRAH MIcro)
   33     dE    -6.296307e-05     2.148500e-03    -5.7113e-05      0.320 (TRAH MIcro)
   33     dE    -8.503229e-05     1.871035e-03    -7.2700e-05      0.412 (TRAH MIcro)
   33     dE    -1.022041e-04     1.826528e-03    -8.3327e-05      0.476 (TRAH MIcro)
   33     dE    -1.441522e-04     3.395910e-03    -1.0498e-04      0.611 (TRAH MIcro)
   33     dE    -1.745849e-04     1.450123e-03    -1.3664e-04      0.669 (TRAH MIcro)
   33     dE    -1.793898e-04     8.393289e-04    -1.4817e-04      0.669 (TRAH MIcro)
   33     dE    -1.843015e-04     1.696477e-03    -1.6008e-04      0.669 (TRAH MIcro)
   33     dE    -2.098811e-04     3.674074e-03    -2.2460e-04      0.669 (TRAH MIcro)
   33     dE    -2.465549e-04     2.233566e-03    -3.2382e-04      0.669 (TRAH MIcro)
   33     dE    -2.253543e-04     8.398617e-04    -3.5902e-04      0.609 (TRAH MIcro)
   33     dE    -2.458135e-04     2.346041e-03    -3.6883e-04      0.641 (TRAH MIcro)
   33     dE    -2.756791e-04     2.332226e-03    -4.0637e-04      0.669 (TRAH MIcro)
   33     dE    -3.035335e-04     4.140135e-03    -4.8722e-04      0.669 (TRAH MIcro)
   33     dE    -1.797920e-04     4.188878e-03    -9.3721e-04      0.388 (TRAH MIcro)
   33     dE    -3.420524e-04     1.338645e-03    -9.9929e-04      0.548 (TRAH MIcro)
   33     dE    -3.948927e-04     1.190701e-03    -1.0135e-03      0.590 (TRAH MIcro)
   33     dE    -5.093622e-04     3.239773e-03    -1.0419e-03      0.669 (TRAH MIcro)
   33     dE    -5.591480e-04     2.190602e-03    -1.1659e-03      0.669 (TRAH MIcro)
   33     dE    -5.682051e-04     1.077202e-03    -1.1882e-03      0.669 (TRAH MIcro)
 ---------------------------------
          TRAH Step control 
 ---------------------------------
  predicted energy change =    -5.682051119761e-04
  actual energy  change   =     6.809423028926e-04
  energy change ratio     = -1.198409
  old trust radius        = 0.668973
  new trust radius        = 0.448212
  reject step?            = YES
   34       -295.076867465706     6.646874e-04                     0.448 (TRAH MAcro)  Yes
   35       -295.076867465706     2.915954e-02                     0.448 (TRAH MAcro)   No
   35     dE    -7.188189e-04     1.379272e-03    -7.1826e-04      0.028 (TRAH MIcro)
   36       -295.077586959562     1.392799e-03                     0.538 (TRAH MAcro)   No
   36     dE    -2.773486e-06     5.901515e-04    -2.7735e-06      0.003 (TRAH MIcro)
   36     dE    -4.469449e-06     7.906451e-04    -4.4692e-06      0.007 (TRAH MIcro)
   36     dE    -6.560685e-06     5.997472e-04    -6.5590e-06      0.016 (TRAH MIcro)
   36     dE    -8.567628e-06     9.869305e-04    -8.5613e-06      0.027 (TRAH MIcro)
   36     dE    -2.435073e-05     3.740975e-03    -2.3947e-05      0.130 (TRAH MIcro)
   36     dE    -6.062385e-05     1.872030e-03    -5.4397e-05      0.338 (TRAH MIcro)
   36     dE    -6.823776e-05     8.028588e-04    -5.9800e-05      0.376 (TRAH MIcro)
   36     dE    -7.268455e-05     1.127133e-03    -6.2806e-05      0.397 (TRAH MIcro)
   36     dE    -8.361161e-05     1.816656e-03    -6.9738e-05      0.446 (TRAH MIcro)
   36     dE    -1.052330e-04     1.809731e-03    -8.1752e-05      0.536 (TRAH MIcro)
   36     dE    -1.185149e-04     1.760001e-03    -1.3102e-04      0.538 (TRAH MIcro)
   36     dE    -1.265784e-04     1.211271e-03    -1.6250e-04      0.538 (TRAH MIcro)
   36     dE    -1.290448e-04     5.679839e-04    -1.7463e-04      0.536 (TRAH MIcro)
   36     dE    -1.305851e-04     6.622565e-04    -1.7836e-04      0.538 (TRAH MIcro)
   36     dE    -1.392671e-04     2.884725e-03    -2.1446e-04      0.538 (TRAH MIcro)
   36     dE    -1.389990e-04     1.065272e-03    -2.7340e-04      0.502 (TRAH MIcro)
   36     dE    -1.451409e-04     6.142716e-04    -2.7751e-04      0.517 (TRAH MIcro)
   36     dE    -1.482224e-04     8.316600e-04    -2.7946e-04      0.524 (TRAH MIcro)
   36     dE    -1.535207e-04     6.308818e-04    -2.8263e-04      0.536 (TRAH MIcro)
   36     dE    -1.555724e-04     7.746240e-04    -2.8841e-04      0.538 (TRAH MIcro)
   36     dE    -1.578365e-04     1.097749e-03    -2.9947e-04      0.538 (TRAH MIcro)
   36     dE    -1.599971e-04     5.753115e-04    -3.1036e-04      0.538 (TRAH MIcro)
   36     dE    -1.606777e-04     4.586295e-04    -3.1384e-04      0.538 (TRAH MIcro)
   37       -295.077609069391     9.363764e-03                     0.360 (TRAH MAcro)   No
   37     dE    -7.678153e-05     8.099479e-04    -7.6775e-05      0.010 (TRAH MIcro)
   38       -295.077685877363     8.119053e-04                     0.432 (TRAH MAcro)   No
   38     dE    -1.332769e-06     4.262711e-04    -1.3328e-06      0.002 (TRAH MIcro)
   38     dE    -4.216293e-06     1.146605e-03    -4.2154e-06      0.015 (TRAH MIcro)
   38     dE    -9.574836e-06     8.458669e-04    -9.5583e-06      0.042 (TRAH MIcro)
   38     dE    -1.155302e-05     5.270003e-04    -1.1522e-05      0.052 (TRAH MIcro)
   38     dE    -1.306162e-05     6.174203e-04    -1.3013e-05      0.061 (TRAH MIcro)
   38     dE    -1.395704e-05     3.677936e-04    -1.3896e-05      0.067 (TRAH MIcro)
   38     dE    -1.454468e-05     4.501416e-04    -1.4473e-05      0.070 (TRAH MIcro)
   38     dE    -1.704656e-05     1.112199e-03    -1.6910e-05      0.090 (TRAH MIcro)
   38     dE    -2.126167e-05     9.712245e-04    -2.0912e-05      0.129 (TRAH MIcro)
   38     dE    -2.348148e-05     4.315359e-04    -2.2957e-05      0.151 (TRAH MIcro)
   38     dE    -2.485230e-05     7.087668e-04    -2.4194e-05      0.165 (TRAH MIcro)
   38     dE    -3.104913e-05     1.647874e-03    -2.9510e-05      0.228 (TRAH MIcro)
   38     dE    -4.435089e-05     1.251787e-03    -3.9372e-05      0.356 (TRAH MIcro)
   38     dE    -4.851949e-05     6.318317e-04    -4.2068e-05      0.392 (TRAH MIcro)
   38     dE    -5.160568e-05     8.701494e-04    -4.3958e-05      0.417 (TRAH MIcro)
   38     dE    -5.389180e-05     5.692663e-04    -4.7418e-05      0.432 (TRAH MIcro)
   38     dE    -5.562241e-05     9.226761e-04    -5.8042e-05      0.432 (TRAH MIcro)
   38     dE    -7.163347e-05     4.245644e-03    -1.6173e-04      0.432 (TRAH MIcro)
   38     dE    -7.010689e-05     6.875875e-04    -2.8849e-04      0.358 (TRAH MIcro)
   38     dE    -7.271959e-05     3.728458e-04    -2.9135e-04      0.367 (TRAH MIcro)
   38     dE    -7.474688e-05     5.886573e-04    -2.9347e-04      0.374 (TRAH MIcro)
   38     dE    -8.300719e-05     7.340444e-04    -3.0137e-04      0.401 (TRAH MIcro)
   38     dE    -9.459783e-05     1.248704e-03    -3.1720e-04      0.432 (TRAH MIcro)
   39       -295.077694875586     6.046710e-03                     0.290 (TRAH MAcro)   No
   39     dE    -3.198923e-05     6.959221e-04    -3.1988e-05      0.006 (TRAH MIcro)
   39     dE    -3.321934e-05     5.022804e-04    -3.3218e-05      0.007 (TRAH MIcro)
   40       -295.077728104610     5.018825e-04                     0.348 (TRAH MAcro)   No
   40     dE    -6.186651e-07     3.445335e-04    -6.1866e-07      0.002 (TRAH MIcro)
   40     dE    -1.475340e-06     3.510520e-04    -1.4753e-06      0.006 (TRAH MIcro)
   40     dE    -1.805518e-06     2.574544e-04    -1.8054e-06      0.008 (TRAH MIcro)
   40     dE    -2.643391e-06     8.043422e-04    -2.6426e-06      0.017 (TRAH MIcro)
   40     dE    -8.723819e-06     9.674900e-04    -8.6481e-06      0.094 (TRAH MIcro)
   40     dE    -1.010357e-05     2.018156e-04    -9.9812e-06      0.111 (TRAH MIcro)
   40     dE    -1.042839e-05     3.373503e-04    -1.0293e-05      0.115 (TRAH MIcro)
   40     dE    -1.114809e-05     4.037444e-04    -1.0979e-05      0.124 (TRAH MIcro)
   40     dE    -1.218243e-05     4.926606e-04    -1.1955e-05      0.138 (TRAH MIcro)
   40     dE    -1.905416e-05     2.002322e-03    -1.8037e-05      0.238 (TRAH MIcro)
   40     dE    -3.275774e-05     1.022091e-03    -7.7467e-05      0.348 (TRAH MIcro)
   40     dE    -3.596330e-05     9.087457e-04    -1.0763e-04      0.348 (TRAH MIcro)
   40     dE    -4.335239e-05     1.968823e-03    -1.8711e-04      0.342 (TRAH MIcro)
   40     dE    -7.520635e-05     2.293911e-03    -4.7943e-04      0.348 (TRAH MIcro)
   40     dE    -8.099317e-05     6.977023e-04    -5.3377e-04      0.348 (TRAH MIcro)
   40     dE    -8.228067e-05     5.930869e-04    -5.4583e-04      0.348 (TRAH MIcro)
   40     dE    -8.397793e-05     8.207345e-04    -5.6174e-04      0.348 (TRAH MIcro)
   40     dE    -8.611509e-05     6.109263e-04    -5.8183e-04      0.348 (TRAH MIcro)
   40     dE    -8.778743e-05     8.147295e-04    -5.9764e-04      0.348 (TRAH MIcro)
   40     dE    -3.073761e-05     4.133500e-04    -7.2915e-04      0.171 (TRAH MIcro)
   40     dE    -3.152496e-05     1.283532e-04    -7.3223e-04      0.174 (TRAH MIcro)
   40     dE    -3.276823e-05     5.183261e-04    -7.3680e-04      0.178 (TRAH MIcro)
   40     dE    -3.774984e-05     3.621534e-04    -7.5216e-04      0.193 (TRAH MIcro)
   41       -295.077740239932     1.445919e-03                     0.348 (TRAH MAcro)   No
   41     dE    -1.942771e-06     2.015001e-04    -1.9428e-06      0.002 (TRAH MIcro)
   41     dE    -2.061829e-06     1.725341e-04    -2.0618e-06      0.002 (TRAH MIcro)
   41     dE    -2.795403e-06     7.041785e-04    -2.7950e-06      0.013 (TRAH MIcro)
   41     dE    -5.209404e-06     7.091869e-04    -5.1965e-06      0.050 (TRAH MIcro)
   41     dE    -6.650381e-06     3.737634e-04    -6.6159e-06      0.072 (TRAH MIcro)
   41     dE    -6.917568e-06     1.864934e-04    -6.8775e-06      0.076 (TRAH MIcro)
   41     dE    -7.103361e-06     2.366541e-04    -7.0590e-06      0.079 (TRAH MIcro)
   41     dE    -7.290505e-06     1.782286e-04    -7.2415e-06      0.082 (TRAH MIcro)
   41     dE    -7.451455e-06     2.420279e-04    -7.3980e-06      0.085 (TRAH MIcro)
   41     dE    -8.045055e-06     4.992847e-04    -7.9718e-06      0.096 (TRAH MIcro)
   41     dE    -8.796261e-06     2.899322e-04    -8.6886e-06      0.111 (TRAH MIcro)
   41     dE    -9.007450e-06     1.789150e-04    -8.8881e-06      0.116 (TRAH MIcro)
   41     dE    -9.395858e-06     5.121200e-04    -9.2523e-06      0.125 (TRAH MIcro)
   41     dE    -1.361258e-05     1.624152e-03    -1.2939e-05      0.228 (TRAH MIcro)
   41     dE    -2.585506e-05     9.393737e-04    -8.3192e-05      0.348 (TRAH MIcro)
   41     dE    -2.870528e-05     1.404458e-03    -1.2798e-04      0.331 (TRAH MIcro)
   41     dE    -3.731262e-05     1.645603e-03    -1.9047e-04      0.348 (TRAH MIcro)
   41     dE    -3.880491e-05     1.590047e-03    -2.8931e-04      0.304 (TRAH MIcro)
   41     dE    -5.436428e-05     2.141988e-03    -3.4847e-04      0.348 (TRAH MIcro)
   41     dE    -5.809475e-05     7.690799e-04    -3.9848e-04      0.342 (TRAH MIcro)
   41     dE    -6.063037e-05     5.248783e-04    -4.0602e-04      0.348 (TRAH MIcro)
   41     dE    -6.238519e-05     9.761409e-04    -4.2213e-04      0.348 (TRAH MIcro)
   41     dE    -1.952279e-05     7.247778e-04    -5.5181e-04      0.150 (TRAH MIcro)
   42       -295.077748783542     1.182574e-03                     0.348 (TRAH MAcro)   No
   42     dE    -1.178543e-06     2.451254e-04    -1.1785e-06      0.002 (TRAH MIcro)
   42     dE    -1.309969e-06     1.760944e-04    -1.3100e-06      0.002 (TRAH MIcro)
   42     dE    -1.702279e-06     6.028975e-04    -1.7022e-06      0.008 (TRAH MIcro)
   42     dE    -3.249878e-06     7.071775e-04    -3.2465e-06      0.032 (TRAH MIcro)
   42     dE    -5.280367e-06     6.912003e-04    -5.2579e-06      0.065 (TRAH MIcro)
   42     dE    -6.088293e-06     4.458463e-04    -6.0508e-06      0.079 (TRAH MIcro)
   42     dE    -6.719594e-06     4.564889e-04    -6.6665e-06      0.089 (TRAH MIcro)
   42     dE    -6.899561e-06     1.482611e-04    -6.8413e-06      0.092 (TRAH MIcro)
   42     dE    -6.978664e-06     1.783734e-04    -6.9180e-06      0.094 (TRAH MIcro)
   42     dE    -7.341273e-06     6.159590e-04    -7.2685e-06      0.100 (TRAH MIcro)
   42     dE    -8.091296e-06     2.558710e-04    -7.9855e-06      0.115 (TRAH MIcro)
   42     dE    -8.288109e-06     2.138870e-04    -8.1718e-06      0.119 (TRAH MIcro)
   42     dE    -8.643854e-06     4.407534e-04    -8.5061e-06      0.127 (TRAH MIcro)
   42     dE    -9.486931e-06     4.829622e-04    -9.2854e-06      0.147 (TRAH MIcro)
   42     dE    -1.059197e-05     6.293639e-04    -1.0276e-05      0.175 (TRAH MIcro)
   42     dE    -1.372582e-05     1.024879e-03    -1.2882e-05      0.256 (TRAH MIcro)
   42     dE    -1.587164e-05     4.971843e-04    -1.4492e-05      0.309 (TRAH MIcro)
   42     dE    -1.745666e-05     7.946952e-04    -1.5596e-05      0.345 (TRAH MIcro)
   42     dE    -2.305005e-05     2.184023e-03    -1.1173e-04      0.302 (TRAH MIcro)
   42     dE    -3.856663e-05     1.456066e-03    -2.6437e-04      0.323 (TRAH MIcro)
   42     dE    -4.622696e-05     5.959089e-04    -2.9090e-04      0.348 (TRAH MIcro)
   42     dE    -4.736019e-05     5.515733e-04    -3.0154e-04      0.348 (TRAH MIcro)
   42     dE    -4.949027e-05     1.059321e-03    -3.2154e-04      0.348 (TRAH MIcro)
 ---------------------------------
          TRAH Step control 
 ---------------------------------
  predicted energy change =    -4.949027336839e-05
  actual energy  change   =     3.173951296276e-05
  energy change ratio     = -0.641328
  old trust radius        = 0.347678
  new trust radius        = 0.232944
  reject step?            = YES
   43       -295.077717044029     1.182574e-03                     0.233 (TRAH MAcro)  Yes
   44       -295.077717044029     5.569650e-03                     0.233 (TRAH MAcro)   No
   44     dE    -2.674460e-05     4.823719e-04    -2.6744e-05      0.005 (TRAH MIcro)
   45       -295.077743787786     4.815096e-04                     0.280 (TRAH MAcro)   No
   45     dE    -4.489754e-07     2.879198e-04    -4.4897e-07      0.002 (TRAH MIcro)
   45     dE    -1.249494e-06     5.998957e-04    -1.2494e-06      0.007 (TRAH MIcro)
   45     dE    -2.625093e-06     5.672941e-04    -2.6241e-06      0.019 (TRAH MIcro)
   45     dE    -4.191965e-06     6.434423e-04    -4.1870e-06      0.034 (TRAH MIcro)
   45     dE    -6.185386e-06     7.266260e-04    -6.1669e-06      0.055 (TRAH MIcro)
   45     dE    -7.196678e-06     3.894018e-04    -7.1661e-06      0.065 (TRAH MIcro)
   45     dE    -7.510380e-06     2.110258e-04    -7.4751e-06      0.069 (TRAH MIcro)
   45     dE    -7.807999e-06     4.101765e-04    -7.7677e-06      0.072 (TRAH MIcro)
   45     dE    -9.036650e-06     8.058383e-04    -8.9677e-06      0.088 (TRAH MIcro)
   45     dE    -1.042351e-05     3.307339e-04    -1.0303e-05      0.108 (TRAH MIcro)
   45     dE    -1.072497e-05     2.621091e-04    -1.0590e-05      0.113 (TRAH MIcro)
   45     dE    -1.153084e-05     6.885805e-04    -1.1352e-05      0.126 (TRAH MIcro)
   45     dE    -1.333675e-05     6.381172e-04    -1.3018e-05      0.156 (TRAH MIcro)
   45     dE    -1.542010e-05     8.685976e-04    -1.4864e-05      0.193 (TRAH MIcro)
   45     dE    -2.294238e-05     1.550255e-03    -5.8094e-05      0.280 (TRAH MIcro)
   45     dE    -2.589217e-05     7.872085e-04    -1.0302e-04      0.280 (TRAH MIcro)
   45     dE    -2.928219e-05     1.605784e-03    -1.5468e-04      0.280 (TRAH MIcro)
   45     dE    -4.575032e-05     3.409442e-03    -4.0551e-04      0.280 (TRAH MIcro)
   45     dE    -2.111441e-05     3.188385e-04    -6.5453e-04      0.139 (TRAH MIcro)
   45     dE    -2.225315e-05     2.265065e-04    -6.6059e-04      0.144 (TRAH MIcro)
   45     dE    -2.359903e-05     3.427364e-04    -6.6722e-04      0.150 (TRAH MIcro)
   45     dE    -2.671011e-05     4.475844e-04    -6.8060e-04      0.162 (TRAH MIcro)
   45     dE    -3.101798e-05     5.537290e-04    -6.9607e-04      0.178 (TRAH MIcro)
   46       -295.077755094420     1.694992e-03                     0.280 (TRAH MAcro)   No
   46     dE    -2.634261e-06     2.641149e-04    -2.6343e-06      0.002 (TRAH MIcro)
   46     dE    -3.015483e-06     3.903205e-04    -3.0154e-06      0.004 (TRAH MIcro)
   46     dE    -3.465768e-06     3.046872e-04    -3.4656e-06      0.007 (TRAH MIcro)
   46     dE    -3.845074e-06     4.716821e-04    -3.8445e-06      0.012 (TRAH MIcro)
   46     dE    -5.787929e-06     8.677347e-04    -5.7793e-06      0.039 (TRAH MIcro)
   46     dE    -7.665157e-06     4.332482e-04    -7.6323e-06      0.066 (TRAH MIcro)
   46     dE    -7.930978e-06     1.796873e-04    -7.8929e-06      0.069 (TRAH MIcro)
   46     dE    -8.041889e-06     1.884624e-04    -8.0014e-06      0.071 (TRAH MIcro)
   46     dE    -8.343401e-06     3.731272e-04    -8.2958e-06      0.076 (TRAH MIcro)
   46     dE    -8.660123e-06     2.221086e-04    -8.6037e-06      0.081 (TRAH MIcro)
   46     dE    -8.865103e-06     2.650313e-04    -8.8021e-06      0.085 (TRAH MIcro)
   46     dE    -9.084939e-06     1.906350e-04    -9.0140e-06      0.089 (TRAH MIcro)
   46     dE    -9.163745e-06     1.080120e-04    -9.0897e-06      0.090 (TRAH MIcro)
   47       -295.077768835856     3.591615e-04                     0.335 (TRAH MAcro)   No
   47     dE    -1.996744e-07     1.622898e-04    -1.9967e-07      0.001 (TRAH MIcro)
   47     dE    -5.504239e-07     4.748731e-04    -5.5040e-07      0.006 (TRAH MIcro)
   47     dE    -2.001460e-06     5.196788e-04    -1.9998e-06      0.029 (TRAH MIcro)
   47     dE    -2.593262e-06     3.429993e-04    -2.5894e-06      0.038 (TRAH MIcro)
   47     dE    -3.387798e-06     4.888136e-04    -3.3787e-06      0.052 (TRAH MIcro)
   47     dE    -3.988630e-06     2.851798e-04    -3.9733e-06      0.062 (TRAH MIcro)
   47     dE    -4.571502e-06     5.125394e-04    -4.5477e-06      0.072 (TRAH MIcro)
   47     dE    -6.863881e-06     7.785301e-04    -6.7743e-06      0.115 (TRAH MIcro)
   47     dE    -8.177307e-06     3.434656e-04    -8.0207e-06      0.140 (TRAH MIcro)
   47     dE    -8.482416e-06     2.159980e-04    -8.3066e-06      0.145 (TRAH MIcro)
   47     dE    -9.037590e-06     5.626298e-04    -8.8228e-06      0.156 (TRAH MIcro)
   47     dE    -1.062741e-05     6.556611e-04    -1.0269e-05      0.187 (TRAH MIcro)
   47     dE    -1.224350e-05     5.887121e-04    -1.1686e-05      0.218 (TRAH MIcro)
   47     dE    -1.383592e-05     6.832580e-04    -1.3026e-05      0.249 (TRAH MIcro)
   47     dE    -1.532659e-05     4.439355e-04    -1.4229e-05      0.278 (TRAH MIcro)
   47     dE    -1.608863e-05     5.187372e-04    -1.4824e-05      0.292 (TRAH MIcro)
   47     dE    -1.835638e-05     1.239274e-03    -1.6518e-05      0.334 (TRAH MIcro)
   47     dE    -2.615585e-05     2.381155e-03    -9.7770e-05      0.335 (TRAH MIcro)
   47     dE    -2.887157e-05     4.062695e-04    -1.2702e-04      0.335 (TRAH MIcro)
   47     dE    -2.916763e-05     2.338467e-04    -1.3022e-04      0.335 (TRAH MIcro)
   47     dE    -2.963288e-05     6.733879e-04    -1.3526e-04      0.335 (TRAH MIcro)
   47     dE    -3.436651e-05     1.141204e-03    -1.8802e-04      0.335 (TRAH MIcro)
   47     dE    -2.743650e-05     5.549592e-04    -2.4666e-04      0.264 (TRAH MIcro)
   48       -295.077775104398     2.721029e-03                     0.225 (TRAH MAcro)   No
   48     dE    -6.631015e-06     3.410709e-04    -6.6310e-06      0.003 (TRAH MIcro)
   48     dE    -6.978021e-06     2.872066e-04    -6.9779e-06      0.003 (TRAH MIcro)
   48     dE    -7.384523e-06     2.265249e-04    -7.3843e-06      0.006 (TRAH MIcro)
   49       -295.077782494011     2.271238e-04                     0.270 (TRAH MAcro)   No
   49     dE    -9.840500e-08     1.448451e-04    -9.8405e-08      0.001 (TRAH MIcro)
   49     dE    -3.191868e-07     3.892222e-04    -3.1918e-07      0.004 (TRAH MIcro)
   49     dE    -1.312436e-06     5.712438e-04    -1.3118e-06      0.023 (TRAH MIcro)
   49     dE    -2.289333e-06     4.423336e-04    -2.2854e-06      0.041 (TRAH MIcro)
   49     dE    -3.279085e-06     5.491441e-04    -3.2671e-06      0.060 (TRAH MIcro)
   49     dE    -3.815106e-06     2.647153e-04    -3.7960e-06      0.071 (TRAH MIcro)
   49     dE    -3.987896e-06     1.751532e-04    -3.9659e-06      0.074 (TRAH MIcro)
   49     dE    -4.214886e-06     3.817877e-04    -4.1887e-06      0.079 (TRAH MIcro)
   49     dE    -5.890217e-06     1.126377e-03    -5.8113e-06      0.117 (TRAH MIcro)
   49     dE    -1.757767e-05     1.392278e-03    -9.4890e-05      0.265 (TRAH MIcro)
   49     dE    -2.040937e-05     5.645951e-04    -1.3228e-04      0.270 (TRAH MIcro)
   49     dE    -2.272548e-05     1.218767e-03    -1.6748e-04      0.270 (TRAH MIcro)
   49     dE    -3.219034e-05     1.724404e-03    -3.1221e-04      0.270 (TRAH MIcro)
   49     dE    -1.941733e-05     5.514657e-04    -4.6286e-04      0.170 (TRAH MIcro)
   49     dE    -2.645583e-05     1.096320e-03    -5.0106e-04      0.200 (TRAH MIcro)
   49     dE    -3.517820e-05     6.932399e-04    -5.3605e-04      0.230 (TRAH MIcro)
   49     dE    -4.167960e-05     8.260175e-04    -5.5687e-04      0.249 (TRAH MIcro)
   49     dE    -5.194756e-05     2.008545e-03    -6.1717e-04      0.269 (TRAH MIcro)
   49     dE    -5.720991e-05     6.366576e-04    -6.9658e-04      0.270 (TRAH MIcro)
   49     dE    -5.790132e-05     3.556655e-04    -7.0719e-04      0.270 (TRAH MIcro)
   49     dE    -5.838293e-05     4.689696e-04    -7.1458e-04      0.270 (TRAH MIcro)
   49     dE    -6.007070e-05     1.031183e-03    -7.4061e-04      0.270 (TRAH MIcro)
   49     dE    -1.325694e-05     2.360329e-04    -8.7909e-04      0.107 (TRAH MIcro)
   50       -295.077785977720     8.024026e-04                     0.270 (TRAH MAcro)   No
   50     dE    -6.314113e-07     1.282397e-04    -6.3141e-07      0.001 (TRAH MIcro)
   50     dE    -7.624229e-07     2.393802e-04    -7.6242e-07      0.002 (TRAH MIcro)
   50     dE    -1.028300e-06     2.219644e-04    -1.0283e-06      0.007 (TRAH MIcro)
   50     dE    -1.326833e-06     4.948033e-04    -1.3266e-06      0.013 (TRAH MIcro)
   50     dE    -2.523194e-06     7.132446e-04    -2.5195e-06      0.039 (TRAH MIcro)
   50     dE    -3.344877e-06     2.870750e-04    -3.3342e-06      0.057 (TRAH MIcro)
   50     dE    -3.473300e-06     1.310462e-04    -3.4611e-06      0.059 (TRAH MIcro)
   50     dE    -3.622146e-06     3.298911e-04    -3.6080e-06      0.063 (TRAH MIcro)
   50     dE    -4.013125e-06     3.517976e-04    -3.9924e-06      0.072 (TRAH MIcro)
   50     dE    -4.433943e-06     3.610511e-04    -4.4039e-06      0.083 (TRAH MIcro)
   50     dE    -4.744512e-06     3.678543e-04    -4.7057e-06      0.091 (TRAH MIcro)
   50     dE    -4.996632e-06     1.713418e-04    -4.9493e-06      0.098 (TRAH MIcro)
   50     dE    -5.086027e-06     1.613902e-04    -5.0354e-06      0.100 (TRAH MIcro)
   50     dE    -5.266169e-06     3.049700e-04    -5.2083e-06      0.105 (TRAH MIcro)
   50     dE    -6.082157e-06     6.641087e-04    -5.9806e-06      0.130 (TRAH MIcro)
   50     dE    -7.276388e-06     3.376749e-04    -7.0739e-06      0.169 (TRAH MIcro)
   50     dE    -7.606280e-06     3.511565e-04    -7.3673e-06      0.180 (TRAH MIcro)
   50     dE    -9.222436e-06     1.344444e-03    -8.7467e-06      0.233 (TRAH MIcro)
   50     dE    -1.355882e-05     7.858818e-04    -6.1697e-05      0.270 (TRAH MIcro)
   50     dE    -1.389103e-05     2.466446e-04    -7.5932e-05      0.261 (TRAH MIcro)
   50     dE    -1.435764e-05     3.003365e-04    -7.7053e-05      0.267 (TRAH MIcro)
   50     dE    -1.473636e-05     1.920645e-04    -8.0900e-05      0.270 (TRAH MIcro)
   50     dE    -1.491357e-05     2.898049e-04    -8.3805e-05      0.270 (TRAH MIcro)
   51       -295.077792073094     2.444750e-03                     0.270 (TRAH MAcro)   No
   51     dE    -5.081471e-06     1.984363e-04    -5.0814e-06      0.002 (TRAH MIcro)
   52       -295.077797156033     1.984178e-04                     0.324 (TRAH MAcro)   No
   52     dE    -8.866879e-08     1.264126e-04    -8.8669e-08      0.001 (TRAH MIcro)
   52     dE    -2.618947e-07     2.455336e-04    -2.6189e-07      0.003 (TRAH MIcro)
   52     dE    -4.211344e-07     1.764660e-04    -4.2112e-07      0.006 (TRAH MIcro)
   52     dE    -6.844561e-07     3.661282e-04    -6.8435e-07      0.012 (TRAH MIcro)
   52     dE    -1.438316e-06     3.911324e-04    -1.4369e-06      0.031 (TRAH MIcro)
   52     dE    -1.667704e-06     1.414789e-04    -1.6655e-06      0.037 (TRAH MIcro)
   52     dE    -1.778174e-06     2.525632e-04    -1.7754e-06      0.039 (TRAH MIcro)
   52     dE    -2.141872e-06     3.534443e-04    -2.1367e-06      0.049 (TRAH MIcro)
   52     dE    -2.478460e-06     2.125414e-04    -2.4699e-06      0.059 (TRAH MIcro)
   52     dE    -2.550072e-06     8.581190e-05    -2.5406e-06      0.061 (TRAH MIcro)
   52     dE    -2.583326e-06     1.130079e-04    -2.5734e-06      0.062 (TRAH MIcro)
   52     dE    -2.689393e-06     2.274317e-04    -2.6779e-06      0.065 (TRAH MIcro)
   52     dE    -2.853144e-06     1.942064e-04    -2.8389e-06      0.071 (TRAH MIcro)
   52     dE    -3.052852e-06     2.792600e-04    -3.0343e-06      0.078 (TRAH MIcro)
   52     dE    -3.372124e-06     2.439286e-04    -3.3444e-06      0.091 (TRAH MIcro)
   52     dE    -3.445438e-06     1.062643e-04    -3.4152e-06      0.094 (TRAH MIcro)
   52     dE    -3.579700e-06     4.992266e-04    -3.5443e-06      0.100 (TRAH MIcro)
   52     dE    -5.823705e-06     1.203943e-03    -5.5860e-06      0.206 (TRAH MIcro)
   52     dE    -9.704113e-06     9.479853e-04    -2.0960e-05      0.324 (TRAH MIcro)
   52     dE    -1.104953e-05     5.832619e-04    -3.5322e-05      0.324 (TRAH MIcro)
   52     dE    -1.188138e-05     4.164936e-04    -4.4202e-05      0.324 (TRAH MIcro)
   52     dE    -1.136709e-05     3.999760e-04    -5.7198e-05      0.290 (TRAH MIcro)
   52     dE    -1.266514e-05     4.841232e-04    -5.9891e-05      0.311 (TRAH MIcro)
 ---------------------------------
          TRAH Step control 
 ---------------------------------
  predicted energy change =    -1.266513682260e-05
  actual energy  change   =     1.145348903719e-05
  energy change ratio     = -0.904332
  old trust radius        = 0.323632
  new trust radius        = 0.216833
  reject step?            = YES
   53       -295.077785702544     1.984178e-04                     0.217 (TRAH MAcro)  Yes
   54       -295.077785702544     3.875777e-03                     0.217 (TRAH MAcro)   No
   54     dE    -1.304556e-05     2.956479e-04    -1.3045e-05      0.004 (TRAH MIcro)
   55       -295.077798752350     2.958119e-04                     0.260 (TRAH MAcro)   No
   55     dE    -2.307162e-07     2.100486e-04    -2.3072e-07      0.001 (TRAH MIcro)
   55     dE    -6.392999e-07     3.195769e-04    -6.3929e-07      0.005 (TRAH MIcro)
   55     dE    -1.001611e-06     3.168009e-04    -1.0015e-06      0.009 (TRAH MIcro)
   55     dE    -1.585332e-06     4.894962e-04    -1.5848e-06      0.018 (TRAH MIcro)
   55     dE    -3.053536e-06     5.968289e-04    -3.0484e-06      0.041 (TRAH MIcro)
   55     dE    -3.604980e-06     2.021142e-04    -3.5959e-06      0.050 (TRAH MIcro)
   55     dE    -3.706296e-06     1.252755e-04    -3.6964e-06      0.052 (TRAH MIcro)
   55     dE    -3.843201e-06     2.813130e-04    -3.8320e-06      0.054 (TRAH MIcro)
   55     dE    -4.175427e-06     3.400868e-04    -4.1603e-06      0.060 (TRAH MIcro)
   55     dE    -4.489683e-06     2.166389e-04    -4.4697e-06      0.067 (TRAH MIcro)
   55     dE    -4.699711e-06     2.584644e-04    -4.6757e-06      0.072 (TRAH MIcro)
   55     dE    -4.855591e-06     1.716923e-04    -4.8281e-06      0.075 (TRAH MIcro)
   55     dE    -4.946803e-06     1.738772e-04    -4.9172e-06      0.078 (TRAH MIcro)
   55     dE    -5.178444e-06     3.433008e-04    -5.1425e-06      0.084 (TRAH MIcro)
   55     dE    -5.620492e-06     2.585466e-04    -5.5689e-06      0.096 (TRAH MIcro)
   55     dE    -5.695584e-06     9.996695e-05    -5.6408e-06      0.099 (TRAH MIcro)
   55     dE    -5.738699e-06     1.409180e-04    -5.6821e-06      0.100 (TRAH MIcro)
   55     dE    -6.039824e-06     6.953615e-04    -5.9682e-06      0.110 (TRAH MIcro)
   55     dE    -6.826418e-06     3.294031e-04    -6.6981e-06      0.138 (TRAH MIcro)
   55     dE    -7.100449e-06     2.746851e-04    -6.9461e-06      0.149 (TRAH MIcro)
   55     dE    -7.383158e-06     3.320333e-04    -7.1983e-06      0.160 (TRAH MIcro)
   55     dE    -7.689634e-06     2.405369e-04    -7.4673e-06      0.173 (TRAH MIcro)
   55     dE    -8.041777e-06     4.350760e-04    -7.7705e-06      0.187 (TRAH MIcro)
   56       -295.077806195106     1.001968e-03                     0.312 (TRAH MAcro)   No
   56     dE    -1.005322e-06     2.319838e-04    -1.0053e-06      0.001 (TRAH MIcro)
   56     dE    -1.191591e-06     2.422003e-04    -1.1916e-06      0.002 (TRAH MIcro)
   56     dE    -1.588019e-06     2.493325e-04    -1.5880e-06      0.006 (TRAH MIcro)
   56     dE    -1.853568e-06     3.366079e-04    -1.8534e-06      0.010 (TRAH MIcro)
   56     dE    -2.642798e-06     6.338725e-04    -2.6413e-06      0.023 (TRAH MIcro)
   56     dE    -3.680122e-06     3.476601e-04    -3.6737e-06      0.042 (TRAH MIcro)
   56     dE    -3.880770e-06     1.491122e-04    -3.8728e-06      0.045 (TRAH MIcro)
   56     dE    -3.976139e-06     1.881873e-04    -3.9673e-06      0.047 (TRAH MIcro)
   56     dE    -4.444219e-06     5.380210e-04    -4.4301e-06      0.057 (TRAH MIcro)
   56     dE    -5.473001e-06     4.273076e-04    -5.4379e-06      0.080 (TRAH MIcro)
   56     dE    -5.852089e-06     2.580597e-04    -5.8054e-06      0.090 (TRAH MIcro)
   56     dE    -6.210055e-06     3.752294e-04    -6.1502e-06      0.099 (TRAH MIcro)
   56     dE    -7.439814e-06     7.092232e-04    -7.3148e-06      0.131 (TRAH MIcro)
   56     dE    -9.706885e-06     1.217496e-03    -9.3665e-06      0.191 (TRAH MIcro)
   56     dE    -2.061577e-05     1.766888e-03    -8.0429e-05      0.312 (TRAH MIcro)
   56     dE    -2.676923e-05     9.987381e-04    -1.4975e-04      0.312 (TRAH MIcro)
   56     dE    -2.877115e-05     7.572145e-04    -1.7229e-04      0.312 (TRAH MIcro)
   56     dE    -3.693213e-05     3.130551e-03    -2.6664e-04      0.311 (TRAH MIcro)
   56     dE    -1.858500e-05     6.433930e-04    -4.8422e-04      0.160 (TRAH MIcro)
   56     dE    -2.132461e-05     3.513041e-04    -4.9839e-04      0.173 (TRAH MIcro)
   56     dE    -2.259568e-05     3.307328e-04    -5.0429e-04      0.179 (TRAH MIcro)
   56     dE    -2.528114e-05     3.002639e-04    -5.1555e-04      0.190 (TRAH MIcro)
   56     dE    -2.783237e-05     4.173614e-04    -5.2509e-04      0.200 (TRAH MIcro)
 ---------------------------------
          TRAH Step control 
 ---------------------------------
  predicted energy change =    -2.783236842442e-05
  actual energy  change   =     5.276196304749e-06
  energy change ratio     = -0.189571
  old trust radius        = 0.312240
  new trust radius        = 0.209201
  reject step?            = YES
   57       -295.077800918910     1.001968e-03                     0.209 (TRAH MAcro)  Yes
   58       -295.077800918910     1.899659e-03                     0.209 (TRAH MAcro)   No
   58     dE    -3.670584e-06     3.552237e-04    -3.6706e-06      0.003 (TRAH MIcro)
   58     dE    -4.245911e-06     4.512572e-04    -4.2458e-06      0.004 (TRAH MIcro)
   58     dE    -5.983521e-06     5.347931e-04    -5.9821e-06      0.016 (TRAH MIcro)
   58     dE    -6.881262e-06     4.662685e-04    -6.8778e-06      0.023 (TRAH MIcro)
   58     dE    -8.156327e-06     5.886785e-04    -8.1470e-06      0.034 (TRAH MIcro)
   58     dE    -8.927698e-06     2.152961e-04    -8.9128e-06      0.041 (TRAH MIcro)
   58     dE    -9.015593e-06     9.149596e-05    -8.9999e-06      0.042 (TRAH MIcro)
   59       -295.077810148877     1.408643e-04                     0.251 (TRAH MAcro)   No
   59     dE    -5.889533e-08     1.230887e-04    -5.8895e-08      0.001 (TRAH MIcro)
   59     dE    -2.102964e-07     3.026773e-04    -2.1029e-07      0.004 (TRAH MIcro)
   59     dE    -1.081545e-06     4.318014e-04    -1.0809e-06      0.025 (TRAH MIcro)
   59     dE    -1.943550e-06     4.263405e-04    -1.9394e-06      0.047 (TRAH MIcro)
   59     dE    -2.722920e-06     4.090084e-04    -2.7111e-06      0.066 (TRAH MIcro)
   59     dE    -3.395431e-06     3.755939e-04    -3.3723e-06      0.083 (TRAH MIcro)
   59     dE    -3.799403e-06     2.551791e-04    -3.7668e-06      0.093 (TRAH MIcro)
   59     dE    -4.740125e-06     7.141274e-04    -4.6760e-06      0.117 (TRAH MIcro)
   59     dE    -8.334587e-06     6.965216e-04    -7.9886e-06      0.208 (TRAH MIcro)
   59     dE    -9.683319e-06     3.931250e-04    -9.1531e-06      0.241 (TRAH MIcro)
   59     dE    -1.147969e-05     8.217746e-04    -3.2356e-05      0.251 (TRAH MIcro)
   59     dE    -1.775649e-05     1.560768e-03    -1.4023e-04      0.251 (TRAH MIcro)
   59     dE    -2.593547e-05     8.115470e-04    -2.8447e-04      0.251 (TRAH MIcro)
   59     dE    -2.806843e-05     7.799343e-04    -3.2235e-04      0.251 (TRAH MIcro)
   59     dE    -1.673512e-05     3.641841e-04    -4.0583e-04      0.168 (TRAH MIcro)
   59     dE    -1.763347e-05     2.410147e-04    -4.1192e-04      0.173 (TRAH MIcro)
   59     dE    -2.027835e-05     9.647209e-04    -4.2800e-04      0.186 (TRAH MIcro)
   59     dE    -3.092825e-05     1.143831e-03    -4.7394e-04      0.229 (TRAH MIcro)
   59     dE    -3.636553e-05     3.225027e-04    -4.9076e-04      0.247 (TRAH MIcro)
   59     dE    -3.755329e-05     2.594067e-04    -4.9495e-04      0.251 (TRAH MIcro)
   59     dE    -3.802797e-05     5.742789e-04    -5.0380e-04      0.251 (TRAH MIcro)
   59     dE    -3.938110e-05     6.031956e-04    -5.2923e-04      0.251 (TRAH MIcro)
   59     dE    -4.046269e-05     5.475856e-04    -5.4973e-04      0.251 (TRAH MIcro)
 ---------------------------------
          TRAH Step control 
 ---------------------------------
  predicted energy change =    -4.046269093979e-05
  actual energy  change   =     1.331001107019e-05
  energy change ratio     = -0.328945
  old trust radius        = 0.251041
  new trust radius        = 0.168198
  reject step?            = YES
   60       -295.077796838866     1.408643e-04                     0.168 (TRAH MAcro)  Yes
   61       -295.077796838866     3.086458e-03                     0.168 (TRAH MAcro)   No
   61     dE    -8.700277e-06     4.119127e-04    -8.7002e-06      0.003 (TRAH MIcro)
   61     dE    -9.173249e-06     3.416026e-04    -9.1731e-06      0.004 (TRAH MIcro)
   61     dE    -1.005331e-05     4.063375e-04    -1.0052e-05      0.009 (TRAH MIcro)
   61     dE    -1.060700e-05     4.284807e-04    -1.0605e-05      0.014 (TRAH MIcro)
   61     dE    -1.196716e-05     6.737748e-04    -1.1958e-05      0.028 (TRAH MIcro)
   61     dE    -1.382453e-05     5.273388e-04    -1.3791e-05      0.049 (TRAH MIcro)
   61     dE    -1.422441e-05     2.027385e-04    -1.4183e-05      0.054 (TRAH MIcro)
   62       -295.077811630224     2.571972e-04                     0.202 (TRAH MAcro)   No
   62     dE    -1.101807e-07     1.177058e-04    -1.1018e-07      0.001 (TRAH MIcro)
   62     dE    -1.924154e-07     1.834304e-04    -1.9241e-07      0.002 (TRAH MIcro)
   62     dE    -5.808569e-07     4.178554e-04    -5.8079e-07      0.010 (TRAH MIcro)
   62     dE    -1.384143e-06     3.934048e-04    -1.3830e-06      0.029 (TRAH MIcro)
   62     dE    -1.742674e-06     2.132103e-04    -1.7402e-06      0.037 (TRAH MIcro)
   62     dE    -1.985678e-06     3.015358e-04    -1.9820e-06      0.043 (TRAH MIcro)
   62     dE    -2.290563e-06     2.298576e-04    -2.2847e-06      0.051 (TRAH MIcro)
   62     dE    -2.646378e-06     4.882191e-04    -2.6369e-06      0.060 (TRAH MIcro)
   62     dE    -5.790523e-06     1.135335e-03    -5.6685e-06      0.147 (TRAH MIcro)
   62     dE    -8.867507e-06     4.652519e-04    -3.4674e-05      0.202 (TRAH MIcro)
   62     dE    -9.484242e-06     3.936421e-04    -5.0881e-05      0.202 (TRAH MIcro)
   62     dE    -1.078211e-05     7.786105e-04    -8.5325e-05      0.202 (TRAH MIcro)
   62     dE    -1.456696e-05     9.175947e-04    -1.8823e-04      0.202 (TRAH MIcro)
   62     dE    -1.654062e-05     6.110186e-04    -2.4294e-04      0.202 (TRAH MIcro)
   62     dE    -1.157305e-05     5.038419e-04    -3.5595e-04      0.140 (TRAH MIcro)
   62     dE    -1.424208e-05     4.750810e-04    -3.7965e-04      0.157 (TRAH MIcro)
   62     dE    -1.615695e-05     4.175941e-04    -3.9382e-04      0.168 (TRAH MIcro)
   62     dE    -2.338394e-05     1.467420e-03    -4.3724e-04      0.202 (TRAH MIcro)
   62     dE    -2.566424e-05     4.360347e-04    -5.0285e-04      0.202 (TRAH MIcro)
   62     dE    -2.593078e-05     2.082770e-04    -5.1054e-04      0.202 (TRAH MIcro)
   62     dE    -2.612179e-05     3.811706e-04    -5.1607e-04      0.202 (TRAH MIcro)
   62     dE    -2.706789e-05     8.637879e-04    -5.5634e-04      0.200 (TRAH MIcro)
   62     dE    -8.544747e-06     1.843700e-04    -7.1081e-04      0.092 (TRAH MIcro)
   63       -295.077814101395     4.274285e-04                     0.202 (TRAH MAcro)   No
   63     dE    -2.255944e-07     1.443852e-04    -2.2559e-07      0.001 (TRAH MIcro)
   63     dE    -3.349658e-07     2.039601e-04    -3.3496e-07      0.002 (TRAH MIcro)
   63     dE    -5.016254e-07     1.639076e-04    -5.0161e-07      0.005 (TRAH MIcro)
   63     dE    -6.621496e-07     3.333657e-04    -6.6210e-07      0.009 (TRAH MIcro)
   63     dE    -1.000495e-06     2.603539e-04    -1.0002e-06      0.017 (TRAH MIcro)
   63     dE    -1.112331e-06     1.056854e-04    -1.1119e-06      0.020 (TRAH MIcro)
   63     dE    -1.137177e-06     7.032174e-05    -1.1367e-06      0.021 (TRAH MIcro)
   63     dE    -1.192292e-06     2.062554e-04    -1.1917e-06      0.023 (TRAH MIcro)
   63     dE    -1.508916e-06     3.282923e-04    -1.5071e-06      0.034 (TRAH MIcro)
   63     dE    -1.848377e-06     2.392724e-04    -1.8439e-06      0.049 (TRAH MIcro)
   63     dE    -2.025168e-06     2.218402e-04    -2.0185e-06      0.057 (TRAH MIcro)
   63     dE    -2.143266e-06     1.432876e-04    -2.1348e-06      0.063 (TRAH MIcro)
   63     dE    -2.201320e-06     1.082500e-04    -2.1919e-06      0.066 (TRAH MIcro)
   63     dE    -2.281917e-06     2.163122e-04    -2.2709e-06      0.070 (TRAH MIcro)
   63     dE    -2.889939e-06     6.471217e-04    -2.8609e-06      0.101 (TRAH MIcro)
   63     dE    -4.925046e-06     6.223443e-04    -8.1888e-06      0.202 (TRAH MIcro)
   63     dE    -5.458424e-06     2.927377e-04    -2.2774e-05      0.202 (TRAH MIcro)
   63     dE    -6.106557e-06     7.034177e-04    -4.0531e-05      0.202 (TRAH MIcro)
   63     dE    -6.651601e-06     5.190335e-04    -9.2042e-05      0.175 (TRAH MIcro)
   63     dE    -7.828717e-06     2.692247e-04    -9.8379e-05      0.195 (TRAH MIcro)
   63     dE    -8.489637e-06     4.195908e-04    -1.0636e-04      0.202 (TRAH MIcro)
   63     dE    -8.815617e-06     1.545149e-04    -1.1544e-04      0.202 (TRAH MIcro)
   63     dE    -8.991719e-06     3.254542e-04    -1.2036e-04      0.202 (TRAH MIcro)
   64       -295.077817493162     1.436848e-03                     0.202 (TRAH MAcro)   No
   64     dE    -1.783317e-06     1.855601e-04    -1.7833e-06      0.001 (TRAH MIcro)
   64     dE    -1.859165e-06     1.147976e-04    -1.8592e-06      0.002 (TRAH MIcro)
   65       -295.077819352813     1.145488e-04                     0.242 (TRAH MAcro)   No
   65     dE    -5.617019e-08     1.326276e-04    -5.6170e-08      0.001 (TRAH MIcro)
   65     dE    -3.592585e-07     3.250094e-04    -3.5924e-07      0.007 (TRAH MIcro)
   65     dE    -6.212358e-07     1.955060e-04    -6.2114e-07      0.013 (TRAH MIcro)
   65     dE    -8.442864e-07     3.051188e-04    -8.4401e-07      0.018 (TRAH MIcro)
   65     dE    -1.153143e-06     1.388425e-04    -1.1524e-06      0.026 (TRAH MIcro)
   65     dE    -1.233717e-06     1.759454e-04    -1.2328e-06      0.028 (TRAH MIcro)
   65     dE    -1.748627e-06     5.107713e-04    -1.7455e-06      0.042 (TRAH MIcro)
   65     dE    -2.499958e-06     3.071188e-04    -2.4892e-06      0.066 (TRAH MIcro)
   65     dE    -2.738467e-06     1.778255e-04    -2.7238e-06      0.073 (TRAH MIcro)
   65     dE    -2.977239e-06     2.942938e-04    -2.9577e-06      0.081 (TRAH MIcro)
   65     dE    -3.641514e-06     5.479063e-04    -3.6031e-06      0.103 (TRAH MIcro)
   65     dE    -6.735013e-06     1.032608e-03    -6.4594e-06      0.207 (TRAH MIcro)
   65     dE    -1.364089e-05     1.356103e-03    -1.1447e-04      0.242 (TRAH MIcro)
   65     dE    -1.811548e-05     7.346251e-04    -1.9749e-04      0.242 (TRAH MIcro)
   65     dE    -1.908259e-05     3.454293e-04    -2.1545e-04      0.242 (TRAH MIcro)
   65     dE    -2.023891e-05     7.706163e-04    -2.3698e-04      0.242 (TRAH MIcro)
   65     dE    -1.735192e-05     6.896257e-04    -3.5951e-04      0.188 (TRAH MIcro)
   65     dE    -2.214459e-05     3.546573e-04    -3.8376e-04      0.212 (TRAH MIcro)
   65     dE    -2.297877e-05     1.678166e-04    -3.8744e-04      0.215 (TRAH MIcro)
   65     dE    -2.392883e-05     4.496797e-04    -3.9142e-04      0.220 (TRAH MIcro)
   65     dE    -2.528231e-05     2.686747e-04    -3.9677e-04      0.225 (TRAH MIcro)
   65     dE    -2.799554e-05     8.165640e-04    -4.0651e-04      0.237 (TRAH MIcro)
   65     dE    -3.331385e-05     1.601526e-03    -4.8899e-04      0.242 (TRAH MIcro)
 ---------------------------------
          TRAH Step control 
 ---------------------------------
  predicted energy change =    -3.331384909933e-05
  actual energy  change   =     5.598153450137e-06
  energy change ratio     = -0.168043
  old trust radius        = 0.242204
  new trust radius        = 0.162277
  reject step?            = YES
   66       -295.077813754659     1.145488e-04                     0.162 (TRAH MAcro)  Yes
   67       -295.077813754659     2.265233e-03                     0.162 (TRAH MAcro)   No
   67     dE    -4.780535e-06     4.999722e-04    -4.7805e-06      0.003 (TRAH MIcro)
   67     dE    -5.287320e-06     2.753840e-04    -5.2872e-06      0.004 (TRAH MIcro)
   67     dE    -5.835759e-06     4.832645e-04    -5.8355e-06      0.007 (TRAH MIcro)
   67     dE    -6.455574e-06     3.459511e-04    -6.4545e-06      0.013 (TRAH MIcro)
   67     dE    -7.139688e-06     5.270613e-04    -7.1368e-06      0.020 (TRAH MIcro)
   67     dE    -7.918623e-06     4.306290e-04    -7.9116e-06      0.030 (TRAH MIcro)
   67     dE    -8.384873e-06     2.681897e-04    -8.3740e-06      0.036 (TRAH MIcro)
   67     dE    -8.462807e-06     1.149932e-04    -8.4512e-06      0.037 (TRAH MIcro)
   68       -295.077822287961     1.372383e-04                     0.162 (TRAH MAcro)   No
   68     dE    -5.260055e-08     1.301679e-04    -5.2601e-08      0.001 (TRAH MIcro)
   68     dE    -2.539652e-07     4.064684e-04    -2.5396e-07      0.005 (TRAH MIcro)
   68     dE    -1.152692e-06     5.053837e-04    -1.1519e-06      0.026 (TRAH MIcro)
   68     dE    -1.889782e-06     4.209400e-04    -1.8861e-06      0.044 (TRAH MIcro)
   68     dE    -2.760987e-06     5.511883e-04    -2.7491e-06      0.066 (TRAH MIcro)
   68     dE    -3.524441e-06     3.634851e-04    -3.4994e-06      0.085 (TRAH MIcro)
   68     dE    -4.000802e-06     3.520292e-04    -3.9639e-06      0.096 (TRAH MIcro)
   68     dE    -5.680513e-06     1.333312e-03    -5.5736e-06      0.139 (TRAH MIcro)
   68     dE    -1.095648e-05     8.932813e-04    -1.8221e-04      0.162 (TRAH MIcro)
   68     dE    -1.207867e-05     3.062071e-04    -2.2839e-04      0.162 (TRAH MIcro)
   68     dE    -1.246812e-05     4.097838e-04    -2.4454e-04      0.162 (TRAH MIcro)
   68     dE    -1.324153e-05     5.798164e-04    -2.7856e-04      0.162 (TRAH MIcro)
   68     dE    -1.148994e-05     3.668023e-04    -3.7260e-04      0.134 (TRAH MIcro)
   68     dE    -1.218138e-05     2.249183e-04    -3.8056e-04      0.138 (TRAH MIcro)
   68     dE    -1.297142e-05     3.221656e-04    -3.8895e-04      0.143 (TRAH MIcro)
   68     dE    -1.359958e-05     2.336860e-04    -3.9506e-04      0.147 (TRAH MIcro)
   68     dE    -1.450742e-05     4.174319e-04    -4.0322e-04      0.152 (TRAH MIcro)
   68     dE    -1.781852e-05     1.163731e-03    -4.8673e-04      0.162 (TRAH MIcro)
   68     dE    -1.831253e-05     2.011330e-04    -5.3704e-04      0.160 (TRAH MIcro)
   68     dE    -1.878670e-05     1.506608e-04    -5.3975e-04      0.162 (TRAH MIcro)
   68     dE    -1.904196e-05     3.356542e-04    -5.4740e-04      0.162 (TRAH MIcro)
   68     dE    -8.042174e-06     2.505227e-04    -7.2714e-04      0.086 (TRAH MIcro)
   68     dE    -9.057579e-06     1.528189e-04    -7.3898e-04      0.093 (TRAH MIcro)
   69       -295.077825860395     3.322303e-04                     0.162 (TRAH MAcro)   No
   69     dE    -1.379235e-07     9.449114e-05    -1.3792e-07      0.001 (TRAH MIcro)
   69     dE    -1.812408e-07     1.282293e-04    -1.8124e-07      0.001 (TRAH MIcro)
   69     dE    -3.375567e-07     1.889068e-04    -3.3755e-07      0.005 (TRAH MIcro)
   69     dE    -4.984034e-07     2.352114e-04    -4.9836e-07      0.010 (TRAH MIcro)
   69     dE    -9.397667e-07     4.476572e-04    -9.3925e-07      0.024 (TRAH MIcro)
   69     dE    -1.763484e-06     3.782188e-04    -1.7591e-06      0.050 (TRAH MIcro)
   69     dE    -1.986818e-06     1.422846e-04    -1.9804e-06      0.057 (TRAH MIcro)
   69     dE    -2.088233e-06     2.078143e-04    -2.0807e-06      0.060 (TRAH MIcro)
   69     dE    -2.988262e-06     8.956415e-04    -2.9639e-06      0.091 (TRAH MIcro)
   69     dE    -9.099309e-06     9.824161e-04    -1.7207e-04      0.162 (TRAH MIcro)
   69     dE    -8.330722e-06     3.349160e-04    -2.7923e-04      0.130 (TRAH MIcro)
   69     dE    -9.502147e-06     3.783262e-04    -2.9363e-04      0.140 (TRAH MIcro)
   69     dE    -1.101679e-05     3.725826e-04    -3.0988e-04      0.151 (TRAH MIcro)
   69     dE    -1.279071e-05     7.150331e-04    -3.2623e-04      0.162 (TRAH MIcro)
   69     dE    -1.505200e-05     8.096081e-04    -4.2275e-04      0.162 (TRAH MIcro)
   69     dE    -1.665861e-05     4.968269e-04    -4.9268e-04      0.162 (TRAH MIcro)
   69     dE    -6.916656e-06     8.315476e-05    -6.0570e-04      0.088 (TRAH MIcro)
   69     dE    -7.181198e-06     2.351425e-04    -6.1102e-04      0.090 (TRAH MIcro)
   69     dE    -1.039064e-05     8.153961e-04    -6.5809e-04      0.110 (TRAH MIcro)
   69     dE    -2.205835e-05     7.356016e-04    -7.4037e-04      0.162 (TRAH MIcro)
   69     dE    -2.302336e-05     5.150294e-04    -7.7761e-04      0.162 (TRAH MIcro)
   69     dE    -2.451325e-05     5.454635e-04    -8.4306e-04      0.162 (TRAH MIcro)
   69     dE    -2.540704e-05     4.613782e-04    -8.8195e-04      0.162 (TRAH MIcro)
 ---------------------------------
          TRAH Step control 
 ---------------------------------
  predicted energy change =    -2.540704339044e-05
  actual energy  change   =     1.874848294392e-07
  energy change ratio     = -0.007379
  old trust radius        = 0.162277
  new trust radius        = 0.108726
  reject step?            = YES
   70       -295.077825672910     3.322303e-04                     0.109 (TRAH MAcro)  Yes
   71       -295.077825672910     1.595148e-03                     0.109 (TRAH MAcro)   No
   71     dE    -2.443191e-06     2.949334e-04    -2.4432e-06      0.002 (TRAH MIcro)
   71     dE    -2.697425e-06     2.537959e-04    -2.6974e-06      0.003 (TRAH MIcro)
   71     dE    -3.095926e-06     2.145413e-04    -3.0958e-06      0.006 (TRAH MIcro)
   71     dE    -3.236946e-06     1.969715e-04    -3.2368e-06      0.007 (TRAH MIcro)
   71     dE    -3.488396e-06     3.058800e-04    -3.4879e-06      0.011 (TRAH MIcro)
   71     dE    -3.732243e-06     1.832008e-04    -3.7313e-06      0.016 (TRAH MIcro)
   71     dE    -3.798434e-06     9.700888e-05    -3.7973e-06      0.017 (TRAH MIcro)
   72       -295.077829376204     1.026856e-04                     0.130 (TRAH MAcro)   No
   72     dE    -4.076238e-08     1.070754e-04    -4.0762e-08      0.001 (TRAH MIcro)
   72     dE    -2.297599e-07     2.621673e-04    -2.2975e-07      0.005 (TRAH MIcro)
   72     dE    -4.529639e-07     1.615297e-04    -4.5291e-07      0.011 (TRAH MIcro)
   72     dE    -5.586019e-07     1.479472e-04    -5.5849e-07      0.014 (TRAH MIcro)
   72     dE    -7.610493e-07     2.178760e-04    -7.6074e-07      0.020 (TRAH MIcro)
   72     dE    -9.373443e-07     2.021364e-04    -9.3672e-07      0.026 (TRAH MIcro)
   72     dE    -1.775323e-06     7.698227e-04    -1.7701e-06      0.054 (TRAH MIcro)
   72     dE    -7.284770e-06     8.230865e-04    -2.6596e-04      0.120 (TRAH MIcro)
   72     dE    -9.284152e-06     2.639845e-04    -3.3158e-04      0.130 (TRAH MIcro)
   72     dE    -9.425663e-06     1.228478e-04    -3.4032e-04      0.130 (TRAH MIcro)
   72     dE    -9.535628e-06     2.209065e-04    -3.4715e-04      0.130 (TRAH MIcro)
   72     dE    -1.011737e-05     4.870837e-04    -3.8432e-04      0.130 (TRAH MIcro)
   72     dE    -1.092929e-05     3.284604e-04    -4.3902e-04      0.130 (TRAH MIcro)
   72     dE    -1.110392e-05     8.909274e-05    -4.5115e-04      0.130 (TRAH MIcro)
   72     dE    -1.115312e-05     1.003351e-04    -4.5461e-04      0.130 (TRAH MIcro)
   72     dE    -1.118342e-05     7.579277e-05    -4.5675e-04      0.130 (TRAH MIcro)
   72     dE    -1.121639e-05     9.426431e-05    -4.5911e-04      0.130 (TRAH MIcro)
   72     dE    -1.135607e-05     2.518891e-04    -4.6941e-04      0.130 (TRAH MIcro)
   72     dE    -5.990878e-06     6.152987e-05    -5.9131e-04      0.081 (TRAH MIcro)
   72     dE    -6.023111e-06     2.908741e-05    -5.9202e-04      0.081 (TRAH MIcro)
   72     dE    -6.041551e-06     4.474354e-05    -5.9241e-04      0.081 (TRAH MIcro)
   72     dE    -6.221107e-06     1.613587e-04    -5.9577e-04      0.083 (TRAH MIcro)
   72     dE    -6.478554e-06     7.805390e-05    -5.9972e-04      0.085 (TRAH MIcro)
   73       -295.077832747533     2.431646e-04                     0.130 (TRAH MAcro)   No
   73     dE    -8.981453e-08     9.116338e-05    -8.9814e-08      0.001 (TRAH MIcro)
   73     dE    -1.558075e-07     1.808967e-04    -1.5581e-07      0.002 (TRAH MIcro)
   73     dE    -3.787675e-07     1.943577e-04    -3.7875e-07      0.008 (TRAH MIcro)
   73     dE    -5.436261e-07     2.209473e-04    -5.4354e-07      0.012 (TRAH MIcro)
   73     dE    -7.600448e-07     2.269119e-04    -7.5978e-07      0.019 (TRAH MIcro)
   73     dE    -9.013291e-07     1.194785e-04    -9.0085e-07      0.023 (TRAH MIcro)
   73     dE    -9.501437e-07     9.892009e-05    -9.4957e-07      0.025 (TRAH MIcro)
   73     dE    -1.050572e-06     2.501631e-04    -1.0497e-06      0.028 (TRAH MIcro)
   73     dE    -2.543365e-06     1.138817e-03    -2.5232e-06      0.089 (TRAH MIcro)
   73     dE    -5.560785e-06     3.518388e-04    -2.1819e-04      0.112 (TRAH MIcro)
   73     dE    -7.093077e-06     3.812211e-04    -2.4165e-04      0.128 (TRAH MIcro)
   73     dE    -8.380355e-06     5.852331e-04    -3.1192e-04      0.130 (TRAH MIcro)
   73     dE    -9.471428e-06     3.810756e-04    -3.8186e-04      0.130 (TRAH MIcro)
   73     dE    -5.113870e-06     2.100687e-04    -5.2079e-04      0.079 (TRAH MIcro)
   73     dE    -5.619587e-06     1.587200e-04    -5.3590e-04      0.083 (TRAH MIcro)
   73     dE    -5.904462e-06     1.097714e-04    -5.4370e-04      0.085 (TRAH MIcro)
   73     dE    -6.359726e-06     3.369291e-04    -5.5504e-04      0.089 (TRAH MIcro)
   73     dE    -1.120811e-05     1.016581e-03    -6.3247e-04      0.119 (TRAH MIcro)
   73     dE    -1.456998e-05     4.051511e-04    -7.2721e-04      0.130 (TRAH MIcro)
   73     dE    -1.450201e-05     1.422282e-04    -7.3953e-04      0.129 (TRAH MIcro)
   73     dE    -1.480875e-05     2.286136e-04    -7.4375e-04      0.130 (TRAH MIcro)
   73     dE    -1.519948e-05     4.326929e-04    -7.7110e-04      0.130 (TRAH MIcro)
   73     dE    -1.599147e-05     5.618313e-04    -8.2696e-04      0.130 (TRAH MIcro)
   74       -295.077834031664     9.285493e-04                     0.087 (TRAH MAcro)   No
   74     dE    -8.670643e-07     2.468714e-04    -8.6706e-07      0.001 (TRAH MIcro)
   74     dE    -1.062074e-06     2.400080e-04    -1.0621e-06      0.002 (TRAH MIcro)
   74     dE    -1.403734e-06     2.936440e-04    -1.4037e-06      0.006 (TRAH MIcro)
   74     dE    -1.625979e-06     2.588537e-04    -1.6258e-06      0.009 (TRAH MIcro)
   74     dE    -2.087644e-06     5.263261e-04    -2.0871e-06      0.017 (TRAH MIcro)
   74     dE    -2.816574e-06     3.927268e-04    -2.8140e-06      0.030 (TRAH MIcro)
   74     dE    -2.990297e-06     1.403437e-04    -2.9869e-06      0.034 (TRAH MIcro)
   74     dE    -3.038762e-06     1.341357e-04    -3.0352e-06      0.034 (TRAH MIcro)
   74     dE    -3.206944e-06     3.022013e-04    -3.2023e-06      0.038 (TRAH MIcro)
   74     dE    -4.167433e-06     7.625675e-04    -4.1502e-06      0.064 (TRAH MIcro)
   74     dE    -5.572223e-06     4.422152e-04    -1.1319e-04      0.087 (TRAH MIcro)
   74     dE    -6.127800e-06     3.595462e-04    -2.0147e-04      0.087 (TRAH MIcro)
   74     dE    -5.849314e-06     1.578953e-04    -3.1736e-04      0.074 (TRAH MIcro)
   74     dE    -5.982808e-06     1.161893e-04    -3.2035e-04      0.076 (TRAH MIcro)
   74     dE    -6.212999e-06     2.051872e-04    -3.2523e-04      0.079 (TRAH MIcro)
   74     dE    -6.866610e-06     2.686080e-04    -3.3749e-04      0.086 (TRAH MIcro)
   74     dE    -7.029910e-06     1.064394e-04    -3.5002e-04      0.087 (TRAH MIcro)
   74     dE    -7.123151e-06     3.189301e-04    -3.6646e-04      0.087 (TRAH MIcro)
   74     dE    -4.594900e-06     2.562603e-04    -8.0692e-04      0.045 (TRAH MIcro)
   74     dE    -5.861270e-06     2.244467e-04    -8.3345e-04      0.058 (TRAH MIcro)
   74     dE    -6.535613e-06     1.131044e-04    -8.4324e-04      0.064 (TRAH MIcro)
   74     dE    -6.963800e-06     9.801241e-05    -8.4856e-04      0.068 (TRAH MIcro)
   74     dE    -7.378523e-06     1.208604e-04    -8.5334e-04      0.071 (TRAH MIcro)
   75       -295.077837823179     2.488114e-04                     0.087 (TRAH MAcro)   No
   75     dE    -7.700485e-08     7.422473e-05    -7.7005e-08      0.000 (TRAH MIcro)
   75     dE    -1.106246e-07     1.241750e-04    -1.1062e-07      0.001 (TRAH MIcro)
   75     dE    -3.094848e-07     2.356308e-04    -3.0947e-07      0.007 (TRAH MIcro)
   75     dE    -4.751604e-07     1.990869e-04    -4.7508e-07      0.013 (TRAH MIcro)
   75     dE    -7.238737e-07     2.987829e-04    -7.2354e-07      0.021 (TRAH MIcro)
   75     dE    -9.770704e-07     1.820162e-04    -9.7616e-07      0.031 (TRAH MIcro)
   75     dE    -1.049952e-06     1.086659e-04    -1.0488e-06      0.033 (TRAH MIcro)
   75     dE    -1.150168e-06     2.490173e-04    -1.1486e-06      0.037 (TRAH MIcro)
   75     dE    -2.269101e-06     9.741399e-04    -2.2535e-06      0.083 (TRAH MIcro)
   75     dE    -4.395680e-06     3.945460e-04    -2.9968e-04      0.087 (TRAH MIcro)
   75     dE    -3.443196e-06     1.963266e-04    -4.3751e-04      0.065 (TRAH MIcro)
   75     dE    -4.594523e-06     4.803832e-04    -4.8460e-04      0.077 (TRAH MIcro)
   75     dE    -6.797617e-06     5.456870e-04    -6.5756e-04      0.087 (TRAH MIcro)
   75     dE    -7.242120e-06     2.918543e-04    -7.2498e-04      0.087 (TRAH MIcro)
   75     dE    -7.654766e-06     3.763672e-04    -7.8762e-04      0.087 (TRAH MIcro)
   75     dE    -3.232350e-06     2.014629e-04    -1.0135e-03      0.047 (TRAH MIcro)
   75     dE    -3.960680e-06     2.432601e-04    -1.0524e-03      0.053 (TRAH MIcro)
   75     dE    -8.033351e-06     7.627164e-04    -1.1745e-03      0.077 (TRAH MIcro)
   75     dE    -1.064719e-05     1.903345e-04    -1.2429e-03      0.087 (TRAH MIcro)
   75     dE    -1.069619e-05     9.059042e-05    -1.2503e-03      0.087 (TRAH MIcro)
   75     dE    -1.072004e-05     1.393999e-04    -1.2539e-03      0.087 (TRAH MIcro)
   75     dE    -1.086474e-05     1.883811e-04    -1.2758e-03      0.087 (TRAH MIcro)
   75     dE    -1.096103e-05     1.438580e-04    -1.2906e-03      0.087 (TRAH MIcro)
   76       -295.077839280961     4.666554e-04                     0.059 (TRAH MAcro)   No
   76     dE    -2.421434e-07     9.212744e-05    -2.4214e-07      0.001 (TRAH MIcro)
   76     dE    -2.691338e-07     8.505346e-05    -2.6913e-07      0.001 (TRAH MIcro)
   76     dE    -3.109401e-07     7.831955e-05    -3.1094e-07      0.002 (TRAH MIcro)
   76     dE    -3.396239e-07     1.034426e-04    -3.3962e-07      0.003 (TRAH MIcro)
   76     dE    -4.206827e-07     1.987770e-04    -4.2066e-07      0.007 (TRAH MIcro)
   76     dE    -8.672498e-07     4.555092e-04    -8.6650e-07      0.029 (TRAH MIcro)
   76     dE    -1.233894e-06     1.708939e-04    -1.2310e-06      0.048 (TRAH MIcro)
   76     dE    -1.296995e-06     8.365735e-05    -1.2936e-06      0.051 (TRAH MIcro)
   76     dE    -1.355143e-06     1.543340e-04    -1.3511e-06      0.055 (TRAH MIcro)
   76     dE    -1.508492e-06     2.176913e-04    -2.5384e-05      0.059 (TRAH MIcro)
   76     dE    -1.742102e-06     2.584011e-04    -1.0711e-04      0.058 (TRAH MIcro)
   76     dE    -2.080676e-06     3.326378e-04    -2.1895e-04      0.059 (TRAH MIcro)
   76     dE    -2.309398e-06     2.225816e-04    -3.3838e-04      0.057 (TRAH MIcro)
   76     dE    -2.505687e-06     1.854413e-04    -3.7244e-04      0.059 (TRAH MIcro)
   76     dE    -2.749038e-06     3.589943e-04    -4.6178e-04      0.059 (TRAH MIcro)
   76     dE    -1.505373e-06     1.408013e-04    -7.8092e-04      0.031 (TRAH MIcro)
   76     dE    -1.593626e-06     3.785246e-05    -7.8944e-04      0.032 (TRAH MIcro)
   77       -295.077840444493     8.079243e-05                           (NR   MAcro)
   77     dE    -1.578928e-08     5.674264e-05                           (NR   MIcro)
   77     dE    -4.844071e-08     1.473343e-04                           (NR   MIcro)
   77     dE    -2.227087e-07     2.023697e-04                           (NR   MIcro)
   77     dE    -2.993650e-07     9.175348e-05                           (NR   MIcro)
   77     dE    -3.682327e-07     1.489159e-04                           (NR   MIcro)
   77     dE    -4.497263e-07     1.247750e-04                           (NR   MIcro)
   77     dE    -5.270603e-07     1.563651e-04                           (NR   MIcro)
   77     dE    -6.761547e-07     1.927273e-04                           (NR   MIcro)
   77     dE    -8.239941e-07     1.440426e-04                           (NR   MIcro)
   77     dE    -8.604736e-07     4.590732e-05                           (NR   MIcro)
   77     dE    -8.950304e-07     1.443535e-04                           (NR   MIcro)
   77     dE    -1.417159e-06     6.650782e-04                           (NR   MIcro)
   77     dE     1.560928e-07     3.853468e-04                           (NR   MIcro)
   77     dE    -4.276469e-08     1.286978e-04                           (NR   MIcro)
   77     dE    -1.189783e-07     1.335172e-04                           (NR   MIcro)
   77     dE    -1.673267e-07     9.634743e-05                           (NR   MIcro)
   77     dE    -1.976606e-07     1.037553e-04                           (NR   MIcro)
   77     dE    -3.874663e-07     4.526130e-04                           (NR   MIcro)
   77     dE    -5.690354e-07     1.158211e-04                           (NR   MIcro)
   77     dE    -5.904799e-07     6.528453e-05                           (NR   MIcro)
   77     dE    -6.057672e-07     1.026905e-04                           (NR   MIcro)
   77     dE    -6.711340e-07     1.719174e-04                           (NR   MIcro)
   77     dE    -7.953148e-07     2.181816e-04                           (NR   MIcro)
   77     dE    -8.972513e-07     1.420804e-04                           (NR   MIcro)
   78       -295.077841665832     2.554249e-04                     0.059 (TRAH MAcro)   No
   78     dE    -8.537689e-08     8.727716e-05    -8.5377e-08      0.000 (TRAH MIcro)
   78     dE    -1.161626e-07     9.469380e-05    -1.1616e-07      0.001 (TRAH MIcro)
   78     dE    -1.495583e-07     6.459961e-05    -1.4956e-07      0.002 (TRAH MIcro)
   78     dE    -1.734184e-07     1.093777e-04    -1.7342e-07      0.003 (TRAH MIcro)
   78     dE    -2.922205e-07     2.586906e-04    -2.9220e-07      0.009 (TRAH MIcro)
   78     dE    -6.491399e-07     3.677813e-04    -6.4861e-07      0.028 (TRAH MIcro)
   78     dE    -8.684235e-07     1.419961e-04    -8.6700e-07      0.041 (TRAH MIcro)
   78     dE    -9.081019e-07     1.153244e-04    -9.0644e-07      0.043 (TRAH MIcro)
   78     dE    -1.005060e-06     2.559034e-04    -1.0027e-06      0.048 (TRAH MIcro)
   78     dE    -1.530481e-06     4.188949e-04    -1.1298e-04      0.059 (TRAH MIcro)
   78     dE    -2.214728e-06     5.792809e-04    -3.4350e-04      0.059 (TRAH MIcro)
   78     dE    -1.614388e-06     1.910092e-04    -6.8410e-04      0.037 (TRAH MIcro)
   78     dE    -1.958019e-06     1.280639e-04    -7.1925e-04      0.042 (TRAH MIcro)
   78     dE    -2.165809e-06     1.440047e-04    -7.3719e-04      0.044 (TRAH MIcro)
   78     dE    -2.916648e-06     3.037373e-04    -7.8816e-04      0.052 (TRAH MIcro)
   78     dE    -3.694881e-06     1.577482e-04    -8.4957e-04      0.059 (TRAH MIcro)
   78     dE    -3.726452e-06     6.738228e-05    -8.6039e-04      0.059 (TRAH MIcro)
   78     dE    -3.772845e-06     2.076188e-04    -8.7642e-04      0.059 (TRAH MIcro)
   78     dE    -3.877776e-06     1.524348e-04    -9.1305e-04      0.059 (TRAH MIcro)
   78     dE    -3.924394e-06     1.015354e-04    -9.2958e-04      0.059 (TRAH MIcro)
   78     dE    -3.947028e-06     8.270551e-05    -9.3753e-04      0.059 (TRAH MIcro)
   78     dE    -3.899798e-06     3.206072e-05    -9.4385e-04      0.058 (TRAH MIcro)
   78     dE    -3.917039e-06     2.353583e-05    -9.4447e-04      0.058 (TRAH MIcro)
   79       -295.077842109895     2.421950e-04                     0.039 (TRAH MAcro)   No
   79     dE    -7.246181e-08     5.863581e-05    -7.2462e-08      0.000 (TRAH MIcro)
   79     dE    -1.188893e-07     1.665267e-04    -1.1889e-07      0.002 (TRAH MIcro)
   79     dE    -4.292026e-07     2.955428e-04    -4.2913e-07      0.013 (TRAH MIcro)
   79     dE    -5.881195e-07     8.789185e-05    -5.8792e-07      0.019 (TRAH MIcro)
   79     dE    -6.136382e-07     6.745541e-05    -6.1341e-07      0.019 (TRAH MIcro)
   79     dE    -6.479826e-07     1.145278e-04    -6.4770e-07      0.021 (TRAH MIcro)
   79     dE    -7.472663e-07     1.614254e-04    -7.4680e-07      0.025 (TRAH MIcro)
   79     dE    -8.854458e-07     2.310993e-04    -8.8456e-07      0.032 (TRAH MIcro)
   79     dE    -1.252264e-06     2.163351e-04    -2.5182e-04      0.037 (TRAH MIcro)
   79     dE    -1.415529e-06     1.156502e-04    -3.1202e-04      0.039 (TRAH MIcro)
   79     dE    -1.460871e-06     8.429177e-05    -3.4907e-04      0.039 (TRAH MIcro)
   79     dE    -1.576980e-06     2.315168e-04    -4.4569e-04      0.039 (TRAH MIcro)
   79     dE    -1.357863e-06     1.198193e-04    -7.1916e-04      0.030 (TRAH MIcro)
   79     dE    -1.518419e-06     6.709215e-05    -7.4071e-04      0.033 (TRAH MIcro)
   79     dE    -1.618663e-06     1.115819e-04    -7.5243e-04      0.034 (TRAH MIcro)
   79     dE    -1.999756e-06     2.170735e-04    -8.1506e-04      0.039 (TRAH MIcro)
   79     dE    -2.071647e-06     1.054001e-04    -8.7966e-04      0.039 (TRAH MIcro)
   79     dE    -2.101009e-06     8.419536e-05    -9.0605e-04      0.039 (TRAH MIcro)
   79     dE    -2.123375e-06     6.601012e-05    -9.2625e-04      0.039 (TRAH MIcro)
   79     dE    -2.125888e-06     1.769478e-05    -9.2855e-04      0.039 (TRAH MIcro)
   80       -295.077842707657     1.065828e-04                     0.039 (TRAH MAcro)   No
   80     dE    -1.661770e-08     3.541572e-05    -1.6618e-08      0.000 (TRAH MIcro)
   80     dE    -3.225194e-08     9.731922e-05    -3.2252e-08      0.001 (TRAH MIcro)
   80     dE    -1.819504e-07     2.312622e-04    -1.8193e-07      0.010 (TRAH MIcro)
   80     dE    -2.865618e-07     9.419937e-05    -2.8648e-07      0.017 (TRAH MIcro)
   80     dE    -3.218177e-07     9.183973e-05    -3.2170e-07      0.019 (TRAH MIcro)
   80     dE    -3.616054e-07     8.563988e-05    -3.6143e-07      0.022 (TRAH MIcro)
   80     dE    -4.041209e-07     1.121370e-04    -4.0388e-07      0.025 (TRAH MIcro)
   80     dE    -4.762673e-07     1.657232e-04    -4.7585e-07      0.030 (TRAH MIcro)
   80     dE    -8.175497e-07     3.086626e-04    -1.5862e-04      0.039 (TRAH MIcro)
   80     dE    -9.859148e-07     8.924423e-05    -2.8253e-04      0.039 (TRAH MIcro)
   80     dE    -1.010093e-06     1.056546e-04    -3.1911e-04      0.039 (TRAH MIcro)
   80     dE    -9.484814e-07     1.778246e-04    -4.6281e-04      0.033 (TRAH MIcro)
   80     dE    -1.343562e-06     1.376262e-04    -5.6273e-04      0.039 (TRAH MIcro)
   80     dE    -1.387960e-06     1.229220e-04    -6.0461e-04      0.039 (TRAH MIcro)
   80     dE    -1.457470e-06     1.206490e-04    -6.5483e-04      0.039 (TRAH MIcro)
   80     dE    -1.504907e-06     1.137069e-04    -6.9727e-04      0.039 (TRAH MIcro)
   80     dE    -1.575347e-06     1.897896e-04    -7.5155e-04      0.039 (TRAH MIcro)
   80     dE    -6.678362e-07     5.075187e-05    -1.0046e-03      0.020 (TRAH MIcro)
   80     dE    -6.871138e-07     2.062051e-05    -1.0096e-03      0.021 (TRAH MIcro)
   80     dE    -6.898008e-07     8.336418e-06    -1.0102e-03      0.021 (TRAH MIcro)
   81       -295.077843050146     5.144002e-05                           (NR   MAcro)
   81     dE    -8.670902e-09     4.825787e-05                           (NR   MIcro)
   81     dE    -4.587597e-08     1.491937e-04                           (NR   MIcro)
   81     dE    -1.815808e-07     1.483600e-04                           (NR   MIcro)
   81     dE    -2.150265e-07     4.365322e-05                           (NR   MIcro)
   81     dE    -2.230078e-07     4.106855e-05                           (NR   MIcro)
   81     dE    -2.336135e-07     5.805839e-05                           (NR   MIcro)
   81     dE    -2.553142e-07     6.820530e-05                           (NR   MIcro)
   81     dE    -2.746879e-07     7.974861e-05                           (NR   MIcro)
   81     dE    -3.139778e-07     8.401763e-05                           (NR   MIcro)
   81     dE    -3.265738e-07     3.048358e-05                           (NR   MIcro)
   81     dE    -3.308472e-07     3.462912e-05                           (NR   MIcro)
   81     dE    -3.485728e-07     8.737980e-05                           (NR   MIcro)
   81     dE    -3.736977e-07     6.745202e-05                           (NR   MIcro)
   81     dE    -3.862791e-07     5.433825e-05                           (NR   MIcro)
   81     dE    -4.068272e-07     1.063037e-04                           (NR   MIcro)
   81     dE    -4.485954e-07     1.332934e-04                           (NR   MIcro)
   81     dE    -5.510959e-07     3.335451e-04                           (NR   MIcro)
   81     dE     1.070630e-06     1.199230e-03                           (NR   MIcro)
   81     dE     1.331853e-07     1.872350e-04                           (NR   MIcro)
   81     dE     8.436641e-08     1.023808e-04                           (NR   MIcro)
   81     dE    -1.194612e-08     3.046202e-04                           (NR   MIcro)
   81     dE    -2.528949e-07     1.855978e-04                           (NR   MIcro)
   81     dE    -2.995805e-07     7.144549e-05                           (NR   MIcro)
   81     dE    -3.109483e-07     4.424352e-05                           (NR   MIcro)
   82       -295.077843585029     6.347058e-05                           (NR   MAcro)
   82     dE    -7.966502e-09     4.295857e-05                           (NR   MIcro)
   82     dE    -1.678078e-08     6.013137e-05                           (NR   MIcro)
   82     dE    -3.319594e-08     6.618192e-05                           (NR   MIcro)
   82     dE    -6.100209e-08     1.196817e-04                           (NR   MIcro)
   82     dE    -1.638235e-07     2.304174e-04                           (NR   MIcro)
   82     dE    -2.594425e-07     1.078186e-04                           (NR   MIcro)
   82     dE    -2.748397e-07     4.004478e-05                           (NR   MIcro)
   82     dE    -2.812757e-07     5.648853e-05                           (NR   MIcro)
   82     dE    -3.128530e-07     1.271616e-04                           (NR   MIcro)
   82     dE    -4.098595e-07     1.678568e-04                           (NR   MIcro)
   82     dE    -5.222613e-07     2.788144e-04                           (NR   MIcro)
   82     dE    -7.964327e-07     2.947803e-04                           (NR   MIcro)
   82     dE    -1.102566e-06     3.720950e-04                           (NR   MIcro)
   82     dE    -7.233589e-06     7.106552e-03                           (NR   MIcro)
   82     dE     3.177657e-07     2.219418e-04                           (NR   MIcro)
   82     dE     2.422357e-07     9.371746e-05                           (NR   MIcro)
   82     dE     2.100654e-07     1.183256e-04                           (NR   MIcro)
   82     dE     1.001210e-07     2.112887e-04                           (NR   MIcro)
   82     dE    -1.777063e-08     1.337966e-04                           (NR   MIcro)
   82     dE    -6.382824e-08     8.674029e-05                           (NR   MIcro)
   82     dE    -9.173096e-08     8.313757e-05                           (NR   MIcro)
   82     dE    -1.075251e-07     3.776563e-05                           (NR   MIcro)
   82     dE    -1.161300e-07     6.652784e-05                           (NR   MIcro)
   82     dE    -1.666367e-07     1.850369e-04                           (NR   MIcro)
   83       -295.077843801855     1.817370e-04                     0.039 (TRAH MAcro)   No
   83     dE    -3.131684e-08     5.174878e-05    -3.1317e-08      0.000 (TRAH MIcro)
   83     dE    -3.949386e-08     4.782518e-05    -3.9494e-08      0.001 (TRAH MIcro)
   83     dE    -5.701960e-08     1.293827e-04    -5.7019e-08      0.002 (TRAH MIcro)
   83     dE    -1.061844e-07     1.102363e-04    -1.0618e-07      0.005 (TRAH MIcro)
   83     dE    -1.537293e-07     1.309759e-04    -1.5372e-07      0.008 (TRAH MIcro)
   83     dE    -2.016146e-07     1.233240e-04    -2.0158e-07      0.012 (TRAH MIcro)
   83     dE    -2.349237e-07     7.950757e-05    -2.3487e-07      0.015 (TRAH MIcro)
   83     dE    -2.480185e-07     7.306806e-05    -2.4796e-07      0.016 (TRAH MIcro)
   83     dE    -2.971316e-07     1.756888e-04    -2.9701e-07      0.020 (TRAH MIcro)
   83     dE    -7.884108e-07     4.271287e-04    -2.0538e-04      0.039 (TRAH MIcro)
   83     dE    -7.101802e-07     6.394859e-05    -3.7818e-04      0.030 (TRAH MIcro)
   83     dE    -7.376503e-07     5.260258e-05    -3.8386e-04      0.031 (TRAH MIcro)
   83     dE    -7.730788e-07     7.726462e-05    -3.9081e-04      0.032 (TRAH MIcro)
   83     dE    -8.299115e-07     6.849182e-05    -4.0108e-04      0.033 (TRAH MIcro)
   83     dE    -9.323136e-07     1.440085e-04    -4.1741e-04      0.036 (TRAH MIcro)
   83     dE    -1.185842e-06     1.569468e-04    -5.0920e-04      0.039 (TRAH MIcro)
   83     dE    -1.213488e-06     5.316477e-05    -5.3212e-04      0.039 (TRAH MIcro)
   83     dE    -1.219210e-06     3.176932e-05    -5.3690e-04      0.039 (TRAH MIcro)
   83     dE    -1.227176e-06     6.717913e-05    -5.4352e-04      0.039 (TRAH MIcro)
   83     dE    -1.248039e-06     7.662180e-05    -5.6124e-04      0.039 (TRAH MIcro)
   83     dE    -1.264543e-06     4.912482e-05    -5.7577e-04      0.039 (TRAH MIcro)
   83     dE    -1.227306e-06     4.825001e-05    -5.8854e-04      0.038 (TRAH MIcro)
   83     dE    -1.262032e-06     3.698981e-05    -5.9155e-04      0.039 (TRAH MIcro)
   84       -295.077844243179     1.074102e-04                     0.039 (TRAH MAcro)   No
   84     dE    -1.833661e-08     4.365146e-05    -1.8337e-08      0.000 (TRAH MIcro)
   84     dE    -3.357364e-08     9.193453e-05    -3.3574e-08      0.001 (TRAH MIcro)
   84     dE    -1.109318e-07     1.077998e-04    -1.1093e-07      0.005 (TRAH MIcro)
   84     dE    -1.290958e-07     4.050774e-05    -1.2909e-07      0.006 (TRAH MIcro)
   84     dE    -1.380212e-07     5.472061e-05    -1.3801e-07      0.007 (TRAH MIcro)
   84     dE    -1.556151e-07     6.182156e-05    -1.5561e-07      0.008 (TRAH MIcro)
   84     dE    -1.716181e-07     5.986516e-05    -1.7160e-07      0.009 (TRAH MIcro)
   84     dE    -1.936932e-07     8.990626e-05    -1.9367e-07      0.011 (TRAH MIcro)
   84     dE    -2.296128e-07     6.724829e-05    -2.2957e-07      0.014 (TRAH MIcro)
   84     dE    -2.397729e-07     3.295071e-05    -2.3972e-07      0.015 (TRAH MIcro)
   84     dE    -2.539349e-07     8.563984e-05    -2.5387e-07      0.017 (TRAH MIcro)
   84     dE    -3.274483e-07     1.938761e-04    -3.2725e-07      0.025 (TRAH MIcro)
   84     dE    -4.920721e-07     1.747431e-04    -3.4075e-05      0.039 (TRAH MIcro)
   84     dE    -5.215762e-07     6.660188e-05    -5.6669e-05      0.039 (TRAH MIcro)
   84     dE    -5.385885e-07     7.589560e-05    -6.9665e-05      0.039 (TRAH MIcro)
   84     dE    -5.551074e-07     1.213514e-04    -1.1141e-04      0.037 (TRAH MIcro)
   84     dE    -6.203498e-07     1.207415e-04    -1.3349e-04      0.039 (TRAH MIcro)
   84     dE    -5.642542e-07     2.087768e-04    -3.1540e-04      0.029 (TRAH MIcro)
   84     dE    -8.990228e-07     1.083969e-04    -3.6264e-04      0.039 (TRAH MIcro)
   84     dE    -9.125117e-07     4.216110e-05    -3.7375e-04      0.039 (TRAH MIcro)
   84     dE    -9.186692e-07     6.969263e-05    -3.7887e-04      0.039 (TRAH MIcro)
   84     dE    -9.566229e-07     1.228228e-04    -4.1052e-04      0.039 (TRAH MIcro)
   84     dE    -1.024375e-06     1.576838e-04    -4.6769e-04      0.039 (TRAH MIcro)
   85       -295.077844400811     1.758047e-04                     0.026 (TRAH MAcro)   No
   85     dE    -4.410793e-08     8.701687e-05    -4.4108e-08      0.000 (TRAH MIcro)
   85     dE    -7.144702e-08     9.463252e-05    -7.1447e-08      0.001 (TRAH MIcro)
   85     dE    -9.023988e-08     6.799483e-05    -9.0240e-08      0.001 (TRAH MIcro)
   85     dE    -1.051052e-07     7.423135e-05    -1.0510e-07      0.002 (TRAH MIcro)
   85     dE    -1.579647e-07     2.176168e-04    -1.5796e-07      0.005 (TRAH MIcro)
   85     dE    -3.075257e-07     2.048881e-04    -3.0745e-07      0.016 (TRAH MIcro)
   85     dE    -3.617945e-07     7.897088e-05    -3.6166e-07      0.019 (TRAH MIcro)
   85     dE    -3.918887e-07     1.576391e-04    -3.9171e-07      0.021 (TRAH MIcro)
   85     dE    -5.636591e-07     2.678296e-04    -1.6723e-04      0.026 (TRAH MIcro)
   85     dE    -7.369281e-07     1.802340e-04    -4.5678e-04      0.026 (TRAH MIcro)
   85     dE    -8.130480e-07     1.497939e-04    -5.8728e-04      0.026 (TRAH MIcro)
   85     dE    -8.575218e-07     9.415599e-05    -6.6454e-04      0.026 (TRAH MIcro)
   85     dE    -8.763774e-07     6.177156e-05    -6.9759e-04      0.026 (TRAH MIcro)
   85     dE    -8.976016e-07     1.037883e-04    -7.3523e-04      0.026 (TRAH MIcro)
   85     dE    -5.470593e-07     5.236112e-05    -1.0758e-03      0.016 (TRAH MIcro)
   85     dE    -5.646017e-07     2.043750e-05    -1.0840e-03      0.017 (TRAH MIcro)
   85     dE    -5.697259e-07     1.778932e-05    -1.0863e-03      0.017 (TRAH MIcro)
   85     dE    -5.882375e-07     5.525747e-05    -1.0940e-03      0.017 (TRAH MIcro)
   85     dE    -6.266961e-07     2.816003e-05    -1.1075e-03      0.018 (TRAH MIcro)
   85     dE    -6.348194e-07     1.451314e-05    -1.1101e-03      0.018 (TRAH MIcro)
   86       -295.077844751228     4.439794e-05                           (NR   MAcro)
   86     dE    -4.538133e-09     2.803987e-05                           (NR   MIcro)
   86     dE    -1.205730e-08     6.651138e-05                           (NR   MIcro)
   86     dE    -4.667206e-08     8.296365e-05                           (NR   MIcro)
   86     dE    -7.554249e-08     8.647146e-05                           (NR   MIcro)
   86     dE    -1.155677e-07     1.015145e-04                           (NR   MIcro)
   86     dE    -1.380978e-07     4.133543e-05                           (NR   MIcro)
   86     dE    -1.438631e-07     3.317859e-05                           (NR   MIcro)
   86     dE    -1.518196e-07     5.853221e-05                           (NR   MIcro)
   86     dE    -2.104209e-07     1.675535e-04                           (NR   MIcro)
   86     dE    -2.936980e-07     7.757414e-05                           (NR   MIcro)
   86     dE    -3.151496e-07     7.998934e-05                           (NR   MIcro)
   86     dE    -3.546407e-07     1.132839e-04                           (NR   MIcro)
   86     dE    -4.207447e-07     1.436152e-04                           (NR   MIcro)
   86     dE    -9.565988e-07     1.021520e-03                           (NR   MIcro)
   86     dE     1.992703e-07     2.483662e-04                           (NR   MIcro)
   86     dE     1.054518e-07     1.048794e-04                           (NR   MIcro)
   86     dE     6.909948e-08     1.145431e-04                           (NR   MIcro)
   86     dE    -1.173732e-08     2.086803e-04                           (NR   MIcro)
   86     dE    -4.934070e-08     6.009800e-05                           (NR   MIcro)
   86     dE    -5.682245e-08     3.876637e-05                           (NR   MIcro)
   86     dE    -6.805365e-08     9.343443e-05                           (NR   MIcro)
   86     dE    -9.023755e-08     7.063458e-05                           (NR   MIcro)
   86     dE    -1.187551e-07     1.159734e-04                           (NR   MIcro)
   86     dE    -1.967286e-07     1.616184e-04                           (NR   MIcro)
   87       -295.077845053106     1.669366e-04                     0.026 (TRAH MAcro)   No
   87     dE    -2.562821e-08     4.436114e-05    -2.5628e-08      0.000 (TRAH MIcro)
   87     dE    -3.090445e-08     3.460793e-05    -3.0904e-08      0.000 (TRAH MIcro)
   87     dE    -3.792881e-08     7.047153e-05    -3.7929e-08      0.001 (TRAH MIcro)
   87     dE    -5.482638e-08     6.803929e-05    -5.4826e-08      0.002 (TRAH MIcro)
   87     dE    -8.365568e-08     1.325092e-04    -8.3653e-08      0.005 (TRAH MIcro)
   87     dE    -1.904697e-07     2.330555e-04    -1.9042e-07      0.016 (TRAH MIcro)
   87     dE    -3.594172e-07     1.643203e-04    -1.1274e-04      0.026 (TRAH MIcro)
   87     dE    -3.880287e-07     5.838497e-05    -1.5555e-04      0.026 (TRAH MIcro)
   87     dE    -4.087262e-07     1.031643e-04    -1.8665e-04      0.026 (TRAH MIcro)
   87     dE    -5.059538e-07     2.064825e-04    -3.3908e-04      0.026 (TRAH MIcro)
   87     dE    -5.525370e-07     7.210434e-05    -4.2216e-04      0.026 (TRAH MIcro)
   87     dE    -5.741327e-07     7.918244e-05    -4.5210e-04      0.026 (TRAH MIcro)
   87     dE    -6.143421e-07     1.305174e-04    -5.2112e-04      0.026 (TRAH MIcro)
   87     dE    -4.092795e-07     4.957933e-05    -7.2353e-04      0.018 (TRAH MIcro)
   87     dE    -4.753813e-07     9.178243e-05    -7.5323e-04      0.020 (TRAH MIcro)
   87     dE    -5.450602e-07     4.216890e-05    -7.7826e-04      0.021 (TRAH MIcro)
   87     dE    -5.569593e-07     1.873846e-05    -7.8208e-04      0.022 (TRAH MIcro)
   87     dE    -5.642944e-07     2.920809e-05    -7.8438e-04      0.022 (TRAH MIcro)
   87     dE    -6.172228e-07     6.228817e-05    -7.9918e-04      0.023 (TRAH MIcro)
   87     dE    -6.772639e-07     4.208209e-05    -8.1290e-04      0.024 (TRAH MIcro)
   87     dE    -6.995803e-07     2.050557e-05    -8.1738e-04      0.025 (TRAH MIcro)
   87     dE    -7.117225e-07     2.198932e-05    -8.1974e-04      0.025 (TRAH MIcro)
   87     dE    -7.222000e-07     1.762883e-05    -8.2170e-04      0.025 (TRAH MIcro)
   88       -295.077845255200     6.261299e-05                           (NR   MAcro)
   88     dE    -8.288335e-09     3.534924e-05                           (NR   MIcro)
   88     dE    -2.169190e-08     8.652912e-05                           (NR   MIcro)
   88     dE    -8.140031e-08     1.036057e-04                           (NR   MIcro)
   88     dE    -1.084937e-07     5.826913e-05                           (NR   MIcro)
   88     dE    -1.200342e-07     4.866954e-05                           (NR   MIcro)
   88     dE    -1.301220e-07     4.177367e-05                           (NR   MIcro)
   88     dE    -1.374925e-07     3.905174e-05                           (NR   MIcro)
   88     dE    -1.488708e-07     7.691495e-05                           (NR   MIcro)
   88     dE    -2.619545e-07     2.291093e-04                           (NR   MIcro)
   88     dE    -3.971846e-07     9.983183e-05                           (NR   MIcro)
   88     dE    -4.327360e-07     7.457411e-05                           (NR   MIcro)
   88     dE    -4.933868e-07     1.878754e-04                           (NR   MIcro)
   88     dE    -3.782962e-06     3.387847e-03                           (NR   MIcro)
   88     dE     2.215739e-07     2.920336e-04                           (NR   MIcro)
   88     dE     4.296273e-08     1.532558e-04                           (NR   MIcro)
   88     dE    -5.968701e-09     6.874922e-05                           (NR   MIcro)
   88     dE    -1.432794e-08     4.574547e-05                           (NR   MIcro)
   88     dE    -3.419032e-08     1.121780e-04                           (NR   MIcro)
   88     dE    -7.220796e-08     9.004719e-05                           (NR   MIcro)
   88     dE    -8.005408e-08     3.422062e-05                           (NR   MIcro)
   88     dE    -8.893357e-08     9.698567e-05                           (NR   MIcro)
   88     dE    -1.327486e-07     1.406556e-04                           (NR   MIcro)
   88     dE    -1.886998e-07     1.184943e-04                           (NR   MIcro)
   88     dE    -2.360545e-07     1.332126e-04                           (NR   MIcro)
   89       -295.077845620621     1.397972e-04                     0.026 (TRAH MAcro)   No
   89     dE    -2.615934e-08     5.651924e-05    -2.6159e-08      0.000 (TRAH MIcro)
   89     dE    -3.958947e-08     5.450138e-05    -3.9589e-08      0.001 (TRAH MIcro)
   89     dE    -4.820092e-08     5.606741e-05    -4.8201e-08      0.001 (TRAH MIcro)
   89     dE    -5.362830e-08     4.040587e-05    -5.3628e-08      0.001 (TRAH MIcro)
   89     dE    -6.641043e-08     1.221617e-04    -6.6410e-08      0.002 (TRAH MIcro)
   89     dE    -1.407147e-07     1.857442e-04    -1.4070e-07      0.011 (TRAH MIcro)
   89     dE    -1.838811e-07     6.850847e-05    -1.8384e-07      0.015 (TRAH MIcro)
   89     dE    -1.952637e-07     7.855809e-05    -1.9521e-07      0.017 (TRAH MIcro)
   89     dE    -2.293648e-07     1.174797e-04    -2.2927e-07      0.020 (TRAH MIcro)
   89     dE    -2.927578e-07     1.401409e-04    -2.1541e-05      0.026 (TRAH MIcro)
   89     dE    -3.359312e-07     1.146487e-04    -9.0810e-05      0.026 (TRAH MIcro)
   89     dE    -3.768299e-07     8.620582e-05    -1.5931e-04      0.026 (TRAH MIcro)
   89     dE    -3.630195e-07     6.320992e-05    -2.4450e-04      0.023 (TRAH MIcro)
   89     dE    -4.338890e-07     1.336499e-04    -2.6500e-04      0.026 (TRAH MIcro)
   89     dE    -5.469601e-07     1.797963e-04    -4.5341e-04      0.026 (TRAH MIcro)
   89     dE    -3.638950e-07     2.982905e-05    -6.6762e-04      0.017 (TRAH MIcro)
   89     dE    -3.692476e-07     1.187782e-05    -6.7006e-04      0.017 (TRAH MIcro)
   90       -295.077845876530     3.139011e-05                           (NR   MAcro)
   90     dE    -2.605533e-09     2.363337e-05                           (NR   MIcro)
   90     dE    -9.246906e-09     6.632609e-05                           (NR   MIcro)
   90     dE    -6.195970e-08     1.152365e-04                           (NR   MIcro)
   90     dE    -9.267552e-08     6.429653e-05                           (NR   MIcro)
   90     dE    -1.163739e-07     7.988903e-05                           (NR   MIcro)
   90     dE    -1.332840e-07     3.962014e-05                           (NR   MIcro)
   90     dE    -1.392014e-07     3.799863e-05                           (NR   MIcro)
   90     dE    -1.538779e-07     7.422828e-05                           (NR   MIcro)
   90     dE    -1.978946e-07     1.250261e-04                           (NR   MIcro)
   90     dE    -2.457106e-07     5.093170e-05                           (NR   MIcro)
   90     dE    -2.753043e-07     1.217340e-04                           (NR   MIcro)
   90     dE    -4.646038e-07     3.394974e-04                           (NR   MIcro)
   90     dE     3.698974e-06     2.409080e-03                           (NR   MIcro)
   90     dE     9.466127e-07     2.662718e-04                           (NR   MIcro)
   90     dE     7.046793e-07     2.035497e-04                           (NR   MIcro)
   90     dE     5.758497e-07     1.351273e-04                           (NR   MIcro)
   90     dE     5.185404e-07     1.371519e-04                           (NR   MIcro)
   90     dE     2.728525e-07     4.242984e-04                           (NR   MIcro)
   90     dE     8.188176e-08     1.150003e-04                           (NR   MIcro)
   90     dE     6.373871e-08     4.631560e-05                           (NR   MIcro)
   90     dE     5.091071e-08     1.058364e-04                           (NR   MIcro)
   90     dE    -1.191672e-08     1.597565e-04                           (NR   MIcro)
   90     dE    -9.262532e-08     1.517409e-04                           (NR   MIcro)
   90     dE    -1.559744e-07     1.221158e-04                           (NR   MIcro)
   91       -295.077846069249     1.368643e-04                     0.026 (TRAH MAcro)   No
   91     dE    -3.156921e-08     6.154333e-05    -3.1569e-08      0.000 (TRAH MIcro)
   91     dE    -4.991457e-08     6.148838e-05    -4.9915e-08      0.001 (TRAH MIcro)
   91     dE    -5.971967e-08     3.599547e-05    -5.9720e-08      0.001 (TRAH MIcro)
   91     dE    -6.460605e-08     3.521360e-05    -6.4606e-08      0.001 (TRAH MIcro)
   91     dE    -8.128782e-08     9.760590e-05    -8.1287e-08      0.003 (TRAH MIcro)
   91     dE    -1.409037e-07     1.306452e-04    -1.4089e-07      0.009 (TRAH MIcro)
   91     dE    -1.783722e-07     5.290784e-05    -1.7834e-07      0.013 (TRAH MIcro)
   91     dE    -1.849831e-07     4.173247e-05    -1.8495e-07      0.013 (TRAH MIcro)
   91     dE    -2.009915e-07     1.090680e-04    -2.0095e-07      0.015 (TRAH MIcro)
   91     dE    -3.052804e-07     1.909742e-04    -1.2457e-05      0.026 (TRAH MIcro)
   91     dE    -4.114204e-07     1.677809e-04    -1.8911e-04      0.026 (TRAH MIcro)
   91     dE    -4.730855e-07     1.084018e-04    -2.9296e-04      0.026 (TRAH MIcro)
   91     dE    -4.991135e-07     6.313459e-05    -3.3690e-04      0.026 (TRAH MIcro)
   91     dE    -5.080647e-07     4.893607e-05    -3.5206e-04      0.026 (TRAH MIcro)
   91     dE    -5.339125e-07     1.299964e-04    -3.9688e-04      0.026 (TRAH MIcro)
   91     dE    -5.561385e-07     4.847233e-05    -4.3620e-04      0.026 (TRAH MIcro)
   91     dE    -5.597362e-07     2.583903e-05    -4.4258e-04      0.026 (TRAH MIcro)
   91     dE    -5.631882e-07     5.671221e-05    -4.4879e-04      0.026 (TRAH MIcro)
   91     dE    -5.768412e-07     6.328620e-05    -4.7842e-04      0.026 (TRAH MIcro)
   91     dE    -3.254585e-07     1.873001e-05    -6.8638e-04      0.015 (TRAH MIcro)
   91     dE    -3.287017e-07     1.320923e-05    -6.8793e-04      0.015 (TRAH MIcro)
   92       -295.077846340834     2.588913e-05                           (NR   MAcro)
   92     dE    -2.752207e-09     2.981728e-05                           (NR   MIcro)
   92     dE    -1.066736e-08     6.925617e-05                           (NR   MIcro)
   92     dE    -4.724950e-08     8.880608e-05                           (NR   MIcro)
   92     dE    -8.063659e-08     9.817126e-05                           (NR   MIcro)
   92     dE    -1.392971e-07     1.205253e-04                           (NR   MIcro)
   92     dE    -1.702529e-07     5.284698e-05                           (NR   MIcro)
   92     dE    -1.812961e-07     5.561380e-05                           (NR   MIcro)
   92     dE    -2.323949e-07     1.762668e-04                           (NR   MIcro)
   92     dE    -1.047936e-06     8.632271e-04                           (NR   MIcro)
   92     dE     2.079816e-06     6.358079e-04                           (NR   MIcro)
   92     dE     1.005594e-06     4.448326e-04                           (NR   MIcro)
   92     dE     5.307853e-07     2.687007e-04                           (NR   MIcro)
   92     dE     3.316656e-07     1.764226e-04                           (NR   MIcro)
   92     dE     2.524498e-07     1.325104e-04                           (NR   MIcro)
   92     dE     1.971843e-07     9.300075e-05                           (NR   MIcro)
   92     dE     1.836970e-07     5.308437e-05                           (NR   MIcro)
   92     dE     1.723072e-07     6.957778e-05                           (NR   MIcro)
   92     dE     1.244823e-07     1.838135e-04                           (NR   MIcro)
   92     dE     9.502360e-08     5.755307e-05                           (NR   MIcro)
   92     dE     9.046960e-08     2.768028e-05                           (NR   MIcro)
   92     dE     8.430775e-08     7.768403e-05                           (NR   MIcro)
   92     dE     6.079856e-08     7.176080e-05                           (NR   MIcro)
   92     dE     2.535983e-08     1.471848e-04                           (NR   MIcro)
   92     dE    -1.763907e-07     2.914293e-04                           (NR   MIcro)
   93       -295.077846373278     3.215332e-04                     0.032 (TRAH MAcro)   No
   93     dE    -1.267434e-07     9.830796e-05    -1.2674e-07      0.001 (TRAH MIcro)
   93     dE    -1.539384e-07     6.248164e-05    -1.5394e-07      0.001 (TRAH MIcro)
   93     dE    -1.764247e-07     9.838118e-05    -1.7642e-07      0.002 (TRAH MIcro)
   93     dE    -1.983905e-07     6.923773e-05    -1.9839e-07      0.002 (TRAH MIcro)
   93     dE    -2.287456e-07     1.366735e-04    -2.2874e-07      0.004 (TRAH MIcro)
   93     dE    -3.085686e-07     1.984168e-04    -3.0854e-07      0.009 (TRAH MIcro)
   93     dE    -3.590259e-07     9.383405e-05    -3.5897e-07      0.012 (TRAH MIcro)
   93     dE    -3.694801e-07     4.006746e-05    -3.6942e-07      0.013 (TRAH MIcro)
   93     dE    -3.788273e-07     6.512670e-05    -3.7876e-07      0.014 (TRAH MIcro)
   93     dE    -4.449373e-07     2.551302e-04    -4.4478e-07      0.019 (TRAH MIcro)
   93     dE    -7.264513e-07     2.370548e-04    -1.8447e-04      0.032 (TRAH MIcro)
   93     dE    -6.462138e-07     9.268791e-05    -4.4411e-04      0.022 (TRAH MIcro)
   93     dE    -7.592741e-07     1.233087e-04    -4.6871e-04      0.026 (TRAH MIcro)
   93     dE    -8.277635e-07     4.919530e-05    -4.8147e-04      0.027 (TRAH MIcro)
   93     dE    -8.834999e-07     8.045695e-05    -4.9076e-04      0.029 (TRAH MIcro)
   93     dE    -9.788685e-07     8.873948e-05    -5.0499e-04      0.031 (TRAH MIcro)
   93     dE    -9.994482e-07     2.120222e-05    -5.1488e-04      0.032 (TRAH MIcro)
   94       -295.077847079696     5.312432e-05                           (NR   MAcro)
   94     dE    -5.516639e-09     2.705149e-05                           (NR   MIcro)
   94     dE    -1.510389e-08     7.677233e-05                           (NR   MIcro)
   94     dE    -5.460748e-08     9.861750e-05                           (NR   MIcro)
   94     dE    -7.804840e-08     5.579328e-05                           (NR   MIcro)
   94     dE    -9.613503e-08     6.764087e-05                           (NR   MIcro)
   94     dE    -1.250872e-07     8.162641e-05                           (NR   MIcro)
   94     dE    -1.557252e-07     1.013554e-04                           (NR   MIcro)
   94     dE    -2.810895e-07     2.550458e-04                           (NR   MIcro)
   94     dE    -1.316533e-05     6.056800e-03                           (NR   MIcro)
   94     dE     2.143295e-06     6.060891e-04                           (NR   MIcro)
   94     dE     5.867770e-07     4.429864e-04                           (NR   MIcro)
   94     dE     1.772764e-07     1.820845e-04                           (NR   MIcro)
   94     dE     1.149403e-07     5.353856e-05                           (NR   MIcro)
   94     dE     1.078181e-07     3.265642e-05                           (NR   MIcro)
   94     dE     1.014780e-07     4.433414e-05                           (NR   MIcro)
   94     dE     8.871943e-08     5.176113e-05                           (NR   MIcro)
   94     dE     7.709710e-08     6.988791e-05                           (NR   MIcro)
   94     dE     5.339610e-08     9.274256e-05                           (NR   MIcro)
   94     dE     4.466693e-08     2.661436e-05                           (NR   MIcro)
   94     dE     4.355606e-08     1.261103e-05                           (NR   MIcro)
   94     dE     4.089469e-08     6.138428e-05                           (NR   MIcro)
   94     dE     1.907646e-08     9.197670e-05                           (NR   MIcro)
   94     dE    -1.479021e-08     9.623802e-05                           (NR   MIcro)
   94     dE    -3.619130e-08     7.905417e-05                           (NR   MIcro)
   95       -295.077847036297     9.540408e-05                           (NR   MAcro)
   95     dE    -1.396920e-08     5.905046e-05                           (NR   MIcro)
   95     dE    -2.612410e-08     6.758206e-05                           (NR   MIcro)
   95     dE    -5.017451e-08     1.005417e-04                           (NR   MIcro)
   95     dE    -7.850456e-08     1.193076e-04                           (NR   MIcro)
   95     dE    -1.531623e-07     2.226630e-04                           (NR   MIcro)
   95     dE    -2.219327e-07     9.858435e-05                           (NR   MIcro)
   95     dE    -2.352772e-07     4.029021e-05                           (NR   MIcro)
   95     dE    -2.484721e-07     1.161292e-04                           (NR   MIcro)
   95     dE    -4.975624e-07     4.973169e-04                           (NR   MIcro)
   95     dE     4.465512e-07     4.534747e-04                           (NR   MIcro)
   95     dE     2.275927e-07     1.446375e-04                           (NR   MIcro)
   95     dE     1.847193e-07     8.550913e-05                           (NR   MIcro)
   95     dE     1.654513e-07     6.622192e-05                           (NR   MIcro)
   95     dE     1.530034e-07     6.830267e-05                           (NR   MIcro)
   95     dE     1.137225e-07     1.386788e-04                           (NR   MIcro)
   95     dE     5.267076e-08     9.690203e-05                           (NR   MIcro)
   95     dE     4.228904e-08     3.179164e-05                           (NR   MIcro)
   95     dE     3.554277e-08     6.577981e-05                           (NR   MIcro)
   95     dE     9.249235e-09     7.482146e-05                           (NR   MIcro)
   95     dE     1.353382e-09     2.676174e-05                           (NR   MIcro)
   95     dE    -9.377980e-10     2.413981e-05                           (NR   MIcro)
   95     dE    -3.263040e-09     2.111494e-05                           (NR   MIcro)
   95     dE    -4.471218e-09     1.835029e-05                           (NR   MIcro)
   95     dE    -7.194732e-09     4.466908e-05                           (NR   MIcro)
   96       -295.077846899491     5.608422e-05                           (NR   MAcro)
   96     dE    -5.128064e-09     2.851643e-05                           (NR   MIcro)
   96     dE    -1.022406e-08     5.089600e-05                           (NR   MIcro)
   96     dE    -3.868612e-08     1.217030e-04                           (NR   MIcro)
   96     dE    -8.172460e-08     1.213518e-04                           (NR   MIcro)
   96     dE    -1.992200e-07     3.095828e-04                           (NR   MIcro)
   96     dE    -6.346010e-07     4.232967e-04                           (NR   MIcro)
   96     dE    -9.062641e-07     2.159935e-04                           (NR   MIcro)
   96     dE    -1.427464e-06     9.108850e-04                           (NR   MIcro)
   96     dE     8.122675e-07     5.727457e-04                           (NR   MIcro)
   96     dE     4.614991e-07     1.659515e-04                           (NR   MIcro)
   96     dE     4.096975e-07     1.097080e-04                           (NR   MIcro)
   96     dE     3.652778e-07     1.212443e-04                           (NR   MIcro)
   96     dE     2.974943e-07     1.472909e-04                           (NR   MIcro)
   96     dE     2.554366e-07     1.098983e-04                           (NR   MIcro)
   96     dE     2.190633e-07     8.662074e-05                           (NR   MIcro)
   96     dE     2.037797e-07     4.519366e-05                           (NR   MIcro)
   96     dE     1.968626e-07     4.972307e-05                           (NR   MIcro)
   96     dE     1.704941e-07     1.262147e-04                           (NR   MIcro)
   96     dE     1.299604e-07     6.383522e-05                           (NR   MIcro)
   96     dE     1.244635e-07     2.437173e-05                           (NR   MIcro)
   96     dE     1.220164e-07     3.202011e-05                           (NR   MIcro)
   96     dE     1.149159e-07     4.895665e-05                           (NR   MIcro)
   96     dE     1.033960e-07     6.377436e-05                           (NR   MIcro)
   96     dE     5.285509e-08     2.061507e-04                           (NR   MIcro)
   97       -295.077846517380     2.070271e-04                     0.032 (TRAH MAcro)   No
   97     dE    -6.432246e-08     9.411782e-05    -6.4322e-08      0.001 (TRAH MIcro)
   97     dE    -9.016986e-08     7.624719e-05    -9.0170e-08      0.001 (TRAH MIcro)
   97     dE    -1.130655e-07     8.601210e-05    -1.1307e-07      0.002 (TRAH MIcro)
   97     dE    -1.283282e-07     6.329807e-05    -1.2833e-07      0.002 (TRAH MIcro)
   97     dE    -1.700192e-07     2.076468e-04    -1.7002e-07      0.005 (TRAH MIcro)
   97     dE    -3.762952e-07     2.637665e-04    -3.7618e-07      0.018 (TRAH MIcro)
   97     dE    -4.758935e-07     1.080641e-04    -4.7561e-07      0.024 (TRAH MIcro)
   97     dE    -5.247352e-07     1.689047e-04    -5.2433e-07      0.028 (TRAH MIcro)
   97     dE    -7.223804e-07     2.847673e-04    -1.5669e-04      0.031 (TRAH MIcro)
   97     dE    -9.367057e-07     2.294742e-04    -5.1822e-04      0.029 (TRAH MIcro)
   97     dE    -1.100451e-06     1.424299e-04    -5.8351e-04      0.032 (TRAH MIcro)
   97     dE    -1.146269e-06     9.113763e-05    -6.3755e-04      0.032 (TRAH MIcro)
   97     dE    -1.167586e-06     6.945279e-05    -6.6286e-04      0.032 (TRAH MIcro)
   97     dE    -1.181658e-06     6.616501e-05    -6.7957e-04      0.032 (TRAH MIcro)
   97     dE    -1.214302e-06     1.157069e-04    -7.1978e-04      0.032 (TRAH MIcro)
   97     dE    -1.242268e-06     4.854097e-05    -7.5569e-04      0.032 (TRAH MIcro)
   97     dE    -1.246730e-06     2.989836e-05    -7.6154e-04      0.032 (TRAH MIcro)
   97     dE    -1.246603e-06     7.867930e-05    -7.7510e-04      0.031 (TRAH MIcro)
   97     dE    -1.279953e-06     6.702763e-05    -8.0723e-04      0.032 (TRAH MIcro)
   97     dE    -1.286646e-06     2.825432e-05    -8.1714e-04      0.032 (TRAH MIcro)
   97     dE    -1.289272e-06     2.648333e-05    -8.2091e-04      0.032 (TRAH MIcro)
   97     dE    -1.291142e-06     1.622368e-05    -8.2369e-04      0.032 (TRAH MIcro)
   98       -295.077847120528     6.619577e-05                           (NR   MAcro)
   98     dE    -7.038783e-09     2.508896e-05                           (NR   MIcro)
   98     dE    -1.500301e-08     7.171373e-05                           (NR   MIcro)
   98     dE    -9.829254e-08     1.803170e-04                           (NR   MIcro)
   98     dE    -1.661724e-07     7.203784e-05                           (NR   MIcro)
   98     dE    -1.930806e-07     8.529606e-05                           (NR   MIcro)
   98     dE    -2.423300e-07     1.205140e-04                           (NR   MIcro)
   98     dE    -3.544611e-07     2.033759e-04                           (NR   MIcro)
   98     dE    -7.547777e-07     4.940073e-04                           (NR   MIcro)
   98     dE     6.242990e-07     4.639991e-04                           (NR   MIcro)
   98     dE     4.098744e-07     8.996346e-05                           (NR   MIcro)
   98     dE     3.856631e-07     6.975666e-05                           (NR   MIcro)
   98     dE     3.412551e-07     1.390451e-04                           (NR   MIcro)
   98     dE     2.558502e-07     1.147274e-04                           (NR   MIcro)
   98     dE     2.366372e-07     5.156813e-05                           (NR   MIcro)
   98     dE     2.235998e-07     6.410802e-05                           (NR   MIcro)
   98     dE     1.940407e-07     1.016615e-04                           (NR   MIcro)
   98     dE     1.739381e-07     6.554979e-05                           (NR   MIcro)
   98     dE     1.495310e-07     1.072589e-04                           (NR   MIcro)
   98     dE     1.346074e-07     4.888377e-05                           (NR   MIcro)
   98     dE     1.325330e-07     1.479690e-05                           (NR   MIcro)
   98     dE     1.312994e-07     3.252196e-05                           (NR   MIcro)
   98     dE     1.161835e-07     9.704182e-05                           (NR   MIcro)
   98     dE     8.981538e-08     6.796281e-05                           (NR   MIcro)
   98     dE     7.720539e-08     5.122687e-05                           (NR   MIcro)
   99       -295.077846839153     7.812438e-05                           (NR   MAcro)
   99     dE    -1.070478e-08     4.474947e-05                           (NR   MIcro)
   99     dE    -2.094853e-08     6.797039e-05                           (NR   MIcro)
   99     dE    -4.110223e-08     6.570008e-05                           (NR   MIcro)
   99     dE    -6.814358e-08     1.322284e-04                           (NR   MIcro)
   99     dE    -1.621169e-07     2.217933e-04                           (NR   MIcro)
   99     dE    -2.125005e-07     7.194729e-05                           (NR   MIcro)
   99     dE    -2.271525e-07     6.058903e-05                           (NR   MIcro)
   99     dE    -2.575867e-07     1.531995e-04                           (NR   MIcro)
   99     dE    -7.327533e-07     6.435550e-04                           (NR   MIcro)
   99     dE    -5.870192e-06     2.233905e-03                           (NR   MIcro)
   99     dE     1.737629e-06     9.460997e-04                           (NR   MIcro)
   99     dE     1.090690e-06     2.080026e-04                           (NR   MIcro)
   99     dE     9.652248e-07     1.919257e-04                           (NR   MIcro)
   99     dE     7.359298e-07     4.613978e-04                           (NR   MIcro)
   99     dE     3.719827e-07     1.641460e-04                           (NR   MIcro)
   99     dE     3.286675e-07     6.330714e-05                           (NR   MIcro)
   99     dE     3.198369e-07     4.286198e-05                           (NR   MIcro)
   99     dE     3.047059e-07     9.129553e-05                           (NR   MIcro)
   99     dE     2.691516e-07     8.451007e-05                           (NR   MIcro)
   99     dE     2.523467e-07     5.218715e-05                           (NR   MIcro)
   99     dE     2.372411e-07     7.575435e-05                           (NR   MIcro)
   99     dE     2.214082e-07     3.892950e-05                           (NR   MIcro)
   99     dE     2.121649e-07     5.944742e-05                           (NR   MIcro)
   99     dE     1.753010e-07     1.102768e-04                           (NR   MIcro)
  100       -295.077846286891     1.315966e-04                     0.032 (TRAH MAcro)   No
  100     dE    -2.731655e-08     4.644116e-05    -2.7317e-08      0.000 (TRAH MIcro)
  100     dE    -3.405462e-08     4.133840e-05    -3.4055e-08      0.001 (TRAH MIcro)
  100     dE    -5.533539e-08     1.143674e-04    -5.5335e-08      0.002 (TRAH MIcro)
  100     dE    -9.860668e-08     1.059946e-04    -9.8604e-08      0.005 (TRAH MIcro)
  100     dE    -1.536561e-07     1.402374e-04    -1.5364e-07      0.009 (TRAH MIcro)
  100     dE    -2.524471e-07     2.062422e-04    -2.5238e-07      0.017 (TRAH MIcro)
  100     dE    -3.366410e-07     1.172353e-04    -3.3646e-07      0.023 (TRAH MIcro)
  100     dE    -3.925108e-07     1.934674e-04    -3.9221e-07      0.028 (TRAH MIcro)
  100     dE    -5.886760e-07     2.432892e-04    -1.6015e-04      0.032 (TRAH MIcro)
  100     dE    -6.462215e-07     1.180970e-04    -3.7791e-04      0.027 (TRAH MIcro)
  100     dE    -6.762278e-07     5.121071e-05    -3.8582e-04      0.028 (TRAH MIcro)
  100     dE    -7.100537e-07     8.744819e-05    -3.9420e-04      0.029 (TRAH MIcro)
  100     dE    -8.332519e-07     1.868433e-04    -4.3595e-04      0.032 (TRAH MIcro)
  100     dE    -8.748676e-07     6.366325e-05    -4.8784e-04      0.032 (TRAH MIcro)
  100     dE    -8.902318e-07     7.855163e-05    -5.0743e-04      0.032 (TRAH MIcro)
  100     dE    -9.045699e-07     5.013041e-05    -5.2609e-04      0.032 (TRAH MIcro)
  100     dE    -9.108971e-07     4.008082e-05    -5.3444e-04      0.032 (TRAH MIcro)
  100     dE    -9.231823e-07     9.622367e-05    -5.5091e-04      0.032 (TRAH MIcro)
  100     dE    -9.707060e-07     1.012368e-04    -6.1868e-04      0.032 (TRAH MIcro)
  100     dE    -9.831995e-07     3.168605e-05    -6.3732e-04      0.032 (TRAH MIcro)
  100     dE    -9.855541e-07     2.250864e-05    -6.4113e-04      0.032 (TRAH MIcro)
  100     dE    -4.812274e-07     1.809479e-05    -8.8214e-04      0.017 (TRAH MIcro)
  100     dE    -4.872128e-07     1.949007e-05    -8.8427e-04      0.017 (TRAH MIcro)
  101       -295.077846629093     3.833038e-05                           (NR   MAcro)
  101     dE    -4.239842e-09     3.073476e-05                           (NR   MIcro)
  101     dE    -1.318678e-08     7.614774e-05                           (NR   MIcro)
  101     dE    -7.264281e-08     1.235003e-04                           (NR   MIcro)
  101     dE    -1.550490e-07     1.857402e-04                           (NR   MIcro)
  101     dE    -5.339582e-07     4.275892e-04                           (NR   MIcro)
  101     dE    -1.059636e-06     2.143942e-04                           (NR   MIcro)
  101     dE    -1.205973e-06     1.803148e-04                           (NR   MIcro)
  101     dE    -1.552422e-06     4.095015e-04                           (NR   MIcro)
  101     dE    -5.219490e-06     2.025154e-03                           (NR   MIcro)
  101     dE     5.457514e-06     9.274747e-04                           (NR   MIcro)
  101     dE     3.366777e-06     5.987915e-04                           (NR   MIcro)
  101     dE     2.560079e-06     3.396712e-04                           (NR   MIcro)
  101     dE     2.154459e-06     3.158810e-04                           (NR   MIcro)
  101     dE     1.631022e-06     4.734695e-04                           (NR   MIcro)
  101     dE     1.056830e-06     2.927556e-04                           (NR   MIcro)
  101     dE     9.154481e-07     1.311959e-04                           (NR   MIcro)
  101     dE     8.623438e-07     1.599028e-04                           (NR   MIcro)
  101     dE     6.595146e-07     4.366926e-04                           (NR   MIcro)
  101     dE     4.849031e-07     1.545919e-04                           (NR   MIcro)
  101     dE     4.582095e-07     5.646718e-05                           (NR   MIcro)
  101     dE     4.373085e-07     1.231533e-04                           (NR   MIcro)
  101     dE     3.820001e-07     1.091392e-04                           (NR   MIcro)
  101     dE     2.861492e-07     2.612253e-04                           (NR   MIcro)
  101     dE    -3.078501e-06     2.746696e-03                           (NR   MIcro)
  102       -295.077775557953     7.921013e-03                     0.032 (TRAH MAcro)   No
  102     dE    -5.565953e-05     1.243772e-03    -5.5655e-05      0.009 (TRAH MIcro)
  102     dE    -5.806825e-05     4.692894e-04    -5.8063e-05      0.010 (TRAH MIcro)
  103       -295.077833650807     4.683007e-04                     0.038 (TRAH MAcro)   No
  103     dE    -8.654905e-07     5.074972e-04    -8.6548e-07      0.003 (TRAH MIcro)
  103     dE    -2.192942e-06     5.869882e-04    -2.1928e-06      0.009 (TRAH MIcro)
  103     dE    -3.528451e-06     6.094463e-04    -3.5273e-06      0.018 (TRAH MIcro)
  103     dE    -5.474145e-06     8.011296e-04    -5.4680e-06      0.034 (TRAH MIcro)
  103     dE    -6.977379e-06     4.893169e-04    -8.5979e-04      0.038 (TRAH MIcro)
  103     dE    -7.348551e-06     1.767015e-04    -1.1887e-03      0.038 (TRAH MIcro)
  103     dE    -7.402040e-06     1.246844e-04    -1.2361e-03      0.038 (TRAH MIcro)
  103     dE    -7.445286e-06     3.928288e-04    -1.4956e-03      0.037 (TRAH MIcro)
  103     dE    -7.795489e-06     1.238204e-04    -1.6960e-03      0.038 (TRAH MIcro)
  103     dE    -7.818839e-06     5.758987e-05    -1.7291e-03      0.038 (TRAH MIcro)
  103     dE    -7.834864e-06     8.100790e-05    -1.7523e-03      0.038 (TRAH MIcro)
  103     dE    -7.853545e-06     6.233898e-05    -1.7810e-03      0.038 (TRAH MIcro)
  103     dE    -7.866603e-06     5.606720e-05    -1.8022e-03      0.038 (TRAH MIcro)
  103     dE    -7.883090e-06     8.821696e-05    -1.8317e-03      0.038 (TRAH MIcro)
  103     dE    -7.890432e-06     2.498851e-05    -1.8456e-03      0.038 (TRAH MIcro)
  104       -295.077841844984     1.139865e-04                     0.045 (TRAH MAcro)   No
  104     dE    -6.316584e-07     6.718175e-04    -6.3163e-07      0.007 (TRAH MIcro)
  104     dE    -2.621212e-06     7.047272e-04    -2.6186e-06      0.032 (TRAH MIcro)
  104     dE    -3.473078e-06     2.039934e-04    -3.4669e-06      0.042 (TRAH MIcro)
  104     dE    -3.623294e-06     1.855180e-04    -3.6162e-06      0.044 (TRAH MIcro)
  104     dE    -3.855004e-06     2.703878e-04    -8.2914e-05      0.045 (TRAH MIcro)
  104     dE    -4.232747e-06     3.189511e-04    -3.1291e-04      0.045 (TRAH MIcro)
  104     dE    -4.567413e-06     2.538413e-04    -5.5426e-04      0.045 (TRAH MIcro)
  104     dE    -4.666445e-06     2.286265e-04    -8.5800e-04      0.043 (TRAH MIcro)
  104     dE    -4.979129e-06     7.128818e-05    -8.7997e-04      0.045 (TRAH MIcro)
  104     dE    -5.022633e-06     6.308025e-05    -8.8308e-04      0.045 (TRAH MIcro)
  104     dE    -5.074635e-06     1.392498e-04    -9.2467e-04      0.045 (TRAH MIcro)
  104     dE    -5.184815e-06     1.127983e-04    -1.0226e-03      0.045 (TRAH MIcro)
  104     dE    -5.195750e-06     3.526614e-05    -1.0488e-03      0.045 (TRAH MIcro)
  104     dE    -5.208766e-06     2.110258e-05    -1.0494e-03      0.045 (TRAH MIcro)
  104     dE    -5.214938e-06     2.952078e-05    -1.0511e-03      0.045 (TRAH MIcro)
  104     dE    -5.219300e-06     2.646684e-05    -1.0557e-03      0.045 (TRAH MIcro)
  104     dE    -5.222462e-06     3.364193e-05    -1.0590e-03      0.045 (TRAH MIcro)
  104     dE    -5.227533e-06     3.693169e-05    -1.0646e-03      0.045 (TRAH MIcro)
  104     dE    -5.229898e-06     1.680815e-05    -1.0675e-03      0.045 (TRAH MIcro)
  104     dE    -5.230492e-06     1.478791e-05    -1.0683e-03      0.045 (TRAH MIcro)
  104     dE    -5.231715e-06     2.899057e-05    -1.0699e-03      0.045 (TRAH MIcro)
  104     dE    -5.232926e-06     9.011880e-06    -1.0715e-03      0.045 (TRAH MIcro)
  105       -295.077846706243     1.058891e-04                     0.055 (TRAH MAcro)   No
  105     dE    -9.978310e-08     2.363377e-04    -9.9783e-08      0.002 (TRAH MIcro)
  105     dE    -8.890702e-07     5.644225e-04    -8.8875e-07      0.019 (TRAH MIcro)
  105     dE    -1.614860e-06     2.420302e-04    -1.6129e-06      0.035 (TRAH MIcro)
  105     dE    -1.721858e-06     1.044974e-04    -1.7195e-06      0.037 (TRAH MIcro)
  105     dE    -1.827418e-06     2.007329e-04    -1.8245e-06      0.040 (TRAH MIcro)
  105     dE    -2.280882e-06     4.507778e-04    -2.2749e-06      0.051 (TRAH MIcro)
  105     dE    -2.981654e-06     3.272459e-04    -2.5039e-04      0.055 (TRAH MIcro)
  105     dE    -3.283632e-06     2.343057e-04    -3.8116e-04      0.055 (TRAH MIcro)
  105     dE    -3.285416e-06     1.358323e-04    -5.3419e-04      0.050 (TRAH MIcro)
  105     dE    -3.387416e-06     6.481961e-05    -5.4071e-04      0.051 (TRAH MIcro)
  105     dE    -3.464151e-06     1.043974e-04    -5.4550e-04      0.052 (TRAH MIcro)
  105     dE    -3.736626e-06     1.990308e-04    -5.8530e-04      0.055 (TRAH MIcro)
  105     dE    -3.819478e-06     7.886515e-05    -6.2662e-04      0.055 (TRAH MIcro)
  105     dE    -3.829819e-06     3.033507e-05    -6.3182e-04      0.055 (TRAH MIcro)
  105     dE    -3.834021e-06     3.468737e-05    -6.3400e-04      0.055 (TRAH MIcro)
  105     dE    -3.848805e-06     7.532932e-05    -6.4186e-04      0.055 (TRAH MIcro)
  105     dE    -3.861636e-06     5.840128e-05    -6.4901e-04      0.055 (TRAH MIcro)
  105     dE    -3.871549e-06     5.880189e-05    -6.5474e-04      0.055 (TRAH MIcro)
  105     dE    -3.881458e-06     4.864037e-05    -6.6082e-04      0.055 (TRAH MIcro)
  105     dE    -3.883243e-06     1.201831e-05    -6.6192e-04      0.055 (TRAH MIcro)
  105     dE    -3.884187e-06     2.294978e-05    -6.6250e-04      0.055 (TRAH MIcro)
  105     dE    -3.886430e-06     2.322548e-05    -6.6389e-04      0.055 (TRAH MIcro)
  105     dE    -3.887270e-06     9.938305e-06    -6.6454e-04      0.055 (TRAH MIcro)
  106       -295.077849608322     1.376043e-04                     0.055 (TRAH MAcro)   No
  106     dE    -3.095196e-08     5.961245e-05    -3.0952e-08      0.000 (TRAH MIcro)
  106     dE    -9.703027e-08     2.105124e-04    -9.7029e-08      0.003 (TRAH MIcro)
  106     dE    -5.413113e-07     3.564275e-04    -5.4106e-07      0.022 (TRAH MIcro)
  106     dE    -7.609213e-07     1.195165e-04    -7.6020e-07      0.031 (TRAH MIcro)
  106     dE    -8.052082e-07     8.435772e-05    -8.0435e-07      0.033 (TRAH MIcro)
  106     dE    -8.553758e-07     1.357729e-04    -8.5433e-07      0.035 (TRAH MIcro)
  106     dE    -9.846986e-07     2.052187e-04    -9.8306e-07      0.041 (TRAH MIcro)
  106     dE    -1.178427e-06     2.322691e-04    -1.1755e-06      0.050 (TRAH MIcro)
  106     dE    -1.561304e-06     2.973291e-04    -1.1994e-04      0.055 (TRAH MIcro)
  106     dE    -1.765498e-06     1.391738e-04    -2.0299e-04      0.055 (TRAH MIcro)
  106     dE    -1.623575e-06     5.835996e-05    -2.7785e-04      0.047 (TRAH MIcro)
  106     dE    -1.732010e-06     1.582328e-04    -2.8607e-04      0.049 (TRAH MIcro)
  106     dE    -1.977273e-06     1.419780e-04    -3.0218e-04      0.054 (TRAH MIcro)
  106     dE    -2.023663e-06     5.131938e-05    -3.1253e-04      0.055 (TRAH MIcro)
  106     dE    -2.036535e-06     6.286105e-05    -3.1829e-04      0.055 (TRAH MIcro)
  106     dE    -2.074273e-06     1.141015e-04    -3.3542e-04      0.055 (TRAH MIcro)
  106     dE    -2.101331e-06     9.051432e-05    -3.4817e-04      0.055 (TRAH MIcro)
  106     dE    -2.123955e-06     9.691295e-05    -3.5909e-04      0.055 (TRAH MIcro)
  106     dE    -2.143363e-06     7.522382e-05    -3.6867e-04      0.055 (TRAH MIcro)
  106     dE    -2.147952e-06     2.026935e-05    -3.7097e-04      0.055 (TRAH MIcro)
  106     dE    -2.150618e-06     4.433150e-05    -3.7232e-04      0.055 (TRAH MIcro)
  106     dE    -2.167690e-06     7.904508e-05    -3.8126e-04      0.055 (TRAH MIcro)
  106     dE    -2.180615e-06     3.745201e-05    -3.8837e-04      0.055 (TRAH MIcro)
  107       -295.077851073936     1.415103e-04                     0.055 (TRAH MAcro)   No
  107     dE    -2.635511e-08     4.717382e-05    -2.6355e-08      0.000 (TRAH MIcro)
  107     dE    -5.047153e-08     1.222186e-04    -5.0471e-08      0.001 (TRAH MIcro)
  107     dE    -1.792252e-07     1.956506e-04    -1.7921e-07      0.008 (TRAH MIcro)
  107     dE    -2.504027e-07     1.037992e-04    -2.5037e-07      0.011 (TRAH MIcro)
  107     dE    -3.028187e-07     1.106727e-04    -3.0276e-07      0.014 (TRAH MIcro)
  107     dE    -3.335730e-07     6.424571e-05    -3.3349e-07      0.016 (TRAH MIcro)
  107     dE    -3.476917e-07     5.669887e-05    -3.4759e-07      0.017 (TRAH MIcro)
  107     dE    -3.749032e-07     1.269000e-04    -3.7478e-07      0.018 (TRAH MIcro)
  107     dE    -4.674777e-07     1.766909e-04    -4.6719e-07      0.025 (TRAH MIcro)
  107     dE    -5.472008e-07     8.281048e-05    -5.4669e-07      0.030 (TRAH MIcro)
  107     dE    -5.586163e-07     3.831038e-05    -5.5807e-07      0.031 (TRAH MIcro)
  107     dE    -5.699780e-07     6.837739e-05    -5.6939e-07      0.032 (TRAH MIcro)
  107     dE    -5.948256e-07     8.835449e-05    -5.9413e-07      0.034 (TRAH MIcro)
  107     dE    -6.231851e-07     1.052531e-04    -6.2235e-07      0.037 (TRAH MIcro)
  107     dE    -6.836864e-07     1.460416e-04    -6.8247e-07      0.042 (TRAH MIcro)
  107     dE    -7.322086e-07     7.747754e-05    -7.3059e-07      0.047 (TRAH MIcro)
  107     dE    -7.444284e-07     5.666105e-05    -7.4269e-07      0.048 (TRAH MIcro)
  107     dE    -7.739498e-07     1.595831e-04    -7.7191e-07      0.051 (TRAH MIcro)
  107     dE    -8.373668e-07     1.020247e-04    -1.6907e-05      0.055 (TRAH MIcro)
  107     dE    -8.498905e-07     3.938440e-05    -2.2700e-05      0.055 (TRAH MIcro)
  107     dE    -8.553353e-07     5.982510e-05    -2.5233e-05      0.055 (TRAH MIcro)
  107     dE    -8.742252e-07     8.356474e-05    -3.4157e-05      0.055 (TRAH MIcro)
  107     dE    -9.037205e-07     1.141255e-04    -4.8508e-05      0.055 (TRAH MIcro)
  108       -295.077852345955     1.956549e-04                     0.065 (TRAH MAcro)   No
  108     dE    -4.323983e-08     6.866573e-05    -4.3240e-08      0.000 (TRAH MIcro)
  108     dE    -6.178421e-08     8.439828e-05    -6.1784e-08      0.001 (TRAH MIcro)
  108     dE    -8.722899e-08     6.815544e-05    -8.7229e-08      0.002 (TRAH MIcro)
  108     dE    -1.059000e-07     1.065628e-04    -1.0590e-07      0.003 (TRAH MIcro)
  108     dE    -1.922217e-07     2.403592e-04    -1.9221e-07      0.008 (TRAH MIcro)
  108     dE    -2.570094e-07     7.335964e-05    -2.5697e-07      0.012 (TRAH MIcro)
  108     dE    -2.734187e-07     6.566577e-05    -2.7337e-07      0.013 (TRAH MIcro)
  108     dE    -2.953973e-07     1.279155e-04    -2.9533e-07      0.015 (TRAH MIcro)
  108     dE    -3.424427e-07     1.362510e-04    -3.4233e-07      0.018 (TRAH MIcro)
  108     dE    -3.660287e-07     5.464559e-05    -3.6588e-07      0.020 (TRAH MIcro)
  108     dE    -3.722539e-07     3.822366e-05    -3.7209e-07      0.021 (TRAH MIcro)
  108     dE    -3.770598e-07     4.163912e-05    -3.7689e-07      0.021 (TRAH MIcro)
  108     dE    -3.822602e-07     3.881819e-05    -3.8208e-07      0.022 (TRAH MIcro)
  108     dE    -3.940270e-07     7.698360e-05    -3.9383e-07      0.023 (TRAH MIcro)
  108     dE    -4.231850e-07     9.531394e-05    -4.2291e-07      0.026 (TRAH MIcro)
  108     dE    -4.370629e-07     3.284320e-05    -4.3674e-07      0.027 (TRAH MIcro)
  108     dE    -4.399480e-07     2.557408e-05    -4.3962e-07      0.027 (TRAH MIcro)
  108     dE    -4.492148e-07     8.713424e-05    -4.4885e-07      0.029 (TRAH MIcro)
  108     dE    -4.845256e-07     8.633899e-05    -4.8398e-07      0.033 (TRAH MIcro)
  108     dE    -5.033559e-07     6.428425e-05    -5.0269e-07      0.036 (TRAH MIcro)
  108     dE    -5.204703e-07     7.654095e-05    -5.1968e-07      0.039 (TRAH MIcro)
  108     dE    -5.309215e-07     3.264123e-05    -5.3004e-07      0.041 (TRAH MIcro)
  108     dE    -5.339207e-07     3.075155e-05    -5.3301e-07      0.041 (TRAH MIcro)
  109       -295.077853218528     9.100919e-05                           (NR   MAcro)
  109     dE    -1.299573e-08     4.133061e-05                           (NR   MIcro)
  109     dE    -3.065677e-08     1.042264e-04                           (NR   MIcro)
  109     dE    -1.439567e-07     1.544993e-04                           (NR   MIcro)
  109     dE    -1.880569e-07     8.712686e-05                           (NR   MIcro)
  109     dE    -2.241980e-07     1.103736e-04                           (NR   MIcro)
  109     dE    -2.477396e-07     4.241463e-05                           (NR   MIcro)
  109     dE    -2.547366e-07     4.525629e-05                           (NR   MIcro)
  109     dE    -2.691276e-07     8.290038e-05                           (NR   MIcro)
  109     dE    -2.959999e-07     7.315881e-05                           (NR   MIcro)
  109     dE    -3.053193e-07     2.924640e-05                           (NR   MIcro)
  109     dE    -3.098648e-07     4.449928e-05                           (NR   MIcro)
  109     dE    -3.221768e-07     7.079873e-05                           (NR   MIcro)
  109     dE    -3.412490e-07     6.725439e-05                           (NR   MIcro)
  109     dE    -3.511222e-07     6.451523e-05                           (NR   MIcro)
  109     dE    -3.612320e-07     4.632713e-05                           (NR   MIcro)
  109     dE    -3.667221e-07     3.898313e-05                           (NR   MIcro)
  109     dE    -3.760205e-07     7.469985e-05                           (NR   MIcro)
  109     dE    -4.413389e-07     2.487862e-04                           (NR   MIcro)
  109     dE    -5.384072e-07     1.128967e-04                           (NR   MIcro)
  109     dE    -5.641334e-07     7.241352e-05                           (NR   MIcro)
  109     dE    -5.860989e-07     1.339433e-04                           (NR   MIcro)
  109     dE    -7.619957e-07     2.687345e-04                           (NR   MIcro)
  109     dE    -1.159258e-06     4.422373e-04                           (NR   MIcro)
  109     dE     7.157510e-07     8.234129e-04                           (NR   MIcro)
  110       -295.077840975602     1.527688e-03                     0.079 (TRAH MAcro)   No
  110     dE    -2.234155e-06     2.884470e-04    -2.2341e-06      0.002 (TRAH MIcro)
  110     dE    -2.483480e-06     2.635548e-04    -2.4835e-06      0.003 (TRAH MIcro)
  110     dE    -3.093967e-06     5.022528e-04    -3.0937e-06      0.009 (TRAH MIcro)
  110     dE    -3.939877e-06     5.075650e-04    -3.9386e-06      0.018 (TRAH MIcro)
  110     dE    -5.108406e-06     6.161322e-04    -5.1028e-06      0.033 (TRAH MIcro)
  110     dE    -6.682904e-06     7.259776e-04    -6.6635e-06      0.054 (TRAH MIcro)
  110     dE    -7.334339e-06     2.707978e-04    -7.3055e-06      0.063 (TRAH MIcro)
  110     dE    -7.516941e-06     2.437020e-04    -7.4850e-06      0.065 (TRAH MIcro)
  110     dE    -8.038080e-06     5.250251e-04    -7.9956e-06      0.073 (TRAH MIcro)
  110     dE    -9.827932e-06     7.767374e-04    -3.1323e-04      0.079 (TRAH MIcro)
  110     dE    -9.794885e-06     1.789322e-04    -5.5174e-04      0.070 (TRAH MIcro)
  110     dE    -1.006766e-05     1.791269e-04    -5.5787e-04      0.072 (TRAH MIcro)
  110     dE    -1.046157e-05     2.099798e-04    -5.6615e-04      0.075 (TRAH MIcro)
  110     dE    -1.067588e-05     1.254057e-04    -5.7038e-04      0.076 (TRAH MIcro)
  111       -295.077850061813     2.827387e-04                     0.094 (TRAH MAcro)   No
  111     dE    -1.173981e-07     1.124140e-04    -1.1740e-07      0.001 (TRAH MIcro)
  111     dE    -1.884240e-07     1.778033e-04    -1.8842e-07      0.002 (TRAH MIcro)
  111     dE    -3.261043e-07     1.372755e-04    -3.2610e-07      0.005 (TRAH MIcro)
  111     dE    -4.290983e-07     2.028047e-04    -4.2908e-07      0.007 (TRAH MIcro)
  111     dE    -7.833836e-07     2.724496e-04    -7.8313e-07      0.018 (TRAH MIcro)
  111     dE    -9.283164e-07     1.186848e-04    -9.2785e-07      0.022 (TRAH MIcro)
  111     dE    -1.008356e-06     1.660239e-04    -1.0077e-06      0.025 (TRAH MIcro)
  111     dE    -1.431302e-06     4.074016e-04    -1.4291e-06      0.039 (TRAH MIcro)
  111     dE    -2.009398e-06     3.336868e-04    -2.0021e-06      0.060 (TRAH MIcro)
  111     dE    -2.296140e-06     1.785113e-04    -2.2846e-06      0.071 (TRAH MIcro)
  111     dE    -2.481361e-06     2.253921e-04    -2.4664e-06      0.078 (TRAH MIcro)
  111     dE    -2.720794e-06     2.480636e-04    -2.7003e-06      0.087 (TRAH MIcro)
  111     dE    -3.019519e-06     2.739638e-04    -1.7329e-05      0.094 (TRAH MIcro)
  111     dE    -3.526997e-06     4.299853e-04    -8.3318e-05      0.094 (TRAH MIcro)
  111     dE    -3.873996e-06     1.798028e-04    -1.9095e-04      0.086 (TRAH MIcro)
  111     dE    -3.969933e-06     7.645252e-05    -1.9315e-04      0.087 (TRAH MIcro)
  111     dE    -4.043221e-06     1.272830e-04    -1.9478e-04      0.089 (TRAH MIcro)
  111     dE    -4.550567e-06     5.122821e-04    -2.2399e-04      0.094 (TRAH MIcro)
  111     dE    -4.764376e-06     1.194466e-04    -2.5657e-04      0.094 (TRAH MIcro)
  111     dE    -4.789064e-06     6.109848e-05    -2.6040e-04      0.094 (TRAH MIcro)
  111     dE    -4.804744e-06     1.024148e-04    -2.6283e-04      0.094 (TRAH MIcro)
  111     dE    -4.852157e-06     1.368747e-04    -2.7034e-04      0.094 (TRAH MIcro)
  111     dE    -4.864960e-06     1.139928e-04    -2.7969e-04      0.094 (TRAH MIcro)
  112       -295.077852297542     4.046427e-04                     0.094 (TRAH MAcro)   No
  112     dE    -1.592654e-07     7.365525e-05    -1.5927e-07      0.001 (TRAH MIcro)
  112     dE    -1.799085e-07     8.002748e-05    -1.7991e-07      0.001 (TRAH MIcro)
  112     dE    -2.267956e-07     1.052420e-04    -2.2679e-07      0.002 (TRAH MIcro)
  112     dE    -2.615649e-07     1.068894e-04    -2.6156e-07      0.004 (TRAH MIcro)
  112     dE    -3.525595e-07     1.932952e-04    -3.5254e-07      0.008 (TRAH MIcro)
  112     dE    -4.682094e-07     1.287868e-04    -4.6812e-07      0.014 (TRAH MIcro)
  112     dE    -4.960893e-07     5.316375e-05    -4.9597e-07      0.015 (TRAH MIcro)
  112     dE    -5.036377e-07     4.612192e-05    -5.0351e-07      0.016 (TRAH MIcro)
  112     dE    -5.195298e-07     9.360741e-05    -5.1939e-07      0.017 (TRAH MIcro)
  112     dE    -6.072133e-07     2.138199e-04    -6.0690e-07      0.023 (TRAH MIcro)
  112     dE    -6.659912e-07     6.573533e-05    -6.6550e-07      0.027 (TRAH MIcro)
  112     dE    -6.827554e-07     6.809904e-05    -6.8220e-07      0.029 (TRAH MIcro)
  112     dE    -7.000005e-07     5.794022e-05    -6.9937e-07      0.030 (TRAH MIcro)
  112     dE    -7.085051e-07     4.640614e-05    -7.0783e-07      0.031 (TRAH MIcro)
  112     dE    -7.320917e-07     1.321196e-04    -7.3130e-07      0.033 (TRAH MIcro)
  112     dE    -7.906899e-07     1.061340e-04    -7.8951e-07      0.039 (TRAH MIcro)
  112     dE    -8.050233e-07     5.024027e-05    -8.0372e-07      0.040 (TRAH MIcro)
  112     dE    -8.201273e-07     1.036535e-04    -8.1870e-07      0.042 (TRAH MIcro)
  112     dE    -9.358508e-07     3.382182e-04    -9.3302e-07      0.055 (TRAH MIcro)
  112     dE    -1.187778e-06     1.634254e-04    -1.1789e-06      0.087 (TRAH MIcro)
  112     dE    -1.290674e-06     1.802812e-04    -7.2474e-06      0.094 (TRAH MIcro)
  112     dE    -1.458904e-06     2.096017e-04    -2.9892e-05      0.094 (TRAH MIcro)
  112     dE    -1.628603e-06     2.030382e-04    -5.2731e-05      0.094 (TRAH MIcro)
  113       -295.077852556710     3.254002e-04                     0.063 (TRAH MAcro)   No
  113     dE    -1.573508e-07     1.462071e-04    -1.5735e-07      0.001 (TRAH MIcro)
  113     dE    -2.694666e-07     2.116489e-04    -2.6947e-07      0.002 (TRAH MIcro)
  113     dE    -4.030443e-07     1.402944e-04    -4.0304e-07      0.004 (TRAH MIcro)
  113     dE    -4.910388e-07     1.890004e-04    -4.9102e-07      0.006 (TRAH MIcro)
  113     dE    -7.319915e-07     2.123745e-04    -7.3187e-07      0.013 (TRAH MIcro)
  113     dE    -7.982534e-07     7.662406e-05    -7.9808e-07      0.015 (TRAH MIcro)
  113     dE    -8.304162e-07     1.136033e-04    -8.3021e-07      0.016 (TRAH MIcro)
  113     dE    -9.733596e-07     2.320665e-04    -9.7295e-07      0.021 (TRAH MIcro)
  113     dE    -1.188504e-06     2.102897e-04    -1.1875e-06      0.029 (TRAH MIcro)
  113     dE    -1.275878e-06     1.016867e-04    -1.2745e-06      0.033 (TRAH MIcro)
  113     dE    -1.347263e-06     1.607487e-04    -1.3455e-06      0.036 (TRAH MIcro)
  113     dE    -1.498177e-06     1.867192e-04    -1.4954e-06      0.043 (TRAH MIcro)
  113     dE    -1.666140e-06     2.476956e-04    -1.6617e-06      0.052 (TRAH MIcro)
  113     dE    -2.052917e-06     3.401683e-04    -5.1086e-05      0.063 (TRAH MIcro)
  113     dE    -2.240455e-06     1.123542e-04    -1.3521e-04      0.061 (TRAH MIcro)
  113     dE    -2.284727e-06     7.957009e-05    -1.3668e-04      0.062 (TRAH MIcro)
  113     dE    -2.348342e-06     1.696159e-04    -1.4242e-04      0.063 (TRAH MIcro)
  113     dE    -2.660618e-06     4.419831e-04    -2.4641e-04      0.063 (TRAH MIcro)
  113     dE    -2.343782e-06     9.844800e-05    -3.8277e-04      0.050 (TRAH MIcro)
  113     dE    -2.439866e-06     8.642092e-05    -3.8701e-04      0.052 (TRAH MIcro)
  113     dE    -2.511068e-06     6.829168e-05    -3.8994e-04      0.053 (TRAH MIcro)
  113     dE    -2.545732e-06     3.683027e-05    -3.9130e-04      0.054 (TRAH MIcro)
  113     dE    -2.577519e-06     8.944082e-05    -3.9253e-04      0.054 (TRAH MIcro)
  114       -295.077853757751     2.016076e-04                     0.063 (TRAH MAcro)   No
  114     dE    -3.910125e-08     4.544730e-05    -3.9101e-08      0.000 (TRAH MIcro)
  114     dE    -5.569243e-08     9.435093e-05    -5.5692e-08      0.001 (TRAH MIcro)
  114     dE    -1.399802e-07     1.884574e-04    -1.3998e-07      0.005 (TRAH MIcro)
  114     dE    -2.037121e-07     1.084067e-04    -2.0370e-07      0.009 (TRAH MIcro)
  114     dE    -2.605974e-07     1.422800e-04    -2.6056e-07      0.012 (TRAH MIcro)
  114     dE    -2.996683e-07     5.880595e-05    -2.9961e-07      0.014 (TRAH MIcro)
  114     dE    -3.085365e-07     3.882226e-05    -3.0847e-07      0.015 (TRAH MIcro)
  114     dE    -3.185577e-07     7.614324e-05    -3.1848e-07      0.015 (TRAH MIcro)
  114     dE    -3.562884e-07     1.232076e-04    -3.5617e-07      0.018 (TRAH MIcro)
  114     dE    -3.983059e-07     8.248435e-05    -3.9813e-07      0.021 (TRAH MIcro)
  114     dE    -4.122659e-07     6.279961e-05    -4.1206e-07      0.022 (TRAH MIcro)
  114     dE    -4.372440e-07     9.532539e-05    -4.3698e-07      0.025 (TRAH MIcro)
  114     dE    -4.719338e-07     1.015010e-04    -4.7157e-07      0.028 (TRAH MIcro)
  114     dE    -4.994282e-07     1.028170e-04    -4.9896e-07      0.031 (TRAH MIcro)
  114     dE    -5.353044e-07     1.003424e-04    -5.3467e-07      0.034 (TRAH MIcro)
  114     dE    -5.526285e-07     5.270560e-05    -5.5190e-07      0.036 (TRAH MIcro)
  114     dE    -5.651519e-07     8.714035e-05    -5.6435e-07      0.038 (TRAH MIcro)
  114     dE    -6.471238e-07     3.341576e-04    -6.4567e-07      0.047 (TRAH MIcro)
  114     dE    -9.733510e-07     2.159628e-04    -1.5818e-04      0.050 (TRAH MIcro)
  114     dE    -1.164122e-06     6.600793e-05    -1.6776e-04      0.058 (TRAH MIcro)
  114     dE    -1.208837e-06     6.822171e-05    -1.6975e-04      0.059 (TRAH MIcro)
  114     dE    -1.297712e-06     6.853197e-05    -1.7345e-04      0.062 (TRAH MIcro)
  114     dE    -1.335743e-06     7.312548e-05    -1.7673e-04      0.063 (TRAH MIcro)
 ---------------------------------
          TRAH Step control 
 ---------------------------------
  predicted energy change =    -1.335742921409e-06
  actual energy  change   =     8.388917649427e-08
  energy change ratio     = -0.062803
  old trust radius        = 0.063118
  new trust radius        = 0.042289
  reject step?            = YES
  115       -295.077853673862     2.016076e-04                     0.042 (TRAH MAcro)  Yes
  116       -295.077853673862     2.333092e-04                     0.042 (TRAH MAcro)   No
  116     dE    -6.267335e-08     6.541131e-05    -6.2673e-08      0.000 (TRAH MIcro)
  116     dE    -9.335574e-08     1.245325e-04    -9.3356e-08      0.001 (TRAH MIcro)
  116     dE    -1.890388e-07     1.358928e-04    -1.8903e-07      0.005 (TRAH MIcro)
  116     dE    -2.723889e-07     1.844834e-04    -2.7237e-07      0.008 (TRAH MIcro)
  116     dE    -5.387730e-07     2.800202e-04    -5.3858e-07      0.019 (TRAH MIcro)
  116     dE    -6.705529e-07     9.864121e-05    -6.7015e-07      0.025 (TRAH MIcro)
  116     dE    -7.030085e-07     8.844578e-05    -7.0253e-07      0.026 (TRAH MIcro)
  116     dE    -8.028283e-07     2.066029e-04    -8.0208e-07      0.031 (TRAH MIcro)
  116     dE    -1.074063e-06     2.776198e-04    -2.2774e-05      0.042 (TRAH MIcro)
  116     dE    -1.232813e-06     1.003648e-04    -1.2755e-04      0.042 (TRAH MIcro)
  116     dE    -1.271392e-06     9.639194e-05    -1.5339e-04      0.042 (TRAH MIcro)
  116     dE    -1.321680e-06     1.177015e-04    -1.8771e-04      0.042 (TRAH MIcro)
  116     dE    -1.317349e-06     8.653169e-05    -2.5359e-04      0.040 (TRAH MIcro)
  116     dE    -1.412459e-06     1.340471e-04    -2.6247e-04      0.042 (TRAH MIcro)
  116     dE    -1.504336e-06     1.010934e-04    -3.2120e-04      0.042 (TRAH MIcro)
  116     dE    -1.525812e-06     6.528961e-05    -3.3795e-04      0.042 (TRAH MIcro)
  116     dE    -1.545742e-06     9.530705e-05    -3.5380e-04      0.042 (TRAH MIcro)
  116     dE    -1.645547e-06     2.294426e-04    -4.3672e-04      0.042 (TRAH MIcro)
  116     dE    -1.146756e-06     3.076591e-05    -6.5169e-04      0.028 (TRAH MIcro)
  116     dE    -1.151708e-06     1.464543e-05    -6.5240e-04      0.028 (TRAH MIcro)
  117       -295.077854520280     6.539607e-05                           (NR   MAcro)
  117     dE    -9.329753e-09     4.351133e-05                           (NR   MIcro)
  117     dE    -3.554130e-08     1.282500e-04                           (NR   MIcro)
  117     dE    -1.434666e-07     1.429693e-04                           (NR   MIcro)
  117     dE    -1.920435e-07     9.517260e-05                           (NR   MIcro)
  117     dE    -2.273803e-07     8.753463e-05                           (NR   MIcro)
  117     dE    -2.429590e-07     3.132779e-05                           (NR   MIcro)
  117     dE    -2.470110e-07     3.052355e-05                           (NR   MIcro)
  117     dE    -2.533715e-07     5.119895e-05                           (NR   MIcro)
  117     dE    -2.796649e-07     8.844926e-05                           (NR   MIcro)
  117     dE    -2.942548e-07     3.328712e-05                           (NR   MIcro)
  117     dE    -3.007227e-07     5.225631e-05                           (NR   MIcro)
  117     dE    -3.160617e-07     6.771789e-05                           (NR   MIcro)
  117     dE    -3.323615e-07     6.389229e-05                           (NR   MIcro)
  117     dE    -3.543700e-07     9.838222e-05                           (NR   MIcro)
  117     dE    -3.777668e-07     5.797338e-05                           (NR   MIcro)
  117     dE    -3.892721e-07     5.315650e-05                           (NR   MIcro)
  117     dE    -4.079787e-07     1.156254e-04                           (NR   MIcro)
  117     dE    -5.995700e-07     5.475948e-04                           (NR   MIcro)
  117     dE    -1.287954e-05     6.671200e-03                           (NR   MIcro)
  117     dE     4.510559e-06     8.727486e-04                           (NR   MIcro)
  117     dE     2.224868e-06     9.395537e-04                           (NR   MIcro)
  117     dE     7.092220e-07     3.316877e-04                           (NR   MIcro)
  117     dE     3.401023e-07     3.138893e-04                           (NR   MIcro)
  117     dE     1.695765e-08     2.325750e-04                           (NR   MIcro)
  118       -295.077853731218     2.764577e-04                     0.042 (TRAH MAcro)   No
  118     dE    -8.897439e-08     9.412335e-05    -8.8974e-08      0.001 (TRAH MIcro)
  118     dE    -1.202254e-07     9.443495e-05    -1.2023e-07      0.001 (TRAH MIcro)
  118     dE    -1.839793e-07     1.967070e-04    -1.8398e-07      0.003 (TRAH MIcro)
  118     dE    -3.159635e-07     1.966836e-04    -3.1595e-07      0.008 (TRAH MIcro)
  118     dE    -5.214770e-07     3.186667e-04    -5.2135e-07      0.016 (TRAH MIcro)
  118     dE    -1.060639e-06     4.697682e-04    -1.0592e-06      0.037 (TRAH MIcro)
  118     dE    -1.363858e-06     1.664776e-04    -1.0793e-04      0.042 (TRAH MIcro)
  118     dE    -1.400628e-06     8.743371e-05    -1.2978e-04      0.042 (TRAH MIcro)
  118     dE    -1.467176e-06     2.316304e-04    -1.6979e-04      0.042 (TRAH MIcro)
  118     dE    -1.768468e-06     2.688450e-04    -3.6827e-04      0.042 (TRAH MIcro)
  118     dE    -1.873656e-06     1.039957e-04    -4.5167e-04      0.042 (TRAH MIcro)
  118     dE    -1.913741e-06     9.607710e-05    -4.7303e-04      0.042 (TRAH MIcro)
  118     dE    -1.963841e-06     1.275619e-04    -5.1029e-04      0.042 (TRAH MIcro)
  118     dE    -2.001396e-06     9.755664e-05    -5.3868e-04      0.042 (TRAH MIcro)
  118     dE    -1.448609e-06     9.797134e-05    -7.9003e-04      0.030 (TRAH MIcro)
  118     dE    -1.564021e-06     6.788911e-05    -8.0579e-04      0.031 (TRAH MIcro)
  118     dE    -1.590195e-06     2.717076e-05    -8.0895e-04      0.032 (TRAH MIcro)
  119       -295.077854819114     8.523202e-05                           (NR   MAcro)
  119     dE    -1.381688e-08     4.892093e-05                           (NR   MIcro)
  119     dE    -4.205383e-08     1.371028e-04                           (NR   MIcro)
  119     dE    -1.736348e-07     1.732557e-04                           (NR   MIcro)
  119     dE    -2.209604e-07     6.820898e-05                           (NR   MIcro)
  119     dE    -2.500055e-07     9.738707e-05                           (NR   MIcro)
  119     dE    -2.925218e-07     1.027252e-04                           (NR   MIcro)
  119     dE    -3.305072e-07     1.008639e-04                           (NR   MIcro)
  119     dE    -3.741834e-07     1.051032e-04                           (NR   MIcro)
  119     dE    -4.306158e-07     7.703883e-05                           (NR   MIcro)
  119     dE    -4.406473e-07     4.062878e-05                           (NR   MIcro)
  119     dE    -4.656269e-07     1.564221e-04                           (NR   MIcro)
  119     dE    -7.442443e-07     4.051141e-04                           (NR   MIcro)
  119     dE    -2.180207e-06     7.566196e-04                           (NR   MIcro)
  119     dE    -3.894944e-06     7.746085e-04                           (NR   MIcro)
  119     dE    -4.217562e-05     1.418459e-02                           (NR   MIcro)
  119     dE     2.280754e-06     1.014287e-03                           (NR   MIcro)
  119     dE     8.440473e-07     4.866906e-04                           (NR   MIcro)
  119     dE     8.994955e-08     4.730857e-04                           (NR   MIcro)
  119     dE    -5.754123e-08     9.784601e-05                           (NR   MIcro)
  119     dE    -6.808780e-08     3.959442e-05                           (NR   MIcro)
  119     dE    -7.357025e-08     6.074621e-05                           (NR   MIcro)
  119     dE    -1.369934e-07     1.582889e-04                           (NR   MIcro)
  119     dE    -1.995956e-07     9.120027e-05                           (NR   MIcro)
  119     dE    -2.199921e-07     5.284638e-05                           (NR   MIcro)
  120       -295.077855120843     7.541908e-05                           (NR   MAcro)
  120     dE    -1.778661e-08     7.333427e-05                           (NR   MIcro)
  120     dE    -5.801027e-08     1.396385e-04                           (NR   MIcro)
  120     dE    -1.375927e-07     1.114322e-04                           (NR   MIcro)
  120     dE    -2.154951e-07     1.731242e-04                           (NR   MIcro)
  120     dE    -3.027468e-07     1.159213e-04                           (NR   MIcro)
  120     dE    -3.253326e-07     4.905250e-05                           (NR   MIcro)
  120     dE    -3.430273e-07     9.261790e-05                           (NR   MIcro)
  120     dE    -4.608739e-07     2.597351e-04                           (NR   MIcro)
  120     dE    -8.568868e-07     3.381431e-04                           (NR   MIcro)
  120     dE    -1.114666e-06     1.418115e-04                           (NR   MIcro)
  120     dE    -1.252394e-06     2.814557e-04                           (NR   MIcro)
  120     dE    -1.754362e-06     5.392537e-04                           (NR   MIcro)
  120     dE     1.496911e-05     8.371017e-03                           (NR   MIcro)
  120     dE     6.500402e-07     6.801563e-04                           (NR   MIcro)
  120     dE     1.442562e-07     2.600254e-04                           (NR   MIcro)
  120     dE     7.177972e-08     9.487775e-05                           (NR   MIcro)
  120     dE     4.098242e-08     1.008509e-04                           (NR   MIcro)
  120     dE    -5.256851e-08     2.468119e-04                           (NR   MIcro)
  120     dE    -9.620525e-08     5.430905e-05                           (NR   MIcro)
  120     dE    -1.053219e-07     5.597890e-05                           (NR   MIcro)
  120     dE    -1.252814e-07     1.103761e-04                           (NR   MIcro)
  120     dE    -1.698745e-07     8.746805e-05                           (NR   MIcro)
  120     dE    -1.999747e-07     1.011418e-04                           (NR   MIcro)
  120     dE    -2.476436e-07     9.222386e-05                           (NR   MIcro)
  121       -295.077855505657     1.067690e-04                     0.042 (TRAH MAcro)   No
  121     dE    -1.811638e-08     5.123935e-05    -1.8116e-08      0.000 (TRAH MIcro)
  121     dE    -3.392980e-08     8.097396e-05    -3.3930e-08      0.001 (TRAH MIcro)
  121     dE    -9.896850e-08     1.928466e-04    -9.8967e-08      0.004 (TRAH MIcro)
  121     dE    -2.621707e-07     1.960975e-04    -2.6212e-07      0.013 (TRAH MIcro)
  121     dE    -3.846541e-07     1.666349e-04    -3.8450e-07      0.020 (TRAH MIcro)
  121     dE    -4.925215e-07     1.646398e-04    -4.9218e-07      0.026 (TRAH MIcro)
  121     dE    -5.591341e-07     8.732165e-05    -5.5863e-07      0.030 (TRAH MIcro)
  121     dE    -5.968570e-07     1.396111e-04    -5.9623e-07      0.032 (TRAH MIcro)
  121     dE    -8.733433e-07     4.097879e-04    -7.2834e-05      0.042 (TRAH MIcro)
  121     dE    -1.009435e-06     1.450241e-04    -5.1950e-04      0.031 (TRAH MIcro)
  121     dE    -1.113820e-06     8.552794e-05    -5.3822e-04      0.033 (TRAH MIcro)
  121     dE    -1.242951e-06     1.384861e-04    -5.5862e-04      0.036 (TRAH MIcro)
  121     dE    -1.513750e-06     1.645506e-04    -5.9423e-04      0.040 (TRAH MIcro)
  121     dE    -1.696665e-06     1.073523e-04    -6.1952e-04      0.042 (TRAH MIcro)
  121     dE    -1.766360e-06     1.870948e-04    -6.6789e-04      0.042 (TRAH MIcro)
  121     dE    -1.802735e-06     6.817730e-05    -6.9346e-04      0.042 (TRAH MIcro)
  121     dE    -1.816914e-06     7.657404e-05    -7.0349e-04      0.042 (TRAH MIcro)
  121     dE    -1.860093e-06     2.273281e-04    -7.3435e-04      0.042 (TRAH MIcro)
  121     dE    -1.936658e-06     8.036031e-05    -7.9092e-04      0.042 (TRAH MIcro)
  121     dE    -1.947165e-06     3.899845e-05    -7.9886e-04      0.042 (TRAH MIcro)
  121     dE    -1.949725e-06     2.119649e-05    -8.0078e-04      0.042 (TRAH MIcro)
  121     dE    -1.883009e-06     5.389808e-05    -8.1042e-04      0.041 (TRAH MIcro)
  121     dE    -1.960277e-06     5.513217e-05    -8.1595e-04      0.042 (TRAH MIcro)
  122       -295.077856059740     1.634067e-04                     0.042 (TRAH MAcro)   No
  122     dE    -3.058880e-08     3.777534e-05    -3.0589e-08      0.000 (TRAH MIcro)
  122     dE    -3.856908e-08     5.784616e-05    -3.8569e-08      0.001 (TRAH MIcro)
  122     dE    -6.693606e-08     7.633026e-05    -6.6936e-08      0.002 (TRAH MIcro)
  122     dE    -9.396400e-08     1.105679e-04    -9.3962e-08      0.004 (TRAH MIcro)
  122     dE    -1.721562e-07     1.733402e-04    -1.7214e-07      0.010 (TRAH MIcro)
  122     dE    -2.432561e-07     7.090775e-05    -2.4320e-07      0.015 (TRAH MIcro)
  122     dE    -2.511846e-07     2.584094e-05    -2.5112e-07      0.016 (TRAH MIcro)
  122     dE    -2.538716e-07     2.983089e-05    -2.5381e-07      0.016 (TRAH MIcro)
  122     dE    -2.638515e-07     7.371370e-05    -2.6378e-07      0.017 (TRAH MIcro)
  122     dE    -2.864877e-07     6.601242e-05    -2.8638e-07      0.019 (TRAH MIcro)
  122     dE    -2.978258e-07     5.110410e-05    -2.9770e-07      0.020 (TRAH MIcro)
  122     dE    -3.112787e-07     7.527872e-05    -3.1113e-07      0.022 (TRAH MIcro)
  122     dE    -3.413582e-07     1.140663e-04    -3.4114e-07      0.025 (TRAH MIcro)
  122     dE    -3.857213e-07     1.542709e-04    -3.8534e-07      0.031 (TRAH MIcro)
  122     dE    -4.917197e-07     1.623645e-04    -2.2924e-05      0.042 (TRAH MIcro)
  122     dE    -5.515132e-07     8.788495e-05    -6.4968e-05      0.042 (TRAH MIcro)
  122     dE    -5.587354e-07     2.950775e-05    -7.0028e-05      0.042 (TRAH MIcro)
  122     dE    -5.661532e-07     8.348349e-05    -7.5232e-05      0.042 (TRAH MIcro)
  122     dE    -6.018305e-07     1.698422e-04    -1.1321e-04      0.041 (TRAH MIcro)
  122     dE    -6.499829e-07     7.082417e-05    -1.3613e-04      0.042 (TRAH MIcro)
  122     dE    -6.602007e-07     5.809691e-05    -1.4375e-04      0.042 (TRAH MIcro)
  122     dE    -6.722237e-07     3.712240e-05    -1.5280e-04      0.042 (TRAH MIcro)
  122     dE    -6.765277e-07     3.430802e-05    -1.5605e-04      0.042 (TRAH MIcro)
  123       -295.077856524569     8.262044e-05                           (NR   MAcro)
  123     dE    -1.167457e-08     3.959598e-05                           (NR   MIcro)
  123     dE    -2.529772e-08     8.914095e-05                           (NR   MIcro)
  123     dE    -8.969758e-08     1.092211e-04                           (NR   MIcro)
  123     dE    -1.385334e-07     1.237713e-04                           (NR   MIcro)
  123     dE    -2.263245e-07     1.622584e-04                           (NR   MIcro)
  123     dE    -2.700259e-07     4.487908e-05                           (NR   MIcro)
  123     dE    -2.793789e-07     5.496128e-05                           (NR   MIcro)
  123     dE    -3.032813e-07     9.516450e-05                           (NR   MIcro)
  123     dE    -3.527356e-07     1.125527e-04                           (NR   MIcro)
  123     dE    -3.805676e-07     4.893016e-05                           (NR   MIcro)
  123     dE    -4.079895e-07     1.262229e-04                           (NR   MIcro)
  123     dE    -4.964258e-07     1.897955e-04                           (NR   MIcro)
  123     dE    -8.132633e-07     4.201077e-04                           (NR   MIcro)
  123     dE     1.130724e-06     1.269010e-03                           (NR   MIcro)
  123     dE     2.120036e-07     1.972328e-04                           (NR   MIcro)
  123     dE     1.468428e-07     1.200674e-04                           (NR   MIcro)
  123     dE     8.557586e-08     1.530899e-04                           (NR   MIcro)
  123     dE    -7.196382e-08     2.508771e-04                           (NR   MIcro)
  123     dE    -1.098513e-07     4.582721e-05                           (NR   MIcro)
  123     dE    -1.149701e-07     3.784273e-05                           (NR   MIcro)
  123     dE    -1.232346e-07     9.156588e-05                           (NR   MIcro)
  123     dE    -1.598598e-07     9.407420e-05                           (NR   MIcro)
  123     dE    -1.916605e-07     1.027066e-04                           (NR   MIcro)
  123     dE    -2.751071e-07     1.648621e-04                           (NR   MIcro)
  124       -295.077856961649     1.675383e-04                     0.042 (TRAH MAcro)   No
  124     dE    -2.687971e-08     5.607784e-05    -2.6880e-08      0.000 (TRAH MIcro)
  124     dE    -3.686054e-08     5.843998e-05    -3.6861e-08      0.001 (TRAH MIcro)
  124     dE    -5.672533e-08     1.183861e-04    -5.6725e-08      0.002 (TRAH MIcro)
  124     dE    -9.573149e-08     8.867196e-05    -9.5730e-08      0.004 (TRAH MIcro)
  124     dE    -1.418747e-07     1.561631e-04    -1.4187e-07      0.007 (TRAH MIcro)
  124     dE    -2.289909e-07     1.365678e-04    -2.2895e-07      0.014 (TRAH MIcro)
  124     dE    -2.557240e-07     5.615726e-05    -2.5566e-07      0.016 (TRAH MIcro)
  124     dE    -2.611729e-07     3.972594e-05    -2.6111e-07      0.016 (TRAH MIcro)
  124     dE    -2.746123e-07     9.555090e-05    -2.7453e-07      0.017 (TRAH MIcro)
  124     dE    -3.103462e-07     1.282662e-04    -3.1022e-07      0.020 (TRAH MIcro)
  124     dE    -3.388728e-07     7.775135e-05    -3.3869e-07      0.023 (TRAH MIcro)
  124     dE    -3.657298e-07     1.008945e-04    -3.6549e-07      0.026 (TRAH MIcro)
  124     dE    -6.197502e-07     4.922765e-04    -7.6195e-05      0.042 (TRAH MIcro)
  124     dE    -6.314340e-07     1.280652e-04    -3.4258e-04      0.030 (TRAH MIcro)
  124     dE    -1.046612e-06     3.078519e-04    -3.9660e-04      0.041 (TRAH MIcro)
  124     dE    -1.232019e-06     8.642091e-05    -4.8386e-04      0.042 (TRAH MIcro)
  124     dE    -1.253877e-06     6.316663e-05    -4.9810e-04      0.042 (TRAH MIcro)
  124     dE    -1.283939e-06     1.226760e-04    -5.1765e-04      0.042 (TRAH MIcro)
  124     dE    -4.272697e-07     4.649371e-05    -8.0331e-04      0.017 (TRAH MIcro)
  124     dE    -4.550862e-07     2.327879e-05    -8.1188e-04      0.018 (TRAH MIcro)
  124     dE    -4.626099e-07     1.061668e-05    -8.1400e-04      0.018 (TRAH MIcro)
  125       -295.077857277899     4.199295e-05                           (NR   MAcro)
  125     dE    -8.063080e-09     5.380435e-05                           (NR   MIcro)
  125     dE    -6.410012e-08     1.640824e-04                           (NR   MIcro)
  125     dE    -1.515588e-07     1.115231e-04                           (NR   MIcro)
  125     dE    -1.805248e-07     6.894225e-05                           (NR   MIcro)
  125     dE    -1.989087e-07     5.134514e-05                           (NR   MIcro)
  125     dE    -2.040112e-07     1.723017e-05                           (NR   MIcro)
  125     dE    -2.061150e-07     2.409234e-05                           (NR   MIcro)
  125     dE    -2.102471e-07     3.856567e-05                           (NR   MIcro)
  125     dE    -2.199754e-07     3.624156e-05                           (NR   MIcro)
  125     dE    -2.226254e-07     1.901628e-05                           (NR   MIcro)
  125     dE    -2.286304e-07     6.348313e-05                           (NR   MIcro)
  125     dE    -2.573154e-07     1.020833e-04                           (NR   MIcro)
  125     dE    -2.992656e-07     1.221743e-04                           (NR   MIcro)
  125     dE    -4.396147e-07     3.372456e-04                           (NR   MIcro)
  125     dE    -9.323696e-07     3.494703e-04                           (NR   MIcro)
  125     dE    -1.510602e-06     5.037084e-04                           (NR   MIcro)
  125     dE     2.150161e-06     2.009716e-03                           (NR   MIcro)
  125     dE    -7.771631e-10     2.983396e-04                           (NR   MIcro)
  125     dE    -6.781460e-08     7.606830e-05                           (NR   MIcro)
  125     dE    -7.344002e-08     2.767013e-05                           (NR   MIcro)
  125     dE    -7.807579e-08     6.178845e-05                           (NR   MIcro)
  125     dE    -1.025990e-07     8.976042e-05                           (NR   MIcro)
  125     dE    -1.202027e-07     7.859450e-05                           (NR   MIcro)
  125     dE    -1.388583e-07     6.608472e-05                           (NR   MIcro)
  126       -295.077857516457     8.042644e-05                           (NR   MAcro)
  126     dE    -1.051676e-08     3.893171e-05                           (NR   MIcro)
  126     dE    -2.091314e-08     6.779317e-05                           (NR   MIcro)
  126     dE    -6.782032e-08     1.454344e-04                           (NR   MIcro)
  126     dE    -1.316234e-07     1.117900e-04                           (NR   MIcro)
  126     dE    -1.968128e-07     1.476078e-04                           (NR   MIcro)
  126     dE    -2.392142e-07     8.076147e-05                           (NR   MIcro)
  126     dE    -2.498919e-07     3.727375e-05                           (NR   MIcro)
  126     dE    -2.524723e-07     3.267525e-05                           (NR   MIcro)
  126     dE    -2.633837e-07     7.167844e-05                           (NR   MIcro)
  126     dE    -2.959357e-07     1.094881e-04                           (NR   MIcro)
  126     dE    -3.158818e-07     4.744357e-05                           (NR   MIcro)
  126     dE    -3.238460e-07     4.968351e-05                           (NR   MIcro)
  126     dE    -3.537796e-07     1.381590e-04                           (NR   MIcro)
  126     dE    -3.966881e-07     1.185483e-04                           (NR   MIcro)
  126     dE    -4.818423e-07     2.697859e-04                           (NR   MIcro)
  126     dE    -1.238863e-06     8.515168e-04                           (NR   MIcro)
  126     dE    -8.759965e-06     2.783134e-03                           (NR   MIcro)
  126     dE     1.161582e-06     1.092204e-03                           (NR   MIcro)
  126     dE     1.837827e-08     2.354392e-04                           (NR   MIcro)
  126     dE    -4.875100e-08     7.528941e-05                           (NR   MIcro)
  126     dE    -6.018634e-08     5.153178e-05                           (NR   MIcro)
  126     dE    -7.641826e-08     8.130655e-05                           (NR   MIcro)
  126     dE    -1.107309e-07     1.111547e-04                           (NR   MIcro)
  126     dE    -1.462944e-07     8.996024e-05                           (NR   MIcro)
  127       -295.077857707594     9.752092e-05                           (NR   MAcro)
  127     dE    -2.232956e-08     6.829235e-05                           (NR   MIcro)
  127     dE    -4.362368e-08     7.233748e-05                           (NR   MIcro)
  127     dE    -6.234016e-08     7.144138e-05                           (NR   MIcro)
  127     dE    -9.029544e-08     1.136765e-04                           (NR   MIcro)
  127     dE    -2.005491e-07     2.741076e-04                           (NR   MIcro)
  127     dE    -3.685821e-07     1.584346e-04                           (NR   MIcro)
  127     dE    -4.015793e-07     5.941820e-05                           (NR   MIcro)
  127     dE    -4.169311e-07     1.067533e-04                           (NR   MIcro)
  127     dE    -4.603318e-07     1.072709e-04                           (NR   MIcro)
  127     dE    -5.044987e-07     1.171374e-04                           (NR   MIcro)
  127     dE    -5.472290e-07     1.510497e-04                           (NR   MIcro)
  127     dE    -6.049974e-07     1.235089e-04                           (NR   MIcro)
  127     dE    -6.572540e-07     1.429845e-04                           (NR   MIcro)
  127     dE    -9.320741e-07     6.066892e-04                           (NR   MIcro)
  127     dE     9.253911e-07     8.787399e-04                           (NR   MIcro)
  127     dE     2.535961e-07     1.854157e-04                           (NR   MIcro)
  127     dE     1.791159e-07     1.467400e-04                           (NR   MIcro)
  127     dE    -5.375272e-09     2.638169e-04                           (NR   MIcro)
  127     dE    -1.422740e-07     1.279072e-04                           (NR   MIcro)
  127     dE    -1.713436e-07     5.949686e-05                           (NR   MIcro)
  127     dE    -1.841678e-07     5.656433e-05                           (NR   MIcro)
  127     dE    -1.971275e-07     4.441781e-05                           (NR   MIcro)
  127     dE    -2.083042e-07     5.532854e-05                           (NR   MIcro)
  127     dE    -2.360951e-07     1.266846e-04                           (NR   MIcro)
  128       -295.077858066286     1.236791e-04                     0.042 (TRAH MAcro)   No
  128     dE    -2.540582e-08     5.503010e-05    -2.5406e-08      0.000 (TRAH MIcro)
  128     dE    -4.237158e-08     6.679359e-05    -4.2372e-08      0.001 (TRAH MIcro)
  128     dE    -8.150734e-08     1.272293e-04    -8.1507e-08      0.003 (TRAH MIcro)
  128     dE    -1.353832e-07     1.169063e-04    -1.3538e-07      0.005 (TRAH MIcro)
  128     dE    -2.377265e-07     2.289529e-04    -2.3770e-07      0.011 (TRAH MIcro)
  128     dE    -4.276110e-07     2.114771e-04    -4.2739e-07      0.023 (TRAH MIcro)
  128     dE    -5.030893e-07     9.070489e-05    -5.0271e-07      0.027 (TRAH MIcro)
  128     dE    -5.398294e-07     1.431400e-04    -5.3936e-07      0.030 (TRAH MIcro)
  128     dE    -7.017204e-07     3.073106e-04    -7.0061e-07      0.040 (TRAH MIcro)
  128     dE    -1.065296e-06     2.409189e-04    -2.0566e-04      0.042 (TRAH MIcro)
  128     dE    -1.108969e-06     7.753340e-05    -2.3365e-04      0.042 (TRAH MIcro)
  128     dE    -1.135563e-06     1.275581e-04    -2.5083e-04      0.042 (TRAH MIcro)
  128     dE    -1.202634e-06     1.596100e-04    -2.9528e-04      0.042 (TRAH MIcro)
  128     dE    -1.267384e-06     1.315107e-04    -3.3979e-04      0.042 (TRAH MIcro)
  128     dE    -9.959615e-07     1.305560e-04    -5.1012e-04      0.031 (TRAH MIcro)
  128     dE    -1.136312e-06     8.116639e-05    -5.3109e-04      0.034 (TRAH MIcro)
  128     dE    -1.200338e-06     6.425555e-05    -5.3928e-04      0.036 (TRAH MIcro)
  128     dE    -1.408130e-06     2.111792e-04    -5.6171e-04      0.039 (TRAH MIcro)
  128     dE    -1.654991e-06     1.145103e-04    -6.2734e-04      0.042 (TRAH MIcro)
  128     dE    -1.670818e-06     4.401830e-05    -6.3944e-04      0.042 (TRAH MIcro)
  128     dE    -1.674344e-06     2.513779e-05    -6.4211e-04      0.042 (TRAH MIcro)
  128     dE    -1.678472e-06     4.055419e-05    -6.4534e-04      0.042 (TRAH MIcro)
  128     dE    -1.685111e-06     4.350160e-05    -6.5050e-04      0.042 (TRAH MIcro)
  129       -295.077858512340     1.295395e-04                     0.042 (TRAH MAcro)   No
  129     dE    -2.089164e-08     3.974378e-05    -2.0892e-08      0.000 (TRAH MIcro)
  129     dE    -3.220682e-08     7.554659e-05    -3.2207e-08      0.001 (TRAH MIcro)
  129     dE    -7.589490e-08     9.531746e-05    -7.5894e-08      0.003 (TRAH MIcro)
  129     dE    -1.231571e-07     1.487862e-04    -1.2315e-07      0.006 (TRAH MIcro)
  129     dE    -3.150478e-07     2.908790e-04    -3.1493e-07      0.019 (TRAH MIcro)
  129     dE    -4.595526e-07     8.719395e-05    -4.5917e-07      0.029 (TRAH MIcro)
  129     dE    -4.814311e-07     7.117007e-05    -4.8099e-07      0.030 (TRAH MIcro)
  129     dE    -5.364313e-07     1.478346e-04    -5.3580e-07      0.034 (TRAH MIcro)
  129     dE    -6.320429e-07     1.513621e-04    -6.3098e-07      0.041 (TRAH MIcro)
  129     dE    -6.947932e-07     8.056412e-05    -2.9521e-05      0.042 (TRAH MIcro)
  129     dE    -7.291817e-07     1.101162e-04    -5.1123e-05      0.042 (TRAH MIcro)
  129     dE    -7.697404e-07     1.008180e-04    -7.7200e-05      0.042 (TRAH MIcro)
  129     dE    -8.103559e-07     1.134624e-04    -1.0400e-04      0.042 (TRAH MIcro)
  129     dE    -9.079057e-07     2.166652e-04    -1.7156e-04      0.042 (TRAH MIcro)
  129     dE    -1.038727e-06     1.368910e-04    -2.6726e-04      0.042 (TRAH MIcro)
  129     dE    -1.070401e-06     9.321518e-05    -2.9093e-04      0.042 (TRAH MIcro)
  129     dE    -7.895304e-07     8.111390e-05    -4.2148e-04      0.030 (TRAH MIcro)
  129     dE    -1.332363e-06     4.581463e-04    -4.8969e-04      0.042 (TRAH MIcro)
  129     dE    -1.443055e-06     8.034214e-05    -5.7228e-04      0.042 (TRAH MIcro)
  129     dE    -1.455528e-06     4.919429e-05    -5.8151e-04      0.042 (TRAH MIcro)
  129     dE    -1.465596e-06     6.800961e-05    -5.8890e-04      0.042 (TRAH MIcro)
  129     dE    -1.480486e-06     5.081507e-05    -5.9981e-04      0.042 (TRAH MIcro)
  129     dE    -1.494284e-06     8.607358e-05    -6.1010e-04      0.042 (TRAH MIcro)
  130       -295.077858800700     1.526959e-04                     0.028 (TRAH MAcro)   No
  130     dE    -2.810062e-08     4.764950e-05    -2.8101e-08      0.000 (TRAH MIcro)
  130     dE    -4.035686e-08     6.927993e-05    -4.0357e-08      0.001 (TRAH MIcro)
  130     dE    -7.125067e-08     8.680073e-05    -7.1250e-08      0.002 (TRAH MIcro)
  130     dE    -1.038887e-07     1.115541e-04    -1.0389e-07      0.004 (TRAH MIcro)
  130     dE    -2.618289e-07     2.783883e-04    -2.6178e-07      0.014 (TRAH MIcro)
  130     dE    -5.217137e-07     1.962110e-04    -5.9583e-05      0.028 (TRAH MIcro)
  130     dE    -5.883312e-07     7.518589e-05    -1.4620e-04      0.028 (TRAH MIcro)
  130     dE    -6.109380e-07     9.050105e-05    -1.7598e-04      0.028 (TRAH MIcro)
  130     dE    -6.641681e-07     1.382902e-04    -2.4802e-04      0.028 (TRAH MIcro)
  130     dE    -6.453711e-07     6.674207e-05    -4.1361e-04      0.024 (TRAH MIcro)
  130     dE    -6.691739e-07     5.091218e-05    -4.2065e-04      0.025 (TRAH MIcro)
  130     dE    -7.031647e-07     7.575375e-05    -4.3003e-04      0.026 (TRAH MIcro)
  130     dE    -7.644658e-07     8.417804e-05    -4.4517e-04      0.027 (TRAH MIcro)
  130     dE    -8.113224e-07     1.014989e-04    -4.7190e-04      0.028 (TRAH MIcro)
  130     dE    -8.493187e-07     1.007859e-04    -5.4216e-04      0.028 (TRAH MIcro)
  130     dE    -8.670771e-07     5.016061e-05    -5.7103e-04      0.028 (TRAH MIcro)
  130     dE    -8.726473e-07     4.079790e-05    -5.8134e-04      0.028 (TRAH MIcro)
  130     dE    -8.762942e-07     1.514203e-04    -6.2573e-04      0.028 (TRAH MIcro)
  130     dE    -4.944701e-07     2.733113e-05    -9.8991e-04      0.016 (TRAH MIcro)
  130     dE    -4.995414e-07     1.009057e-05    -9.9177e-04      0.016 (TRAH MIcro)
  131       -295.077859195446     3.750225e-05                           (NR   MAcro)
  131     dE    -7.267738e-09     5.516528e-05                           (NR   MIcro)
  131     dE    -6.339491e-08     1.799983e-04                           (NR   MIcro)
  131     dE    -2.237699e-07     1.797523e-04                           (NR   MIcro)
  131     dE    -3.119859e-07     1.404047e-04                           (NR   MIcro)
  131     dE    -4.033580e-07     1.424182e-04                           (NR   MIcro)
  131     dE    -4.453579e-07     5.879471e-05                           (NR   MIcro)
  131     dE    -4.735319e-07     1.135669e-04                           (NR   MIcro)
  131     dE    -5.651490e-07     1.675449e-04                           (NR   MIcro)
  131     dE    -6.849395e-07     1.389340e-04                           (NR   MIcro)
  131     dE    -7.215193e-07     5.997446e-05                           (NR   MIcro)
  131     dE    -7.736383e-07     2.040274e-04                           (NR   MIcro)
  131     dE    -9.442177e-07     2.113662e-04                           (NR   MIcro)
  131     dE    -1.110727e-06     2.370130e-04                           (NR   MIcro)
  131     dE    -1.529008e-06     4.880184e-04                           (NR   MIcro)
  131     dE    -2.639570e-06     5.880107e-04                           (NR   MIcro)
  131     dE    -1.277969e-04     7.927322e-02                           (NR   MIcro)
  131     dE    -7.017317e-08     5.439722e-04                           (NR   MIcro)
  131     dE    -3.268202e-07     2.173742e-04                           (NR   MIcro)
  131     dE    -3.563625e-07     5.475834e-05                           (NR   MIcro)
  131     dE    -3.712668e-07     7.388267e-05                           (NR   MIcro)
  131     dE    -4.145093e-07     1.562244e-04                           (NR   MIcro)
  131     dE    -4.724839e-07     8.601840e-05                           (NR   MIcro)
  131     dE    -4.915229e-07     7.153323e-05                           (NR   MIcro)
  131     dE    -5.069743e-07     5.091099e-05                           (NR   MIcro)
  132       -295.077860129312     1.120202e-04                     0.034 (TRAH MAcro)   No
  132     dE    -1.538879e-08     3.026561e-05    -1.5389e-08      0.000 (TRAH MIcro)
  132     dE    -2.251073e-08     5.863548e-05    -2.2511e-08      0.001 (TRAH MIcro)
  132     dE    -9.669808e-08     1.933904e-04    -9.6695e-08      0.006 (TRAH MIcro)
  132     dE    -2.648569e-07     1.887883e-04    -2.6476e-07      0.019 (TRAH MIcro)
  132     dE    -3.886531e-07     1.643970e-04    -3.8834e-07      0.028 (TRAH MIcro)
  132     dE    -5.621202e-07     2.420401e-04    -8.7821e-05      0.034 (TRAH MIcro)
  132     dE    -7.340480e-07     1.498628e-04    -2.4202e-04      0.034 (TRAH MIcro)
  132     dE    -7.007464e-07     1.448339e-04    -3.9399e-04      0.029 (TRAH MIcro)
  132     dE    -1.005796e-06     2.077520e-04    -4.9455e-04      0.034 (TRAH MIcro)
  132     dE    -1.050978e-06     6.433991e-05    -5.3766e-04      0.034 (TRAH MIcro)
  132     dE    -1.065839e-06     6.113036e-05    -5.5197e-04      0.034 (TRAH MIcro)
  132     dE    -1.106537e-06     1.833407e-04    -5.9233e-04      0.034 (TRAH MIcro)
  132     dE    -1.144557e-06     8.276050e-05    -6.3133e-04      0.034 (TRAH MIcro)
  132     dE    -1.153003e-06     3.726053e-05    -6.4007e-04      0.034 (TRAH MIcro)
  132     dE    -1.156539e-06     4.919635e-05    -6.4378e-04      0.034 (TRAH MIcro)
  132     dE    -1.156848e-06     5.884052e-05    -6.5411e-04      0.034 (TRAH MIcro)
  132     dE    -1.172060e-06     5.429360e-05    -6.6095e-04      0.034 (TRAH MIcro)
  132     dE    -1.190126e-06     8.358963e-05    -6.8233e-04      0.034 (TRAH MIcro)
  132     dE    -1.203557e-06     4.678436e-05    -6.9933e-04      0.034 (TRAH MIcro)
  132     dE    -1.207950e-06     2.381232e-05    -7.0512e-04      0.034 (TRAH MIcro)
  132     dE    -1.211900e-06     4.890904e-05    -7.1033e-04      0.034 (TRAH MIcro)
  132     dE    -6.198492e-07     5.074374e-05    -9.5862e-04      0.020 (TRAH MIcro)
  132     dE    -6.679748e-07     2.686487e-05    -9.6729e-04      0.021 (TRAH MIcro)
  133       -295.077860556834     5.410502e-05                           (NR   MAcro)
  133     dE    -6.822305e-09     3.021822e-05                           (NR   MIcro)
  133     dE    -1.511112e-08     6.635708e-05                           (NR   MIcro)
  133     dE    -6.898517e-08     1.205748e-04                           (NR   MIcro)
  133     dE    -1.590334e-07     1.940468e-04                           (NR   MIcro)
  133     dE     8.957277e-06     9.223459e-03                           (NR   MIcro)
  133     dE     5.754913e-07     1.520126e-04                           (NR   MIcro)
  133     dE     5.176257e-07     1.026740e-04                           (NR   MIcro)
  133     dE     4.519924e-07     1.501041e-04                           (NR   MIcro)
  133     dE     3.216613e-07     1.595728e-04                           (NR   MIcro)
  133     dE     2.707317e-07     5.499110e-05                           (NR   MIcro)
  133     dE     2.550918e-07     6.319311e-05                           (NR   MIcro)
  133     dE     2.392075e-07     6.412574e-05                           (NR   MIcro)
  133     dE     2.234240e-07     5.768536e-05                           (NR   MIcro)
  133     dE     1.959928e-07     1.116072e-04                           (NR   MIcro)
  133     dE     1.636483e-07     6.493514e-05                           (NR   MIcro)
  133     dE     1.525661e-07     4.859841e-05                           (NR   MIcro)
  133     dE     1.383089e-07     8.400631e-05                           (NR   MIcro)
  133     dE    -2.400626e-08     4.375451e-04                           (NR   MIcro)
  133     dE    -4.648417e-07     3.915387e-04                           (NR   MIcro)
  133     dE    -8.374463e-07     3.588354e-04                           (NR   MIcro)
  133     dE     2.395244e-06     3.267282e-03                           (NR   MIcro)
  133     dE     4.083017e-07     1.856310e-04                           (NR   MIcro)
  133     dE     3.012407e-07     1.824698e-04                           (NR   MIcro)
  133     dE     2.339430e-07     6.886688e-05                           (NR   MIcro)
  134       -295.077860028854     1.071243e-04                     0.034 (TRAH MAcro)   No
  134     dE    -1.552764e-08     3.876405e-05    -1.5528e-08      0.000 (TRAH MIcro)
  134     dE    -2.222168e-08     5.491797e-05    -2.2222e-08      0.001 (TRAH MIcro)
  134     dE    -6.581374e-08     2.120236e-04    -6.5813e-08      0.004 (TRAH MIcro)
  134     dE    -2.799691e-07     3.504472e-04    -2.7985e-07      0.021 (TRAH MIcro)
  134     dE    -5.921058e-07     2.527295e-04    -1.2674e-04      0.034 (TRAH MIcro)
  134     dE    -7.684125e-07     2.723636e-04    -2.8261e-04      0.034 (TRAH MIcro)
  134     dE    -7.465161e-07     6.151980e-05    -4.0230e-04      0.030 (TRAH MIcro)
  134     dE    -7.756556e-07     7.230464e-05    -4.0976e-04      0.030 (TRAH MIcro)
  134     dE    -8.753837e-07     1.529309e-04    -4.3313e-04      0.033 (TRAH MIcro)
  134     dE    -9.832738e-07     1.060772e-04    -4.7973e-04      0.034 (TRAH MIcro)
  134     dE    -1.002418e-06     3.816441e-05    -4.9857e-04      0.034 (TRAH MIcro)
  134     dE    -1.008712e-06     6.640132e-05    -5.0480e-04      0.034 (TRAH MIcro)
  134     dE    -1.025780e-06     9.488662e-05    -5.2234e-04      0.034 (TRAH MIcro)
  134     dE    -1.039955e-06     5.036626e-05    -5.3756e-04      0.034 (TRAH MIcro)
  134     dE    -1.048497e-06     4.485733e-05    -5.4704e-04      0.034 (TRAH MIcro)
  134     dE    -1.059115e-06     6.622986e-05    -5.5920e-04      0.034 (TRAH MIcro)
  134     dE    -1.067919e-06     4.780621e-05    -5.6960e-04      0.034 (TRAH MIcro)
  134     dE    -1.088753e-06     1.318198e-04    -5.9559e-04      0.034 (TRAH MIcro)
  134     dE    -5.459664e-07     3.312470e-05    -9.0755e-04      0.019 (TRAH MIcro)
  134     dE    -5.604270e-07     1.614741e-05    -9.1130e-04      0.019 (TRAH MIcro)
  134     dE    -5.677084e-07     1.895150e-05    -9.1298e-04      0.019 (TRAH MIcro)
  134     dE    -6.155229e-07     7.268199e-05    -9.2235e-04      0.020 (TRAH MIcro)
  134     dE    -7.304810e-07     4.516549e-05    -9.3918e-04      0.023 (TRAH MIcro)
  135       -295.077860443777     6.650919e-05                           (NR   MAcro)
  135     dE    -9.320552e-09     3.744442e-05                           (NR   MIcro)
  135     dE    -1.855640e-08     5.955519e-05                           (NR   MIcro)
  135     dE    -3.561079e-08     5.519048e-05                           (NR   MIcro)
  135     dE    -6.177391e-08     1.153574e-04                           (NR   MIcro)
  135     dE    -1.016896e-06     1.367761e-03                           (NR   MIcro)
  135     dE     5.496493e-07     1.957706e-04                           (NR   MIcro)
  135     dE     4.914508e-07     6.210701e-05                           (NR   MIcro)
  135     dE     4.781282e-07     5.100346e-05                           (NR   MIcro)
  135     dE     4.547476e-07     9.697076e-05                           (NR   MIcro)
  135     dE     3.997842e-07     8.740651e-05                           (NR   MIcro)
  135     dE     3.104939e-07     1.760011e-04                           (NR   MIcro)
  135     dE     1.980288e-07     1.375405e-04                           (NR   MIcro)
  135     dE     1.409043e-07     7.321555e-05                           (NR   MIcro)
  135     dE     1.076483e-07     1.141097e-04                           (NR   MIcro)
  135     dE    -1.091522e-07     3.134266e-04                           (NR   MIcro)
  135     dE    -4.220320e-07     2.282787e-04                           (NR   MIcro)
  135     dE    -6.317681e-07     2.437660e-04                           (NR   MIcro)
  135     dE     2.964633e-06     2.955110e-03                           (NR   MIcro)
  135     dE     5.644416e-07     2.358550e-04                           (NR   MIcro)
  135     dE     4.644420e-07     1.378424e-04                           (NR   MIcro)
  135     dE     4.152626e-07     1.206842e-04                           (NR   MIcro)
  135     dE     3.987731e-07     4.008720e-05                           (NR   MIcro)
  135     dE     3.938151e-07     5.202974e-05                           (NR   MIcro)
  135     dE     3.650464e-07     1.313401e-04                           (NR   MIcro)
  136       -295.077859588628     1.937956e-04                     0.034 (TRAH MAcro)   No
  136     dE    -4.088377e-08     4.986221e-05    -4.0884e-08      0.000 (TRAH MIcro)
  136     dE    -4.826682e-08     3.794331e-05    -4.8267e-08      0.000 (TRAH MIcro)
  136     dE    -6.853684e-08     1.094094e-04    -6.8537e-08      0.002 (TRAH MIcro)
  136     dE    -1.524324e-07     1.499792e-04    -1.5242e-07      0.008 (TRAH MIcro)
  136     dE    -2.771620e-07     1.915283e-04    -2.7708e-07      0.017 (TRAH MIcro)
  136     dE    -4.543954e-07     2.236346e-04    -4.5399e-07      0.030 (TRAH MIcro)
  136     dE    -6.517710e-07     1.422363e-04    -1.3710e-04      0.034 (TRAH MIcro)
  136     dE    -6.937495e-07     7.722442e-05    -1.6688e-04      0.034 (TRAH MIcro)
  136     dE    -7.357568e-07     1.443965e-04    -2.0503e-04      0.034 (TRAH MIcro)
  136     dE    -8.035119e-07     7.408422e-05    -2.6809e-04      0.034 (TRAH MIcro)
  136     dE    -8.134257e-07     2.756512e-05    -2.7749e-04      0.034 (TRAH MIcro)
  136     dE    -8.159183e-07     2.385622e-05    -2.7991e-04      0.034 (TRAH MIcro)
  136     dE    -8.222551e-07     7.749062e-05    -2.9133e-04      0.034 (TRAH MIcro)
  136     dE    -7.253471e-07     8.437610e-05    -4.1706e-04      0.028 (TRAH MIcro)
  136     dE    -8.722295e-07     1.331176e-04    -4.4034e-04      0.032 (TRAH MIcro)
  136     dE    -1.001109e-06     1.427732e-04    -5.1460e-04      0.034 (TRAH MIcro)
  136     dE    -1.030033e-06     7.546796e-05    -5.5309e-04      0.034 (TRAH MIcro)
  136     dE    -1.044522e-06     1.106611e-04    -5.7196e-04      0.034 (TRAH MIcro)
  136     dE    -4.484437e-07     4.690183e-05    -9.1648e-04      0.016 (TRAH MIcro)
  136     dE    -5.049988e-07     4.063967e-05    -9.3001e-04      0.017 (TRAH MIcro)
  136     dE    -5.202339e-07     1.148696e-05    -9.3284e-04      0.018 (TRAH MIcro)
  137       -295.077859988784     3.764316e-05                           (NR   MAcro)
  137     dE    -6.166725e-09     4.529953e-05                           (NR   MIcro)
  137     dE    -3.520837e-08     1.394764e-04                           (NR   MIcro)
  137     dE    -2.488419e-07     2.480015e-04                           (NR   MIcro)
  137     dE    -5.748480e-07     3.452707e-04                           (NR   MIcro)
  137     dE    -2.263105e-06     1.028138e-03                           (NR   MIcro)
  137     dE    -8.610144e-06     8.888943e-04                           (NR   MIcro)
  137     dE    -1.406572e-05     1.774063e-03                           (NR   MIcro)
  137     dE     8.055567e-06     1.877226e-03                           (NR   MIcro)
  137     dE     2.721239e-06     5.919947e-04                           (NR   MIcro)
  137     dE     2.055147e-06     1.976099e-04                           (NR   MIcro)
  137     dE     1.770399e-06     2.913311e-04                           (NR   MIcro)
  137     dE     1.470248e-06     2.627410e-04                           (NR   MIcro)
  137     dE     1.088953e-06     3.618212e-04                           (NR   MIcro)
  137     dE    -2.136857e-07     7.218005e-04                           (NR   MIcro)
  137     dE    -1.728763e-06     4.087442e-04                           (NR   MIcro)
  137     dE    -2.225208e-06     2.902303e-04                           (NR   MIcro)
  137     dE    -2.731613e-06     5.013782e-04                           (NR   MIcro)
  137     dE    -4.605617e-06     9.211023e-04                           (NR   MIcro)
  137     dE    -5.311890e-06     2.571999e-04                           (NR   MIcro)
  137     dE    -5.530169e-06     2.477919e-04                           (NR   MIcro)
  137     dE    -6.104036e-06     6.396113e-04                           (NR   MIcro)
  137     dE    -7.597716e-06     6.569629e-04                           (NR   MIcro)
  137     dE    -1.250440e-05     2.294577e-03                           (NR   MIcro)
  137     dE     1.235029e-05     2.029113e-03                           (NR   MIcro)
  138       -295.075048830490     5.729943e-02                     0.041 (TRAH MAcro)   No
  138     dE    -2.527250e-03     9.052527e-03    -3.4067e-01      0.041 (TRAH MIcro)
  138     dE    -2.689704e-03     1.526473e-03    -2.2283e-01      0.041 (TRAH MIcro)
  139       -295.077738459296     9.213121e-03                     0.049 (TRAH MAcro)   No
  139     dE    -7.438012e-05     8.108565e-04    -7.4372e-05      0.010 (TRAH MIcro)
  140       -295.077812901721     8.129322e-04                     0.059 (TRAH MAcro)   No
  140     dE    -9.372818e-07     2.197841e-04    -9.3728e-07      0.002 (TRAH MIcro)
  140     dE    -1.448851e-06     4.618186e-04    -1.4488e-06      0.005 (TRAH MIcro)
  140     dE    -2.669064e-06     5.819543e-04    -2.6684e-06      0.016 (TRAH MIcro)
  140     dE    -4.467202e-06     6.255607e-04    -4.4619e-06      0.034 (TRAH MIcro)
  140     dE    -7.265790e-06     7.611881e-04    -1.8518e-04      0.059 (TRAH MIcro)
  140     dE    -8.689780e-06     4.507224e-04    -6.4364e-04      0.059 (TRAH MIcro)
  140     dE    -9.148751e-06     2.415979e-04    -7.9336e-04      0.059 (TRAH MIcro)
  140     dE    -9.433386e-06     3.415802e-04    -8.8857e-04      0.059 (TRAH MIcro)
  140     dE    -8.808811e-06     3.309218e-04    -1.4635e-03      0.049 (TRAH MIcro)
  140     dE    -9.176859e-06     7.193184e-05    -1.4853e-03      0.051 (TRAH MIcro)
  141       -295.077821346719     1.367447e-04                     0.071 (TRAH MAcro)   No
  141     dE    -1.816911e-07     3.140278e-04    -1.8169e-07      0.002 (TRAH MIcro)
  141     dE    -1.048843e-06     7.920414e-04    -1.0486e-06      0.015 (TRAH MIcro)
  141     dE    -5.051040e-06     6.560499e-04    -7.7444e-05      0.071 (TRAH MIcro)
  141     dE    -6.041092e-06     3.898140e-04    -2.8072e-04      0.071 (TRAH MIcro)
  141     dE    -7.001483e-06     5.018695e-04    -4.8402e-04      0.071 (TRAH MIcro)
  141     dE    -7.827959e-06     3.897550e-04    -6.6455e-04      0.071 (TRAH MIcro)
  141     dE    -6.867444e-06     2.826207e-04    -9.9807e-04      0.057 (TRAH MIcro)
  141     dE    -7.847704e-06     2.998396e-04    -1.0551e-03      0.062 (TRAH MIcro)
  141     dE    -8.403224e-06     1.349509e-04    -1.0825e-03      0.064 (TRAH MIcro)
  141     dE    -8.605664e-06     1.476947e-04    -1.0917e-03      0.065 (TRAH MIcro)
  141     dE    -9.852740e-06     4.699265e-04    -1.1576e-03      0.071 (TRAH MIcro)
  141     dE    -1.056920e-05     3.217092e-04    -1.3710e-03      0.071 (TRAH MIcro)
  141     dE    -1.076522e-05     1.298375e-04    -1.4315e-03      0.071 (TRAH MIcro)
  141     dE    -1.083369e-05     1.409684e-04    -1.4526e-03      0.071 (TRAH MIcro)
  141     dE    -1.082007e-05     1.522645e-04    -1.4882e-03      0.070 (TRAH MIcro)
  141     dE    -1.102859e-05     1.842615e-04    -1.5137e-03      0.071 (TRAH MIcro)
  141     dE    -1.116852e-05     2.234245e-04    -1.5594e-03      0.071 (TRAH MIcro)
  141     dE    -4.814757e-06     4.848168e-05    -2.1299e-03      0.036 (TRAH MIcro)
  141     dE    -4.822975e-06     1.215726e-05    -2.1307e-03      0.036 (TRAH MIcro)
  142       -295.077825171895     1.020922e-04                     0.085 (TRAH MAcro)   No
  142     dE    -1.474789e-07     2.929304e-04    -1.4748e-07      0.002 (TRAH MIcro)
  142     dE    -5.779260e-06     1.547620e-03    -1.6578e-04      0.085 (TRAH MIcro)
  142     dE    -8.277812e-06     4.211209e-04    -5.1664e-04      0.085 (TRAH MIcro)
  142     dE    -8.564860e-06     1.936808e-04    -5.5675e-04      0.085 (TRAH MIcro)
  142     dE    -9.684724e-06     7.113939e-04    -7.2609e-04      0.085 (TRAH MIcro)
  142     dE    -9.824472e-06     3.594797e-04    -1.0485e-03      0.076 (TRAH MIcro)
  142     dE    -1.102729e-05     2.770610e-04    -1.0873e-03      0.081 (TRAH MIcro)
  142     dE    -1.220693e-05     3.814018e-04    -1.1471e-03      0.085 (TRAH MIcro)
  142     dE    -1.287404e-05     3.863030e-04    -1.2912e-03      0.084 (TRAH MIcro)
  142     dE    -1.357401e-05     3.724319e-04    -1.3952e-03      0.085 (TRAH MIcro)
  142     dE    -1.411504e-05     3.632724e-04    -1.4952e-03      0.085 (TRAH MIcro)
  142     dE    -5.289779e-06     6.072955e-05    -1.9666e-03      0.042 (TRAH MIcro)
  142     dE    -5.342216e-06     4.715060e-05    -1.9700e-03      0.042 (TRAH MIcro)
  142     dE    -5.494440e-06     1.310649e-04    -1.9790e-03      0.043 (TRAH MIcro)
  142     dE    -5.834469e-06     8.778853e-05    -1.9951e-03      0.044 (TRAH MIcro)
  142     dE    -5.928174e-06     3.255173e-05    -1.9990e-03      0.045 (TRAH MIcro)
  142     dE    -5.943721e-06     3.122706e-05    -1.9997e-03      0.045 (TRAH MIcro)
  142     dE    -5.970584e-06     4.254422e-05    -2.0009e-03      0.045 (TRAH MIcro)
  142     dE    -6.012038e-06     3.957016e-05    -2.0024e-03      0.045 (TRAH MIcro)
  142     dE    -6.059871e-06     4.860117e-05    -2.0040e-03      0.045 (TRAH MIcro)
  142     dE    -6.087501e-06     2.572583e-05    -2.0050e-03      0.046 (TRAH MIcro)
  142     dE    -6.094219e-06     8.985346e-06    -2.0053e-03      0.046 (TRAH MIcro)
  143       -295.077828843139     1.585125e-04                     0.085 (TRAH MAcro)   No
  143     dE    -9.296081e-08     1.586340e-04    -9.2961e-08      0.001 (TRAH MIcro)
  143     dE    -3.425753e-06     1.864209e-03    -3.4083e-06      0.072 (TRAH MIcro)
  143     dE    -7.707103e-06     4.257958e-04    -5.1855e-04      0.085 (TRAH MIcro)
  143     dE    -8.003117e-06     1.574180e-04    -5.6017e-04      0.085 (TRAH MIcro)
  143     dE    -6.497009e-06     4.576002e-04    -8.3502e-04      0.064 (TRAH MIcro)
  143     dE    -1.052489e-05     5.872595e-04    -9.9720e-04      0.083 (TRAH MIcro)
  143     dE    -1.195253e-05     4.229391e-04    -1.1932e-03      0.085 (TRAH MIcro)
  143     dE    -1.253602e-05     3.452568e-04    -1.2935e-03      0.085 (TRAH MIcro)
  143     dE    -1.298369e-05     2.396895e-04    -1.3709e-03      0.085 (TRAH MIcro)
  143     dE    -1.323519e-05     2.586849e-04    -1.4146e-03      0.085 (TRAH MIcro)
  143     dE    -5.360117e-06     1.822881e-04    -1.8249e-03      0.044 (TRAH MIcro)
  143     dE    -6.190706e-06     1.636273e-04    -1.8700e-03      0.048 (TRAH MIcro)
  143     dE    -6.335243e-06     4.143540e-05    -1.8765e-03      0.049 (TRAH MIcro)
  143     dE    -6.392430e-06     5.951981e-05    -1.8789e-03      0.049 (TRAH MIcro)
  143     dE    -6.548665e-06     1.066092e-04    -1.8853e-03      0.050 (TRAH MIcro)
  143     dE    -6.680097e-06     5.996968e-05    -1.8903e-03      0.051 (TRAH MIcro)
  143     dE    -6.758906e-06     9.442992e-05    -1.8931e-03      0.051 (TRAH MIcro)
  143     dE    -6.824862e-06     2.637510e-05    -1.8953e-03      0.051 (TRAH MIcro)
  143     dE    -6.839228e-06     2.233044e-05    -1.8957e-03      0.051 (TRAH MIcro)
  143     dE    -6.867107e-06     3.232523e-05    -1.8965e-03      0.052 (TRAH MIcro)
  143     dE    -6.893676e-06     2.217057e-05    -1.8974e-03      0.052 (TRAH MIcro)
  143     dE    -6.902034e-06     8.699485e-06    -1.8976e-03      0.052 (TRAH MIcro)
  144       -295.077832295051     2.216970e-04                     0.085 (TRAH MAcro)   No
  144     dE    -9.287697e-08     1.021775e-04    -9.2877e-08      0.001 (TRAH MIcro)
  144     dE    -1.341154e-06     1.147065e-03    -1.3399e-06      0.031 (TRAH MIcro)
  144     dE    -6.053205e-06     6.043804e-04    -3.5642e-04      0.085 (TRAH MIcro)
  144     dE    -6.516375e-06     1.401624e-04    -4.2173e-04      0.085 (TRAH MIcro)
  144     dE    -6.797870e-06     3.732303e-04    -4.6198e-04      0.085 (TRAH MIcro)
  144     dE    -6.536971e-06     4.712150e-04    -7.6901e-04      0.070 (TRAH MIcro)
  144     dE    -8.981432e-06     3.491737e-04    -8.5681e-04      0.083 (TRAH MIcro)
  144     dE    -9.721939e-06     3.358352e-04    -9.3011e-04      0.085 (TRAH MIcro)
  144     dE    -1.017356e-05     2.218888e-04    -1.0080e-03      0.085 (TRAH MIcro)
  144     dE    -1.033892e-05     2.034706e-04    -1.0366e-03      0.085 (TRAH MIcro)
  144     dE    -1.058727e-05     3.275074e-04    -1.0802e-03      0.085 (TRAH MIcro)
  144     dE    -1.123398e-05     3.963056e-04    -1.1975e-03      0.085 (TRAH MIcro)
  144     dE    -1.139107e-05     1.181759e-04    -1.2264e-03      0.085 (TRAH MIcro)
  144     dE    -1.143354e-05     1.099100e-04    -1.2342e-03      0.085 (TRAH MIcro)
  144     dE    -4.346726e-06     1.140011e-04    -1.5539e-03      0.043 (TRAH MIcro)
  144     dE    -4.482370e-06     6.030152e-05    -1.5613e-03      0.044 (TRAH MIcro)
  144     dE    -4.508749e-06     4.567247e-05    -1.5625e-03      0.044 (TRAH MIcro)
  144     dE    -4.542067e-06     5.188634e-05    -1.5640e-03      0.044 (TRAH MIcro)
  144     dE    -4.563827e-06     2.829678e-05    -1.5650e-03      0.044 (TRAH MIcro)
  144     dE    -4.602008e-06     4.608705e-05    -1.5669e-03      0.044 (TRAH MIcro)
  144     dE    -4.641150e-06     2.552209e-05    -1.5683e-03      0.045 (TRAH MIcro)
  144     dE    -4.652698e-06     8.686300e-06    -1.5687e-03      0.045 (TRAH MIcro)
  145       -295.077835077310     1.832889e-04                     0.085 (TRAH MAcro)   No
  145     dE    -6.387983e-08     8.963120e-05    -6.3880e-08      0.001 (TRAH MIcro)
  145     dE    -9.498812e-07     9.097191e-04    -9.4924e-07      0.026 (TRAH MIcro)
  145     dE    -3.915189e-06     6.324326e-04    -1.3303e-04      0.085 (TRAH MIcro)
  145     dE    -4.217289e-06     1.273492e-04    -2.1791e-04      0.080 (TRAH MIcro)
  145     dE    -4.440026e-06     2.203766e-04    -2.2458e-04      0.083 (TRAH MIcro)
  145     dE    -4.996001e-06     4.055134e-04    -2.8845e-04      0.085 (TRAH MIcro)
  145     dE    -5.761222e-06     3.548477e-04    -4.0819e-04      0.085 (TRAH MIcro)
  145     dE    -4.594084e-06     2.128493e-04    -5.8912e-04      0.065 (TRAH MIcro)
  145     dE    -5.262526e-06     1.898858e-04    -6.1767e-04      0.070 (TRAH MIcro)
  145     dE    -5.501462e-06     1.057931e-04    -6.2673e-04      0.072 (TRAH MIcro)
  145     dE    -5.630381e-06     1.196943e-04    -6.3136e-04      0.073 (TRAH MIcro)
  145     dE    -6.452752e-06     4.739522e-04    -6.5676e-04      0.079 (TRAH MIcro)
  145     dE    -7.361900e-06     1.476015e-04    -6.8789e-04      0.085 (TRAH MIcro)
  145     dE    -7.399534e-06     7.493774e-05    -6.9510e-04      0.085 (TRAH MIcro)
  145     dE    -7.429762e-06     1.461010e-04    -7.0092e-04      0.085 (TRAH MIcro)
  145     dE    -7.482715e-06     1.254559e-04    -7.1140e-04      0.085 (TRAH MIcro)
  145     dE    -7.544767e-06     2.759819e-04    -7.2390e-04      0.085 (TRAH MIcro)
  145     dE    -7.699610e-06     2.423833e-04    -7.5654e-04      0.085 (TRAH MIcro)
  145     dE    -7.789641e-06     1.436375e-04    -7.7622e-04      0.085 (TRAH MIcro)
  145     dE    -7.815997e-06     5.422213e-05    -7.8215e-04      0.085 (TRAH MIcro)
  145     dE    -7.844870e-06     1.340964e-04    -7.8854e-04      0.085 (TRAH MIcro)
  145     dE    -7.960166e-06     1.600830e-04    -8.1494e-04      0.085 (TRAH MIcro)
  145     dE    -7.998041e-06     7.274768e-05    -8.2404e-04      0.085 (TRAH MIcro)
  146       -295.077838267261     5.445491e-04                     0.085 (TRAH MAcro)   No
  146     dE    -2.807806e-07     5.363779e-05    -2.8078e-07      0.001 (TRAH MIcro)
  147       -295.077838547982     5.426769e-05                           (NR   MAcro)
  147     dE    -5.237483e-08     2.048073e-04                           (NR   MIcro)
  147     dE    -2.726679e-07     3.154500e-04                           (NR   MIcro)
  147     dE    -4.374950e-07     1.379635e-04                           (NR   MIcro)
  147     dE    -5.364208e-07     1.862499e-04                           (NR   MIcro)
  147     dE    -6.971251e-07     1.582230e-04                           (NR   MIcro)
  147     dE    -8.009300e-07     2.309609e-04                           (NR   MIcro)
  147     dE    -1.074730e-06     3.793198e-04                           (NR   MIcro)
  147     dE    -1.365741e-06     1.338295e-04                           (NR   MIcro)
  147     dE    -1.395619e-06     6.206566e-05                           (NR   MIcro)
  147     dE    -1.423081e-06     1.187171e-04                           (NR   MIcro)
  147     dE    -1.556453e-06     2.525699e-04                           (NR   MIcro)
  147     dE    -1.807599e-06     2.593375e-04                           (NR   MIcro)
  147     dE    -2.047442e-06     2.634748e-04                           (NR   MIcro)
  147     dE    -2.279861e-06     2.472916e-04                           (NR   MIcro)
  147     dE    -2.441866e-06     1.954307e-04                           (NR   MIcro)
  147     dE    -2.708745e-06     6.647677e-04                           (NR   MIcro)
  147     dE    -9.076403e-06     3.174916e-03                           (NR   MIcro)
  147     dE     2.505579e-06     1.053190e-03                           (NR   MIcro)
  147     dE     1.789639e-06     3.321128e-04                           (NR   MIcro)
  147     dE     1.194320e-06     4.899310e-04                           (NR   MIcro)
  147     dE     2.539037e-07     5.471575e-04                           (NR   MIcro)
  147     dE    -6.305401e-07     3.692744e-04                           (NR   MIcro)
  147     dE    -1.175078e-06     4.160417e-04                           (NR   MIcro)
  147     dE    -1.475878e-06     1.436166e-04                           (NR   MIcro)
  148       -295.077840449493     2.684799e-04                     0.102 (TRAH MAcro)   No
  148     dE    -6.416973e-08     6.931579e-05    -6.4170e-08      0.000 (TRAH MIcro)
  148     dE    -7.738885e-08     5.749551e-05    -7.7389e-08      0.001 (TRAH MIcro)
  148     dE    -1.458038e-07     2.286865e-04    -1.4580e-07      0.004 (TRAH MIcro)
  148     dE    -2.837874e-07     1.730186e-04    -2.8375e-07      0.011 (TRAH MIcro)
  148     dE    -3.515719e-07     1.089565e-04    -3.5150e-07      0.014 (TRAH MIcro)
  148     dE    -3.656572e-07     4.150633e-05    -3.6557e-07      0.015 (TRAH MIcro)
  148     dE    -3.818407e-07     1.169642e-04    -3.8174e-07      0.016 (TRAH MIcro)
  148     dE    -4.040650e-07     6.840999e-05    -4.0394e-07      0.017 (TRAH MIcro)
  148     dE    -4.322743e-07     1.403036e-04    -4.3211e-07      0.019 (TRAH MIcro)
  148     dE    -5.585511e-07     2.080568e-04    -5.5809e-07      0.029 (TRAH MIcro)
  148     dE    -6.160807e-07     7.555307e-05    -6.1538e-07      0.034 (TRAH MIcro)
  148     dE    -6.346009e-07     7.330736e-05    -6.3381e-07      0.035 (TRAH MIcro)
  148     dE    -7.422498e-07     3.918946e-04    -7.4076e-07      0.045 (TRAH MIcro)
  148     dE    -2.266666e-06     6.532615e-04    -1.0243e-04      0.102 (TRAH MIcro)
  148     dE    -1.927180e-06     2.275234e-04    -2.3022e-04      0.069 (TRAH MIcro)
  148     dE    -2.412901e-06     2.037382e-04    -2.4693e-04      0.078 (TRAH MIcro)
  148     dE    -3.107831e-06     2.592560e-04    -2.6594e-04      0.090 (TRAH MIcro)
  148     dE    -3.919199e-06     2.884058e-04    -2.8357e-04      0.101 (TRAH MIcro)
  148     dE    -4.381074e-06     4.107460e-04    -3.2941e-04      0.102 (TRAH MIcro)
  148     dE    -4.811075e-06     3.791022e-04    -3.8687e-04      0.100 (TRAH MIcro)
  148     dE    -5.094281e-06     1.125580e-04    -4.0626e-04      0.102 (TRAH MIcro)
  148     dE    -5.152838e-06     1.676040e-04    -4.1432e-04      0.101 (TRAH MIcro)
  148     dE    -1.436248e-06     1.053162e-04    -5.2439e-04      0.042 (TRAH MIcro)
  149       -295.077841206748     1.547389e-04                     0.102 (TRAH MAcro)   No
  149     dE    -2.471407e-08     4.287453e-05    -2.4714e-08      0.000 (TRAH MIcro)
  149     dE    -3.140707e-08     4.565924e-05    -3.1407e-08      0.000 (TRAH MIcro)
  149     dE    -7.546302e-08     1.827798e-04    -7.5462e-08      0.003 (TRAH MIcro)
  149     dE    -1.641017e-07     1.280490e-04    -1.6409e-07      0.010 (TRAH MIcro)
  149     dE    -2.074114e-07     9.190374e-05    -2.0738e-07      0.013 (TRAH MIcro)
  149     dE    -2.293400e-07     7.449545e-05    -2.2929e-07      0.014 (TRAH MIcro)
  149     dE    -2.429563e-07     4.866009e-05    -2.4290e-07      0.015 (TRAH MIcro)
  149     dE    -2.478120e-07     3.195516e-05    -2.4775e-07      0.016 (TRAH MIcro)
  149     dE    -2.539207e-07     5.197655e-05    -2.5385e-07      0.016 (TRAH MIcro)
  149     dE    -2.685433e-07     6.458912e-05    -2.6846e-07      0.017 (TRAH MIcro)
  149     dE    -2.736611e-07     2.336320e-05    -2.7357e-07      0.018 (TRAH MIcro)
  149     dE    -2.760493e-07     3.294728e-05    -2.7596e-07      0.018 (TRAH MIcro)
  149     dE    -2.988253e-07     1.668245e-04    -2.9870e-07      0.021 (TRAH MIcro)
  149     dE    -5.016303e-07     3.561724e-04    -5.0023e-07      0.053 (TRAH MIcro)
  149     dE    -1.453716e-06     4.972966e-04    -7.1567e-05      0.102 (TRAH MIcro)
  149     dE    -1.638849e-06     3.399102e-04    -1.5710e-04      0.083 (TRAH MIcro)
  149     dE    -2.110378e-06     1.272733e-04    -1.6939e-04      0.094 (TRAH MIcro)
  149     dE    -2.264827e-06     1.476265e-04    -1.7289e-04      0.097 (TRAH MIcro)
  149     dE    -2.681205e-06     4.438543e-04    -1.9931e-04      0.102 (TRAH MIcro)
  149     dE    -3.288834e-06     4.269284e-04    -2.6299e-04      0.102 (TRAH MIcro)
  149     dE    -9.780511e-07     5.257660e-05    -3.4112e-04      0.044 (TRAH MIcro)
  149     dE    -1.015248e-06     3.167161e-05    -3.4359e-04      0.045 (TRAH MIcro)
  149     dE    -1.041732e-06     4.387617e-05    -3.4528e-04      0.045 (TRAH MIcro)
  150       -295.077841687814     1.082708e-04                     0.102 (TRAH MAcro)   No
  150     dE    -1.464768e-08     3.367355e-05    -1.4648e-08      0.000 (TRAH MIcro)
  150     dE    -2.282277e-08     6.880582e-05    -2.2823e-08      0.001 (TRAH MIcro)
  150     dE    -1.070770e-07     1.799927e-04    -1.0707e-07      0.006 (TRAH MIcro)
  150     dE    -1.638648e-07     7.582221e-05    -1.6385e-07      0.010 (TRAH MIcro)
  150     dE    -1.767179e-07     3.819519e-05    -1.7670e-07      0.011 (TRAH MIcro)
  150     dE    -1.805031e-07     3.207571e-05    -1.8048e-07      0.012 (TRAH MIcro)
  150     dE    -1.874421e-07     5.371209e-05    -1.8741e-07      0.012 (TRAH MIcro)
  150     dE    -1.956820e-07     3.827465e-05    -1.9565e-07      0.013 (TRAH MIcro)
  150     dE    -2.017604e-07     4.485163e-05    -2.0172e-07      0.013 (TRAH MIcro)
  150     dE    -2.101921e-07     3.561100e-05    -2.1015e-07      0.014 (TRAH MIcro)
  150     dE    -2.123283e-07     1.735063e-05    -2.1228e-07      0.014 (TRAH MIcro)
  150     dE    -2.138444e-07     2.620710e-05    -2.1380e-07      0.015 (TRAH MIcro)
  150     dE    -2.236892e-07     7.875112e-05    -2.2363e-07      0.016 (TRAH MIcro)
  150     dE    -2.309294e-07     2.682049e-05    -2.3086e-07      0.017 (TRAH MIcro)
  150     dE    -2.331169e-07     2.471590e-05    -2.3305e-07      0.017 (TRAH MIcro)
  150     dE    -2.409729e-07     9.119572e-05    -2.4089e-07      0.018 (TRAH MIcro)
  150     dE    -2.894424e-07     1.631317e-04    -2.8920e-07      0.029 (TRAH MIcro)
  150     dE    -5.953556e-07     5.581041e-04    -2.6278e-06      0.102 (TRAH MIcro)
  150     dE    -1.193003e-06     4.167811e-04    -6.4710e-05      0.102 (TRAH MIcro)
  150     dE    -9.549061e-07     1.754642e-04    -1.1045e-04      0.071 (TRAH MIcro)
  150     dE    -1.174602e-06     1.555190e-04    -1.1738e-04      0.080 (TRAH MIcro)
  150     dE    -1.996664e-06     3.860512e-04    -1.4773e-04      0.102 (TRAH MIcro)
  150     dE    -6.565614e-07     1.513870e-04    -2.6476e-04      0.039 (TRAH MIcro)
  151       -295.077841831454     1.751477e-04                     0.068 (TRAH MAcro)   No
  151     dE    -3.442101e-08     5.265610e-05    -3.4421e-08      0.000 (TRAH MIcro)
  151     dE    -4.512165e-08     5.228895e-05    -4.5122e-08      0.001 (TRAH MIcro)
  151     dE    -7.501313e-08     1.535176e-04    -7.5013e-08      0.002 (TRAH MIcro)
  151     dE    -1.485434e-07     1.514064e-04    -1.4854e-07      0.007 (TRAH MIcro)
  151     dE    -2.043185e-07     1.191760e-04    -2.0430e-07      0.010 (TRAH MIcro)
  151     dE    -2.408741e-07     9.743859e-05    -2.4084e-07      0.013 (TRAH MIcro)
  151     dE    -2.632437e-07     6.228713e-05    -2.6319e-07      0.014 (TRAH MIcro)
  151     dE    -2.706742e-07     4.734281e-05    -2.7062e-07      0.015 (TRAH MIcro)
  151     dE    -2.855403e-07     1.015458e-04    -2.8547e-07      0.016 (TRAH MIcro)
  151     dE    -3.624317e-07     2.043444e-04    -3.6225e-07      0.022 (TRAH MIcro)
  151     dE    -4.072246e-07     5.853561e-05    -4.0694e-07      0.026 (TRAH MIcro)
  151     dE    -4.171336e-07     5.655847e-05    -4.1682e-07      0.027 (TRAH MIcro)
  151     dE    -4.617286e-07     2.195900e-04    -4.6126e-07      0.032 (TRAH MIcro)
  151     dE    -6.530006e-07     2.346969e-04    -6.5119e-07      0.053 (TRAH MIcro)
  151     dE    -9.077201e-07     2.700194e-04    -3.0893e-05      0.068 (TRAH MIcro)
  151     dE    -1.212233e-06     2.957082e-04    -1.0677e-04      0.068 (TRAH MIcro)
  151     dE    -1.134177e-06     1.075438e-04    -1.6615e-04      0.057 (TRAH MIcro)
  151     dE    -1.348597e-06     2.334627e-04    -1.7716e-04      0.063 (TRAH MIcro)
  151     dE    -1.752400e-06     2.185648e-04    -2.4148e-04      0.068 (TRAH MIcro)
  151     dE    -1.844139e-06     1.069061e-04    -2.6443e-04      0.068 (TRAH MIcro)
  151     dE    -1.863237e-06     3.670761e-05    -2.6923e-04      0.068 (TRAH MIcro)
  151     dE    -1.870631e-06     5.220101e-05    -2.7110e-04      0.068 (TRAH MIcro)
  151     dE    -1.892942e-06     9.939348e-05    -2.7672e-04      0.068 (TRAH MIcro)
 ---------------------------------
          TRAH Step control 
 ---------------------------------
  predicted energy change =    -1.892941545323e-06
  actual energy  change   =     1.919060537148e-07
  energy change ratio     = -0.101380
  old trust radius        = 0.068022
  new trust radius        = 0.045575
  reject step?            = YES
  152       -295.077841639548     1.751477e-04                     0.046 (TRAH MAcro)  Yes
  153       -295.077841639548     2.549008e-04                     0.046 (TRAH MAcro)   No
  153     dE    -7.161756e-08     5.871506e-05    -7.1618e-08      0.000 (TRAH MIcro)
  153     dE    -8.934739e-08     8.762666e-05    -8.9347e-08      0.001 (TRAH MIcro)
  153     dE    -2.006697e-07     1.844448e-04    -2.0066e-07      0.005 (TRAH MIcro)
  153     dE    -2.891636e-07     1.205472e-04    -2.8914e-07      0.009 (TRAH MIcro)
  153     dE    -3.605905e-07     1.434442e-04    -3.6054e-07      0.012 (TRAH MIcro)
  153     dE    -4.251888e-07     9.006910e-05    -4.2509e-07      0.015 (TRAH MIcro)
  153     dE    -4.486858e-07     6.339486e-05    -4.4857e-07      0.016 (TRAH MIcro)
  153     dE    -4.793091e-07     1.240419e-04    -4.7916e-07      0.018 (TRAH MIcro)
  153     dE    -6.641582e-07     3.202920e-04    -6.6362e-07      0.028 (TRAH MIcro)
  153     dE    -1.072683e-06     1.981332e-04    -7.8745e-05      0.046 (TRAH MIcro)
  153     dE    -1.142736e-06     8.949235e-05    -1.1790e-04      0.046 (TRAH MIcro)
  153     dE    -1.192353e-06     1.418981e-04    -1.4576e-04      0.046 (TRAH MIcro)
  153     dE    -1.286076e-06     1.645898e-04    -2.3153e-04      0.044 (TRAH MIcro)
  153     dE    -1.393632e-06     1.652039e-04    -2.6247e-04      0.046 (TRAH MIcro)
  153     dE    -1.488506e-06     1.495663e-04    -3.1973e-04      0.046 (TRAH MIcro)
  153     dE    -1.531950e-06     7.933403e-05    -3.4639e-04      0.046 (TRAH MIcro)
  153     dE    -1.551539e-06     8.222189e-05    -3.5855e-04      0.046 (TRAH MIcro)
  153     dE    -1.633148e-06     2.489534e-04    -4.1056e-04      0.046 (TRAH MIcro)
  153     dE    -1.096895e-06     3.721037e-05    -5.8828e-04      0.030 (TRAH MIcro)
  153     dE    -1.103081e-06     1.652129e-05    -5.8914e-04      0.030 (TRAH MIcro)
  154       -295.077842347227     6.670606e-05                           (NR   MAcro)
  154     dE    -7.308143e-09     2.985793e-05                           (NR   MIcro)
  154     dE    -1.618990e-08     7.539703e-05                           (NR   MIcro)
  154     dE    -7.925135e-08     1.175949e-04                           (NR   MIcro)
  154     dE    -1.065457e-07     5.422392e-05                           (NR   MIcro)
  154     dE    -1.169259e-07     4.787554e-05                           (NR   MIcro)
  154     dE    -1.239472e-07     3.119591e-05                           (NR   MIcro)
  154     dE    -1.269231e-07     2.172239e-05                           (NR   MIcro)
  154     dE    -1.295703e-07     3.132104e-05                           (NR   MIcro)
  154     dE    -1.416990e-07     6.322914e-05                           (NR   MIcro)
  154     dE    -1.499200e-07     2.644637e-05                           (NR   MIcro)
  154     dE    -1.517754e-07     1.992718e-05                           (NR   MIcro)
  154     dE    -1.551726e-07     3.976227e-05                           (NR   MIcro)
  154     dE    -1.688018e-07     7.896369e-05                           (NR   MIcro)
  154     dE    -1.899604e-07     1.156106e-04                           (NR   MIcro)
  154     dE    -2.704215e-07     1.878326e-04                           (NR   MIcro)
  154     dE    -5.032224e-07     3.543453e-04                           (NR   MIcro)
  154     dE    -1.040092e-05     1.044179e-02                           (NR   MIcro)
  154     dE    -6.465292e-09     2.745790e-04                           (NR   MIcro)
  154     dE    -6.034172e-08     5.980368e-05                           (NR   MIcro)
  154     dE    -6.420011e-08     2.419207e-05                           (NR   MIcro)
  154     dE    -6.524696e-08     1.978374e-05                           (NR   MIcro)
  154     dE    -6.842840e-08     3.033399e-05                           (NR   MIcro)
  154     dE    -7.130785e-08     2.584539e-05                           (NR   MIcro)
  154     dE    -7.430106e-08     3.041721e-05                           (NR   MIcro)
  155       -295.077842431493     4.601353e-05                           (NR   MAcro)
  155     dE    -7.107851e-09     4.954274e-05                           (NR   MIcro)
  155     dE    -2.221226e-08     7.839939e-05                           (NR   MIcro)
  155     dE    -6.145935e-08     1.077315e-04                           (NR   MIcro)
  155     dE    -1.087787e-07     1.276961e-04                           (NR   MIcro)
  155     dE    -1.671277e-07     1.299736e-04                           (NR   MIcro)
  155     dE    -2.007768e-07     6.559063e-05                           (NR   MIcro)
  155     dE    -2.074008e-07     3.072470e-05                           (NR   MIcro)
  155     dE    -2.155828e-07     7.699617e-05                           (NR   MIcro)
  155     dE    -3.030943e-07     2.250130e-04                           (NR   MIcro)
  155     dE    -5.160720e-07     2.165097e-04                           (NR   MIcro)
  155     dE    -7.051007e-07     2.810568e-04                           (NR   MIcro)
  155     dE    -1.195032e-06     5.443135e-04                           (NR   MIcro)
  155     dE    -7.225804e-06     3.730086e-03                           (NR   MIcro)
  155     dE     9.185557e-07     1.111305e-03                           (NR   MIcro)
  155     dE     1.863749e-07     1.662265e-04                           (NR   MIcro)
  155     dE     1.365775e-07     7.785701e-05                           (NR   MIcro)
  155     dE     1.255976e-07     4.792676e-05                           (NR   MIcro)
  155     dE     1.067751e-07     1.080530e-04                           (NR   MIcro)
  155     dE     7.891884e-08     4.782736e-05                           (NR   MIcro)
  155     dE     7.408522e-08     2.401143e-05                           (NR   MIcro)
  155     dE     7.149186e-08     2.502081e-05                           (NR   MIcro)
  155     dE     6.812077e-08     2.319740e-05                           (NR   MIcro)
  155     dE     6.543914e-08     2.782693e-05                           (NR   MIcro)
  155     dE     6.010882e-08     4.802693e-05                           (NR   MIcro)
  156       -295.077842155624     7.135644e-05                           (NR   MAcro)
  156     dE    -1.238842e-08     4.990305e-05                           (NR   MIcro)
  156     dE    -3.148391e-08     1.037108e-04                           (NR   MIcro)
  156     dE    -1.456239e-07     1.718323e-04                           (NR   MIcro)
  156     dE    -2.691661e-07     1.730769e-04                           (NR   MIcro)
  156     dE    -3.925216e-07     1.762582e-04                           (NR   MIcro)
  156     dE    -5.123086e-07     1.388425e-04                           (NR   MIcro)
  156     dE    -5.560178e-07     8.428582e-05                           (NR   MIcro)
  156     dE    -6.414091e-07     2.549493e-04                           (NR   MIcro)
  156     dE    -1.587760e-06     7.622993e-04                           (NR   MIcro)
  156     dE    -5.234055e-06     1.116749e-03                           (NR   MIcro)
  156     dE    -1.558437e-05     3.335833e-03                           (NR   MIcro)
  156     dE     5.619736e-06     1.674084e-03                           (NR   MIcro)
  156     dE     1.976296e-06     6.559734e-04                           (NR   MIcro)
  156     dE     1.193309e-06     5.217153e-04                           (NR   MIcro)
  156     dE     7.977571e-07     2.059615e-04                           (NR   MIcro)
  156     dE     7.076223e-07     1.265635e-04                           (NR   MIcro)
  156     dE     6.645334e-07     1.393621e-04                           (NR   MIcro)
  156     dE     5.358603e-07     3.115827e-04                           (NR   MIcro)
  156     dE     4.394749e-07     7.901151e-05                           (NR   MIcro)
  156     dE     4.313233e-07     2.993190e-05                           (NR   MIcro)
  156     dE     4.272241e-07     4.395054e-05                           (NR   MIcro)
  156     dE     4.147130e-07     5.569654e-05                           (NR   MIcro)
  156     dE     3.976487e-07     5.934815e-05                           (NR   MIcro)
  156     dE     3.808660e-07     7.484500e-05                           (NR   MIcro)
  157       -295.077841007461     1.244895e-04                     0.046 (TRAH MAcro)   No
  157     dE    -3.107458e-08     7.133638e-05    -3.1075e-08      0.000 (TRAH MIcro)
  157     dE    -6.611945e-08     1.289627e-04    -6.6119e-08      0.001 (TRAH MIcro)
  157     dE    -2.263211e-07     2.248801e-04    -2.2631e-07      0.007 (TRAH MIcro)
  157     dE    -4.748259e-07     2.968095e-04    -4.7469e-07      0.017 (TRAH MIcro)
  157     dE    -9.708685e-07     4.235774e-04    -9.6955e-07      0.037 (TRAH MIcro)
  157     dE    -1.575705e-06     2.755556e-04    -1.9534e-04      0.046 (TRAH MIcro)
  157     dE    -1.622892e-06     9.707957e-05    -2.9928e-04      0.042 (TRAH MIcro)
  157     dE    -1.762524e-06     2.161158e-04    -3.1363e-04      0.045 (TRAH MIcro)
  157     dE    -2.107288e-06     3.194810e-04    -4.7452e-04      0.046 (TRAH MIcro)
  157     dE    -2.268024e-06     1.296289e-04    -6.2402e-04      0.044 (TRAH MIcro)
  157     dE    -1.661400e-06     3.809207e-05    -8.1569e-04      0.033 (TRAH MIcro)
  157     dE    -1.682335e-06     5.418238e-05    -8.1927e-04      0.033 (TRAH MIcro)
  157     dE    -1.723960e-06     5.619861e-05    -8.2604e-04      0.034 (TRAH MIcro)
  157     dE    -1.760151e-06     5.946087e-05    -8.3125e-04      0.034 (TRAH MIcro)
  157     dE    -1.810858e-06     6.744619e-05    -8.3810e-04      0.035 (TRAH MIcro)
  157     dE    -1.842683e-06     2.962826e-05    -8.4224e-04      0.035 (TRAH MIcro)
  157     dE    -1.847870e-06     1.199867e-05    -8.4287e-04      0.035 (TRAH MIcro)
  158       -295.077842270115     7.529708e-05                           (NR   MAcro)
  158     dE    -1.293332e-08     4.777059e-05                           (NR   MIcro)
  158     dE    -4.505383e-08     1.421677e-04                           (NR   MIcro)
  158     dE    -2.408853e-07     2.100350e-04                           (NR   MIcro)
  158     dE    -3.336793e-07     9.242366e-05                           (NR   MIcro)
  158     dE    -3.784824e-07     1.038014e-04                           (NR   MIcro)
  158     dE    -4.836326e-07     2.063629e-04                           (NR   MIcro)
  158     dE    -7.495867e-07     2.844304e-04                           (NR   MIcro)
  158     dE    -1.176956e-06     3.637707e-04                           (NR   MIcro)
  158     dE    -3.068147e-06     9.083354e-04                           (NR   MIcro)
  158     dE    -8.079026e-06     1.105535e-03                           (NR   MIcro)
  158     dE     1.996248e-05     5.443913e-03                           (NR   MIcro)
  158     dE     1.368605e-06     5.907711e-04                           (NR   MIcro)
  158     dE     8.546202e-07     1.763434e-04                           (NR   MIcro)
  158     dE     7.906773e-07     9.997882e-05                           (NR   MIcro)
  158     dE     7.167073e-07     1.734320e-04                           (NR   MIcro)
  158     dE     5.577733e-07     1.721040e-04                           (NR   MIcro)
  158     dE     4.968243e-07     1.214631e-04                           (NR   MIcro)
  158     dE     4.411744e-07     1.371135e-04                           (NR   MIcro)
  158     dE     4.187685e-07     4.745189e-05                           (NR   MIcro)
  158     dE     4.167686e-07     1.516210e-05                           (NR   MIcro)
  158     dE     4.150461e-07     3.979985e-05                           (NR   MIcro)
  158     dE     4.021014e-07     8.259008e-05                           (NR   MIcro)
  158     dE     3.857868e-07     5.003521e-05                           (NR   MIcro)
  158     dE     3.815555e-07     2.121806e-05                           (NR   MIcro)
  159       -295.077841125344     9.398150e-05                           (NR   MAcro)
  159     dE    -2.433682e-08     8.173823e-05                           (NR   MIcro)
  159     dE    -1.066251e-07     2.401028e-04                           (NR   MIcro)
  159     dE    -7.239038e-07     4.145195e-04                           (NR   MIcro)
  159     dE    -1.355646e-06     4.001500e-04                           (NR   MIcro)
  159     dE    -2.154875e-06     4.734040e-04                           (NR   MIcro)
  159     dE    -3.054682e-06     3.792887e-04                           (NR   MIcro)
  159     dE    -3.937686e-06     5.035466e-04                           (NR   MIcro)
  159     dE    -7.899505e-06     2.005566e-03                           (NR   MIcro)
  159     dE     3.187775e-06     8.034378e-04                           (NR   MIcro)
  159     dE     2.425012e-06     1.930844e-04                           (NR   MIcro)
  159     dE     2.306989e-06     1.547912e-04                           (NR   MIcro)
  159     dE     2.025088e-06     3.744557e-04                           (NR   MIcro)
  159     dE     1.558069e-06     2.887274e-04                           (NR   MIcro)
  159     dE     1.353077e-06     2.559406e-04                           (NR   MIcro)
  159     dE     1.233298e-06     1.220148e-04                           (NR   MIcro)
  159     dE     1.201028e-06     7.060042e-05                           (NR   MIcro)
  159     dE     1.193772e-06     4.316067e-05                           (NR   MIcro)
  159     dE     1.177321e-06     1.117508e-04                           (NR   MIcro)
  159     dE     1.102470e-06     1.825252e-04                           (NR   MIcro)
  159     dE     1.066125e-06     6.758920e-05                           (NR   MIcro)
  159     dE     1.057771e-06     4.342012e-05                           (NR   MIcro)
  159     dE     1.051929e-06     3.386188e-05                           (NR   MIcro)
  159     dE     1.048416e-06     2.812093e-05                           (NR   MIcro)
  159     dE     1.043975e-06     4.485347e-05                           (NR   MIcro)
  160       -295.077838416598     1.864321e-04                     0.046 (TRAH MAcro)   No
  160     dE    -5.936360e-08     9.212001e-05    -5.9364e-08      0.001 (TRAH MIcro)
  160     dE    -1.834888e-07     2.895469e-04    -1.8349e-07      0.004 (TRAH MIcro)
  160     dE    -1.161696e-06     6.107488e-04    -1.1605e-06      0.032 (TRAH MIcro)
  160     dE    -2.210761e-06     4.142155e-04    -4.0927e-04      0.042 (TRAH MIcro)
  160     dE    -2.827093e-06     2.504519e-04    -5.9873e-04      0.046 (TRAH MIcro)
  160     dE    -2.988476e-06     1.359258e-04    -6.8018e-04      0.046 (TRAH MIcro)
  160     dE    -3.039680e-06     9.579859e-05    -7.0649e-04      0.046 (TRAH MIcro)
  160     dE    -3.108394e-06     1.849938e-04    -7.4266e-04      0.046 (TRAH MIcro)
  160     dE    -3.216663e-06     2.051189e-04    -8.8447e-04      0.044 (TRAH MIcro)
  160     dE    -2.405907e-06     4.601987e-05    -1.1611e-03      0.033 (TRAH MIcro)
  160     dE    -2.422000e-06     3.187580e-05    -1.1636e-03      0.033 (TRAH MIcro)
  160     dE    -2.451035e-06     6.077526e-05    -1.1679e-03      0.034 (TRAH MIcro)
  160     dE    -2.479186e-06     4.155587e-05    -1.1717e-03      0.034 (TRAH MIcro)
  160     dE    -2.499800e-06     5.650051e-05    -1.1743e-03      0.034 (TRAH MIcro)
  160     dE    -2.519013e-06     2.161511e-05    -1.1766e-03      0.034 (TRAH MIcro)
  160     dE    -2.522445e-06     1.129726e-05    -1.1770e-03      0.034 (TRAH MIcro)
  161       -295.077840360968     7.505920e-05                           (NR   MAcro)
  161     dE    -2.943334e-08     1.094260e-04                           (NR   MIcro)
  161     dE    -2.780419e-07     4.130968e-04                           (NR   MIcro)
  161     dE    -1.795347e-06     6.391005e-04                           (NR   MIcro)
  161     dE    -2.851190e-06     3.405165e-04                           (NR   MIcro)
  161     dE    -3.759252e-06     5.499968e-04                           (NR   MIcro)
  161     dE    -8.283832e-06     1.956333e-03                           (NR   MIcro)
  161     dE     1.054688e-05     1.851293e-03                           (NR   MIcro)
  161     dE     4.705503e-06     8.027481e-04                           (NR   MIcro)
  161     dE     2.757586e-06     3.434043e-04                           (NR   MIcro)
  161     dE     2.550007e-06     1.563709e-04                           (NR   MIcro)
  161     dE     2.376474e-06     2.817871e-04                           (NR   MIcro)
  161     dE     1.778907e-06     3.475600e-04                           (NR   MIcro)
  161     dE     1.623856e-06     1.219098e-04                           (NR   MIcro)
  161     dE     1.579867e-06     1.097424e-04                           (NR   MIcro)
  161     dE     1.502161e-06     2.063423e-04                           (NR   MIcro)
  161     dE     1.423782e-06     1.302617e-04                           (NR   MIcro)
  161     dE     1.372147e-06     1.566244e-04                           (NR   MIcro)
  161     dE     1.319679e-06     9.002951e-05                           (NR   MIcro)
  161     dE     1.305450e-06     4.419464e-05                           (NR   MIcro)
  161     dE     1.302284e-06     2.770599e-05                           (NR   MIcro)
  161     dE     1.294924e-06     8.749792e-05                           (NR   MIcro)
  161     dE     1.246828e-06     1.200938e-04                           (NR   MIcro)
  161     dE     1.225759e-06     4.266104e-05                           (NR   MIcro)
  161     dE     1.222108e-06     2.599634e-05                           (NR   MIcro)
  162       -295.077837193378     1.827403e-04                     0.055 (TRAH MAcro)   No
  162     dE    -6.417858e-08     1.062648e-04    -6.4179e-08      0.001 (TRAH MIcro)
  162     dE    -2.701970e-07     3.851049e-04    -2.7019e-07      0.006 (TRAH MIcro)
  162     dE    -2.624582e-06     8.532860e-04    -1.7256e-04      0.055 (TRAH MIcro)
  162     dE    -3.560671e-06     2.728913e-04    -5.5529e-04      0.053 (TRAH MIcro)
  162     dE    -3.943795e-06     2.217561e-04    -6.2429e-04      0.055 (TRAH MIcro)
  162     dE    -4.122288e-06     1.541015e-04    -6.8677e-04      0.055 (TRAH MIcro)
  162     dE    -4.216135e-06     1.267228e-04    -7.2041e-04      0.055 (TRAH MIcro)
  162     dE    -4.327964e-06     2.222785e-04    -7.6147e-04      0.055 (TRAH MIcro)
  162     dE    -4.583037e-06     1.975381e-04    -8.6202e-04      0.055 (TRAH MIcro)
  162     dE    -4.651040e-06     6.667782e-05    -8.9054e-04      0.055 (TRAH MIcro)
  162     dE    -4.663228e-06     4.002125e-05    -8.9587e-04      0.055 (TRAH MIcro)
  162     dE    -4.687997e-06     1.137378e-04    -9.0673e-04      0.055 (TRAH MIcro)
  162     dE    -4.732187e-06     9.714365e-05    -9.2742e-04      0.055 (TRAH MIcro)
  162     dE    -4.757344e-06     6.980444e-05    -9.4003e-04      0.055 (TRAH MIcro)
  162     dE    -4.769706e-06     4.504274e-05    -9.4654e-04      0.055 (TRAH MIcro)
  162     dE    -4.774144e-06     2.099503e-05    -9.4886e-04      0.055 (TRAH MIcro)
  162     dE    -4.774438e-06     6.347019e-06    -9.4909e-04      0.055 (TRAH MIcro)
  163       -295.077840279513     1.491972e-04                     0.055 (TRAH MAcro)   No
  163     dE    -4.254193e-08     7.795500e-05    -4.2542e-08      0.001 (TRAH MIcro)
  163     dE    -1.599977e-07     2.756087e-04    -1.5999e-07      0.004 (TRAH MIcro)
  163     dE    -8.167323e-07     3.836120e-04    -8.1616e-07      0.027 (TRAH MIcro)
  163     dE    -1.085055e-06     1.393130e-04    -1.0837e-06      0.036 (TRAH MIcro)
  163     dE    -1.217689e-06     2.054672e-04    -1.2157e-06      0.040 (TRAH MIcro)
  163     dE    -1.841256e-06     5.168394e-04    -8.2057e-05      0.055 (TRAH MIcro)
  163     dE    -2.902249e-06     3.778029e-04    -4.7659e-04      0.055 (TRAH MIcro)
  163     dE    -3.164634e-06     1.729015e-04    -5.9696e-04      0.054 (TRAH MIcro)
  163     dE    -3.351842e-06     1.650042e-04    -6.4894e-04      0.055 (TRAH MIcro)
  163     dE    -3.414296e-06     7.151426e-05    -6.7334e-04      0.055 (TRAH MIcro)
  163     dE    -3.433227e-06     5.629147e-05    -6.8067e-04      0.055 (TRAH MIcro)
  163     dE    -3.499290e-06     1.757207e-04    -7.0756e-04      0.055 (TRAH MIcro)
  163     dE    -2.178025e-06     6.262212e-05    -9.6357e-04      0.036 (TRAH MIcro)
  163     dE    -2.200009e-06     1.799975e-05    -9.6614e-04      0.036 (TRAH MIcro)
  163     dE    -2.202970e-06     1.130804e-05    -9.6646e-04      0.036 (TRAH MIcro)
  164       -295.077841884523     7.526990e-05                           (NR   MAcro)
  164     dE    -2.062998e-08     7.868675e-05                           (NR   MIcro)
  164     dE    -1.307736e-07     2.538453e-04                           (NR   MIcro)
  164     dE    -4.471763e-07     2.193817e-04                           (NR   MIcro)
  164     dE    -5.590264e-07     1.247189e-04                           (NR   MIcro)
  164     dE    -6.723860e-07     1.914301e-04                           (NR   MIcro)
  164     dE    -9.369744e-07     2.942605e-04                           (NR   MIcro)
  164     dE    -1.729260e-06     6.103707e-04                           (NR   MIcro)
  164     dE     1.342466e-05     5.912310e-03                           (NR   MIcro)
  164     dE     1.503045e-06     3.025301e-04                           (NR   MIcro)
  164     dE     1.346339e-06     1.095837e-04                           (NR   MIcro)
  164     dE     1.272169e-06     1.471291e-04                           (NR   MIcro)
  164     dE     9.789876e-07     2.352260e-04                           (NR   MIcro)
  164     dE     8.663677e-07     1.215519e-04                           (NR   MIcro)
  164     dE     8.101534e-07     1.133357e-04                           (NR   MIcro)
  164     dE     7.466195e-07     1.082522e-04                           (NR   MIcro)
  164     dE     7.167265e-07     7.357625e-05                           (NR   MIcro)
  164     dE     6.673799e-07     1.633427e-04                           (NR   MIcro)
  164     dE     6.201504e-07     7.650189e-05                           (NR   MIcro)
  164     dE     6.085726e-07     3.177823e-05                           (NR   MIcro)
  164     dE     6.076301e-07     1.085550e-05                           (NR   MIcro)
  164     dE     6.068414e-07     2.387809e-05                           (NR   MIcro)
  164     dE     6.021201e-07     4.483313e-05                           (NR   MIcro)
  164     dE     5.962247e-07     3.396615e-05                           (NR   MIcro)
  164     dE     5.925962e-07     2.940339e-05                           (NR   MIcro)
  165       -295.077840199935     1.091653e-04                     0.055 (TRAH MAcro)   No
  165     dE    -3.454566e-08     9.956000e-05    -3.4546e-08      0.001 (TRAH MIcro)
  165     dE    -1.721913e-07     3.095674e-04    -1.7219e-07      0.005 (TRAH MIcro)
  165     dE    -1.118802e-06     6.130353e-04    -1.1173e-06      0.037 (TRAH MIcro)
  165     dE    -2.404987e-06     4.349931e-04    -2.6652e-04      0.055 (TRAH MIcro)
  165     dE    -2.960582e-06     2.818486e-04    -4.5646e-04      0.055 (TRAH MIcro)
  165     dE    -3.185739e-06     1.679744e-04    -5.3405e-04      0.055 (TRAH MIcro)
  165     dE    -3.279632e-06     1.374891e-04    -5.6689e-04      0.055 (TRAH MIcro)
  165     dE    -3.429015e-06     2.682255e-04    -6.2060e-04      0.055 (TRAH MIcro)
  165     dE    -3.767692e-06     2.011516e-04    -7.4948e-04      0.055 (TRAH MIcro)
  165     dE    -3.835511e-06     5.653524e-05    -7.7626e-04      0.055 (TRAH MIcro)
  165     dE    -3.847220e-06     4.311489e-05    -7.8101e-04      0.055 (TRAH MIcro)
  165     dE    -3.869746e-06     9.862359e-05    -7.9036e-04      0.055 (TRAH MIcro)
  165     dE    -3.924957e-06     9.749635e-05    -8.1442e-04      0.055 (TRAH MIcro)
  165     dE    -2.458478e-06     3.872282e-05    -1.0556e-03      0.037 (TRAH MIcro)
  165     dE    -2.477247e-06     2.856528e-05    -1.0577e-03      0.037 (TRAH MIcro)
  165     dE    -2.486222e-06     1.301797e-05    -1.0586e-03      0.037 (TRAH MIcro)
  165     dE    -2.487282e-06     4.070979e-06    -1.0586e-03      0.037 (TRAH MIcro)
  166       -295.077841874612     8.303126e-05                           (NR   MAcro)
  166     dE    -2.011273e-08     6.990260e-05                           (NR   MIcro)
  166     dE    -1.223212e-07     2.599539e-04                           (NR   MIcro)
  166     dE    -7.458614e-07     4.068593e-04                           (NR   MIcro)
  166     dE    -1.088583e-06     1.669064e-04                           (NR   MIcro)
  166     dE    -1.301611e-06     2.659863e-04                           (NR   MIcro)
  166     dE    -2.824664e-06     1.176951e-03                           (NR   MIcro)
  166     dE     2.069179e-06     6.215242e-04                           (NR   MIcro)
  166     dE     1.535149e-06     1.882080e-04                           (NR   MIcro)
  166     dE     1.365463e-06     1.862557e-04                           (NR   MIcro)
  166     dE     1.277740e-06     1.010373e-04                           (NR   MIcro)
  166     dE     1.230550e-06     1.105023e-04                           (NR   MIcro)
  166     dE     1.023038e-06     2.972939e-04                           (NR   MIcro)
  166     dE     7.927169e-07     1.899335e-04                           (NR   MIcro)
  166     dE     7.364717e-07     5.686051e-05                           (NR   MIcro)
  166     dE     7.301853e-07     3.344585e-05                           (NR   MIcro)
  166     dE     7.227432e-07     5.155436e-05                           (NR   MIcro)
  166     dE     7.176181e-07     3.433087e-05                           (NR   MIcro)
  166     dE     7.134435e-07     4.184199e-05                           (NR   MIcro)
  166     dE     7.073700e-07     4.496033e-05                           (NR   MIcro)
  166     dE     7.053842e-07     1.330615e-05                           (NR   MIcro)
  166     dE     7.044720e-07     2.245715e-05                           (NR   MIcro)
  166     dE     6.981388e-07     6.156815e-05                           (NR   MIcro)
  166     dE     6.899079e-07     2.836363e-05                           (NR   MIcro)
  166     dE     6.888245e-07     1.082414e-05                           (NR   MIcro)
  167       -295.077840037157     1.083438e-04                     0.055 (TRAH MAcro)   No
  167     dE    -3.556730e-08     1.056460e-04    -3.5567e-08      0.001 (TRAH MIcro)
  167     dE    -2.990801e-07     4.495844e-04    -2.9905e-07      0.009 (TRAH MIcro)
  167     dE    -2.485862e-06     5.522830e-04    -4.1017e-04      0.049 (TRAH MIcro)
  167     dE    -3.190972e-06     1.704056e-04    -5.1959e-04      0.055 (TRAH MIcro)
  167     dE    -3.328785e-06     1.779785e-04    -5.6658e-04      0.055 (TRAH MIcro)
  167     dE    -3.475407e-06     1.612853e-04    -6.1750e-04      0.055 (TRAH MIcro)
  167     dE    -3.587080e-06     1.707335e-04    -6.7476e-04      0.054 (TRAH MIcro)
  167     dE    -3.773006e-06     2.195829e-04    -7.2627e-04      0.055 (TRAH MIcro)
  167     dE    -3.956077e-06     1.356862e-04    -7.9774e-04      0.055 (TRAH MIcro)
  167     dE    -3.989453e-06     4.943389e-05    -8.1126e-04      0.055 (TRAH MIcro)
  167     dE    -3.999138e-06     4.653553e-05    -8.1527e-04      0.055 (TRAH MIcro)
  167     dE    -4.035881e-06     1.383035e-04    -8.3089e-04      0.055 (TRAH MIcro)
  167     dE    -2.559270e-06     4.856119e-05    -1.0937e-03      0.037 (TRAH MIcro)
  167     dE    -2.573598e-06     1.990723e-05    -1.0953e-03      0.037 (TRAH MIcro)
  167     dE    -2.578221e-06     1.419143e-05    -1.0957e-03      0.037 (TRAH MIcro)
  167     dE    -2.580809e-06     9.289716e-06    -1.0960e-03      0.037 (TRAH MIcro)
  168       -295.077841790849     8.407935e-05                           (NR   MAcro)
  168     dE    -2.190537e-08     7.630116e-05                           (NR   MIcro)
  168     dE    -1.513752e-07     2.967590e-04                           (NR   MIcro)
  168     dE    -8.870051e-07     4.554422e-04                           (NR   MIcro)
  168     dE    -1.321321e-06     1.971724e-04                           (NR   MIcro)
  168     dE    -1.667416e-06     3.511442e-04                           (NR   MIcro)
  168     dE    -4.292257e-06     1.657871e-03                           (NR   MIcro)
  168     dE     2.337197e-06     6.381495e-04                           (NR   MIcro)
  168     dE     1.736153e-06     2.464611e-04                           (NR   MIcro)
  168     dE     1.454435e-06     2.212734e-04                           (NR   MIcro)
  168     dE     1.358266e-06     9.726109e-05                           (NR   MIcro)
  168     dE     1.308430e-06     1.329106e-04                           (NR   MIcro)
  168     dE     1.123135e-06     2.517706e-04                           (NR   MIcro)
  168     dE     9.723784e-07     1.259043e-04                           (NR   MIcro)
  168     dE     9.391849e-07     8.550332e-05                           (NR   MIcro)
  168     dE     8.946785e-07     1.262510e-04                           (NR   MIcro)
  168     dE     8.295444e-07     1.260476e-04                           (NR   MIcro)
  168     dE     7.983673e-07     8.688969e-05                           (NR   MIcro)
  168     dE     7.727372e-07     8.618602e-05                           (NR   MIcro)
  168     dE     7.629349e-07     3.891520e-05                           (NR   MIcro)
  168     dE     7.614052e-07     1.280897e-05                           (NR   MIcro)
  168     dE     7.602950e-07     2.948755e-05                           (NR   MIcro)
  168     dE     7.452714e-07     8.275616e-05                           (NR   MIcro)
  168     dE     7.375449e-07     2.098875e-05                           (NR   MIcro)
  168     dE     7.368706e-07     9.756375e-06                           (NR   MIcro)
  169       -295.077839853838     1.115578e-04                     0.055 (TRAH MAcro)   No
  169     dE    -3.800268e-08     1.099956e-04    -3.8003e-08      0.001 (TRAH MIcro)
  169     dE    -3.431997e-07     4.895596e-04    -3.4316e-07      0.010 (TRAH MIcro)
  169     dE    -2.930682e-06     5.861876e-04    -4.5535e-04      0.053 (TRAH MIcro)
  169     dE    -3.445808e-06     1.333197e-04    -5.8591e-04      0.055 (TRAH MIcro)
  169     dE    -3.533753e-06     1.494313e-04    -6.1582e-04      0.055 (TRAH MIcro)
  169     dE    -3.696475e-06     2.099765e-04    -6.7269e-04      0.055 (TRAH MIcro)
  169     dE    -3.917466e-06     1.855921e-04    -7.5401e-04      0.055 (TRAH MIcro)
  169     dE    -4.026109e-06     1.513791e-04    -7.9550e-04      0.055 (TRAH MIcro)
  169     dE    -4.127989e-06     1.200013e-04    -8.3564e-04      0.055 (TRAH MIcro)
  169     dE    -4.157512e-06     4.911777e-05    -8.4758e-04      0.055 (TRAH MIcro)
  169     dE    -4.167335e-06     4.676488e-05    -8.5174e-04      0.055 (TRAH MIcro)
  169     dE    -4.212992e-06     1.532756e-04    -8.7150e-04      0.055 (TRAH MIcro)
  169     dE    -2.671511e-06     4.877736e-05    -1.1378e-03      0.037 (TRAH MIcro)
  169     dE    -2.684317e-06     1.461530e-05    -1.1391e-03      0.037 (TRAH MIcro)
  169     dE    -2.686319e-06     9.077906e-06    -1.1393e-03      0.037 (TRAH MIcro)
  170       -295.077841684978     8.572326e-05                           (NR   MAcro)
  170     dE    -2.379807e-08     7.974506e-05                           (NR   MIcro)
  170     dE    -1.614186e-07     3.078579e-04                           (NR   MIcro)
  170     dE    -9.809679e-07     4.779880e-04                           (NR   MIcro)
  170     dE    -1.531913e-06     2.643588e-04                           (NR   MIcro)
  170     dE    -2.109146e-06     4.479970e-04                           (NR   MIcro)
  170     dE    -4.394744e-06     1.091732e-03                           (NR   MIcro)
  170     dE     1.401337e-05     3.511466e-03                           (NR   MIcro)
  170     dE     2.765050e-06     8.250646e-04                           (NR   MIcro)
  170     dE     1.438659e-06     2.468960e-04                           (NR   MIcro)
  170     dE     1.347458e-06     7.687427e-05                           (NR   MIcro)
  170     dE     1.319771e-06     8.786668e-05                           (NR   MIcro)
  170     dE     1.181657e-06     2.444024e-04                           (NR   MIcro)
  170     dE     9.777038e-07     1.749461e-04                           (NR   MIcro)
  170     dE     8.924550e-07     1.244065e-04                           (NR   MIcro)
  170     dE     8.400887e-07     8.777944e-05                           (NR   MIcro)
  170     dE     8.214985e-07     3.362871e-05                           (NR   MIcro)
  170     dE     8.185388e-07     3.633856e-05                           (NR   MIcro)
  170     dE     8.117646e-07     6.903833e-05                           (NR   MIcro)
  170     dE     7.959288e-07     7.164172e-05                           (NR   MIcro)
  170     dE     7.906976e-07     2.009263e-05                           (NR   MIcro)
  170     dE     7.884717e-07     3.414037e-05                           (NR   MIcro)
  170     dE     7.756281e-07     7.115785e-05                           (NR   MIcro)
  170     dE     7.667053e-07     3.623755e-05                           (NR   MIcro)
  170     dE     7.623853e-07     3.519571e-05                           (NR   MIcro)
  171       -295.077839704258     1.187629e-04                     0.055 (TRAH MAcro)   No
  171     dE    -4.092502e-08     1.130685e-04    -4.0925e-08      0.001 (TRAH MIcro)
  171     dE    -2.362727e-07     3.559433e-04    -2.3626e-07      0.006 (TRAH MIcro)
  171     dE    -1.632543e-06     7.349665e-04    -1.6285e-06      0.050 (TRAH MIcro)
  171     dE    -2.924232e-06     4.540507e-04    -4.6116e-04      0.052 (TRAH MIcro)
  171     dE    -3.634136e-06     3.107598e-04    -6.3372e-04      0.055 (TRAH MIcro)
  171     dE    -3.839581e-06     1.278446e-04    -7.0461e-04      0.055 (TRAH MIcro)
  171     dE    -3.910935e-06     1.251173e-04    -7.2985e-04      0.055 (TRAH MIcro)
  171     dE    -4.020025e-06     2.277994e-04    -7.6939e-04      0.055 (TRAH MIcro)
  171     dE    -4.270558e-06     1.755210e-04    -8.6606e-04      0.055 (TRAH MIcro)
  171     dE    -4.312424e-06     5.184639e-05    -8.8317e-04      0.055 (TRAH MIcro)
  171     dE    -4.322320e-06     4.950547e-05    -8.8732e-04      0.055 (TRAH MIcro)
  171     dE    -4.351234e-06     1.150466e-04    -8.9973e-04      0.055 (TRAH MIcro)
  171     dE    -2.725939e-06     4.679202e-05    -1.1717e-03      0.037 (TRAH MIcro)
  171     dE    -2.756833e-06     5.987693e-05    -1.1753e-03      0.037 (TRAH MIcro)
  171     dE    -2.783160e-06     2.661760e-05    -1.1778e-03      0.037 (TRAH MIcro)
  171     dE    -2.788968e-06     1.269223e-05    -1.1783e-03      0.037 (TRAH MIcro)
  171     dE    -2.789663e-06     5.240591e-06    -1.1784e-03      0.037 (TRAH MIcro)
  172       -295.077841605387     8.434898e-05                           (NR   MAcro)
  172     dE    -2.538647e-08     8.563420e-05                           (NR   MIcro)
  172     dE    -1.923945e-07     3.362573e-04                           (NR   MIcro)
  172     dE    -1.254241e-06     5.333064e-04                           (NR   MIcro)
  172     dE    -1.877330e-06     2.365879e-04                           (NR   MIcro)
  172     dE    -2.525054e-06     5.327438e-04                           (NR   MIcro)
  172     dE     9.206079e-05     3.409796e-02                           (NR   MIcro)
  172     dE     1.845110e-06     4.397134e-04                           (NR   MIcro)
  172     dE     1.532162e-06     1.510705e-04                           (NR   MIcro)
  172     dE     1.412406e-06     1.518193e-04                           (NR   MIcro)
  172     dE     1.352260e-06     8.237237e-05                           (NR   MIcro)
  172     dE     1.316327e-06     9.462978e-05                           (NR   MIcro)
  172     dE     1.162593e-06     2.333459e-04                           (NR   MIcro)
  172     dE     1.016157e-06     1.414286e-04                           (NR   MIcro)
  172     dE     9.715477e-07     6.606035e-05                           (NR   MIcro)
  172     dE     9.413025e-07     1.192472e-04                           (NR   MIcro)
  172     dE     8.635993e-07     1.280745e-04                           (NR   MIcro)
  172     dE     8.360995e-07     7.056136e-05                           (NR   MIcro)
  172     dE     8.212747e-07     6.769638e-05                           (NR   MIcro)
  172     dE     8.101673e-07     4.488283e-05                           (NR   MIcro)
  172     dE     8.071370e-07     2.969034e-05                           (NR   MIcro)
  172     dE     7.995991e-07     6.851875e-05                           (NR   MIcro)
  172     dE     7.616361e-07     1.266493e-04                           (NR   MIcro)
  172     dE     7.365995e-07     4.406869e-05                           (NR   MIcro)
  172     dE     7.333020e-07     1.867786e-05                           (NR   MIcro)
  173       -295.077839732510     1.155089e-04                     0.055 (TRAH MAcro)   No
  173     dE    -3.948750e-08     1.103054e-04    -3.9487e-08      0.001 (TRAH MIcro)
  173     dE    -3.653064e-07     5.154384e-04    -3.6526e-07      0.011 (TRAH MIcro)
  173     dE    -3.280079e-06     6.203518e-04    -5.1504e-04      0.055 (TRAH MIcro)
  173     dE    -3.804908e-06     1.875195e-04    -6.9422e-04      0.055 (TRAH MIcro)
  173     dE    -3.949385e-06     1.699318e-04    -7.4361e-04      0.055 (TRAH MIcro)
  173     dE    -4.047346e-06     1.043941e-04    -7.7757e-04      0.055 (TRAH MIcro)
  173     dE    -4.105468e-06     1.159420e-04    -7.9818e-04      0.055 (TRAH MIcro)
  173     dE    -4.197043e-06     1.822661e-04    -8.3188e-04      0.055 (TRAH MIcro)
  173     dE    -4.375017e-06     1.494181e-04    -9.0153e-04      0.055 (TRAH MIcro)
  173     dE    -4.412499e-06     5.009166e-05    -9.1721e-04      0.055 (TRAH MIcro)
  173     dE    -2.759251e-06     2.477043e-05    -1.1822e-03      0.037 (TRAH MIcro)
  173     dE    -2.786093e-06     6.346795e-05    -1.1859e-03      0.037 (TRAH MIcro)
  173     dE    -2.836935e-06     5.208901e-05    -1.1916e-03      0.038 (TRAH MIcro)
  173     dE    -2.863668e-06     2.313070e-05    -1.1939e-03      0.038 (TRAH MIcro)
  173     dE    -2.873482e-06     2.177967e-05    -1.1948e-03      0.038 (TRAH MIcro)
  173     dE    -2.876949e-06     7.318922e-06    -1.1952e-03      0.038 (TRAH MIcro)
  174       -295.077841673554     8.816187e-05                           (NR   MAcro)
  174     dE    -2.698684e-08     8.813489e-05                           (NR   MIcro)
  174     dE    -2.123979e-07     3.533268e-04                           (NR   MIcro)
  174     dE    -1.187384e-06     5.114562e-04                           (NR   MIcro)
  174     dE    -1.765837e-06     2.364945e-04                           (NR   MIcro)
  174     dE    -2.390461e-06     5.128725e-04                           (NR   MIcro)
  174     dE    -2.879871e-05     1.133725e-02                           (NR   MIcro)
  174     dE     1.684802e-06     4.262794e-04                           (NR   MIcro)
  174     dE     1.427521e-06     1.354107e-04                           (NR   MIcro)
  174     dE     1.330127e-06     1.469502e-04                           (NR   MIcro)
  174     dE     1.276328e-06     7.917164e-05                           (NR   MIcro)
  174     dE     1.248233e-06     8.893750e-05                           (NR   MIcro)
  174     dE     1.131089e-06     2.300962e-04                           (NR   MIcro)
  174     dE     9.590724e-07     1.473335e-04                           (NR   MIcro)
  174     dE     9.199153e-07     6.734201e-05                           (NR   MIcro)
  174     dE     8.924500e-07     1.036641e-04                           (NR   MIcro)
  174     dE     8.290943e-07     1.389705e-04                           (NR   MIcro)
  174     dE     7.985681e-07     7.158450e-05                           (NR   MIcro)
  174     dE     7.807594e-07     7.509621e-05                           (NR   MIcro)
  174     dE     7.686074e-07     6.063327e-05                           (NR   MIcro)
  174     dE     7.627127e-07     3.400535e-05                           (NR   MIcro)
  174     dE     7.540761e-07     8.749933e-05                           (NR   MIcro)
  174     dE     6.396254e-07     2.049727e-04                           (NR   MIcro)
  174     dE     5.986335e-07     4.587269e-05                           (NR   MIcro)
  174     dE     5.938790e-07     3.031912e-05                           (NR   MIcro)
  175       -295.077840147410     1.212098e-04                     0.055 (TRAH MAcro)   No
  175     dE    -3.623400e-08     9.707388e-05    -3.6234e-08      0.001 (TRAH MIcro)
  175     dE    -1.957114e-07     3.585288e-04    -1.9571e-07      0.006 (TRAH MIcro)
  175     dE    -3.132525e-06     7.046432e-04    -4.8563e-04      0.055 (TRAH MIcro)
  175     dE    -3.800374e-06     2.373095e-04    -7.1332e-04      0.055 (TRAH MIcro)
  175     dE    -4.009642e-06     2.230766e-04    -7.8484e-04      0.055 (TRAH MIcro)
  175     dE    -4.126890e-06     7.756518e-05    -8.2509e-04      0.055 (TRAH MIcro)
  175     dE    -4.154677e-06     8.654050e-05    -8.3594e-04      0.055 (TRAH MIcro)
  175     dE    -4.211635e-06     1.494021e-04    -8.5546e-04      0.055 (TRAH MIcro)
  175     dE    -2.777630e-06     1.214069e-04    -1.1674e-03      0.038 (TRAH MIcro)
  175     dE    -2.855743e-06     3.699231e-05    -1.1771e-03      0.038 (TRAH MIcro)
  175     dE    -2.869859e-06     2.114978e-05    -1.1787e-03      0.038 (TRAH MIcro)
  175     dE    -2.888937e-06     4.713150e-05    -1.1808e-03      0.039 (TRAH MIcro)
  175     dE    -2.914886e-06     3.619098e-05    -1.1835e-03      0.039 (TRAH MIcro)
  175     dE    -2.926999e-06     3.130942e-05    -1.1848e-03      0.039 (TRAH MIcro)
  175     dE    -2.937667e-06     1.992123e-05    -1.1858e-03      0.039 (TRAH MIcro)
  175     dE    -2.941163e-06     9.423092e-06    -1.1861e-03      0.039 (TRAH MIcro)
  176       -295.077842078789     9.027645e-05                           (NR   MAcro)
  176     dE    -2.679092e-08     8.590719e-05                           (NR   MIcro)
  176     dE    -1.793285e-07     3.216498e-04                           (NR   MIcro)
  176     dE    -9.584910e-07     4.365335e-04                           (NR   MIcro)
  176     dE    -1.354611e-06     2.030678e-04                           (NR   MIcro)
  176     dE    -1.922642e-06     4.791012e-04                           (NR   MIcro)
  176     dE    -1.153081e-05     4.422533e-03                           (NR   MIcro)
  176     dE     2.109402e-06     5.549617e-04                           (NR   MIcro)
  176     dE     1.475547e-06     3.113156e-04                           (NR   MIcro)
  176     dE     1.153203e-06     1.687270e-04                           (NR   MIcro)
  176     dE     1.107830e-06     6.419541e-05                           (NR   MIcro)
  176     dE     1.081099e-06     1.052756e-04                           (NR   MIcro)
  176     dE     9.676821e-07     1.770339e-04                           (NR   MIcro)
  176     dE     9.017439e-07     8.409147e-05                           (NR   MIcro)
  176     dE     8.803467e-07     7.991064e-05                           (NR   MIcro)
  176     dE     8.394761e-07     1.212197e-04                           (NR   MIcro)
  176     dE     7.797277e-07     1.162977e-04                           (NR   MIcro)
  176     dE     7.348076e-07     1.353085e-04                           (NR   MIcro)
  176     dE     6.848250e-07     1.200136e-04                           (NR   MIcro)
  176     dE     6.670354e-07     5.196431e-05                           (NR   MIcro)
  176     dE     6.614959e-07     4.670997e-05                           (NR   MIcro)
  176     dE     6.427003e-07     1.328413e-04                           (NR   MIcro)
  176     dE     3.357175e-07     4.383081e-04                           (NR   MIcro)
  176     dE    -3.060445e-08     2.052727e-04                           (NR   MIcro)
  176     dE    -1.405485e-07     1.473486e-04                           (NR   MIcro)
  177       -295.077841615301     5.123053e-04                     0.055 (TRAH MAcro)   No
  177     dE    -2.529376e-07     9.316259e-05    -2.5294e-07      0.001 (TRAH MIcro)
  177     dE    -2.951418e-07     1.268636e-04    -2.9514e-07      0.001 (TRAH MIcro)
  177     dE    -4.489180e-07     1.869589e-04    -4.4891e-07      0.005 (TRAH MIcro)
  177     dE    -5.892288e-07     2.337694e-04    -5.8918e-07      0.009 (TRAH MIcro)
  177     dE    -1.049676e-06     5.238103e-04    -1.0491e-06      0.023 (TRAH MIcro)
  177     dE    -1.878972e-06     2.660324e-04    -1.8744e-06      0.049 (TRAH MIcro)
  177     dE    -2.092464e-06     2.040680e-04    -1.5781e-05      0.055 (TRAH MIcro)
  177     dE    -2.407143e-06     4.047963e-04    -1.2817e-04      0.055 (TRAH MIcro)
  177     dE    -3.608477e-06     5.826844e-04    -5.8528e-04      0.055 (TRAH MIcro)
  177     dE    -4.107667e-06     1.844114e-04    -7.8375e-04      0.055 (TRAH MIcro)
  177     dE    -4.178505e-06     9.020357e-05    -8.1223e-04      0.055 (TRAH MIcro)
  177     dE    -4.234458e-06     1.445333e-04    -8.3501e-04      0.055 (TRAH MIcro)
  177     dE    -4.290984e-06     1.153395e-04    -8.5837e-04      0.055 (TRAH MIcro)
  177     dE    -4.348077e-06     1.673596e-04    -8.8251e-04      0.055 (TRAH MIcro)
  177     dE    -2.468503e-06     5.705087e-05    -1.2070e-03      0.033 (TRAH MIcro)
  177     dE    -2.494901e-06     2.605804e-05    -1.2100e-03      0.033 (TRAH MIcro)
  178       -295.077843442833     7.498666e-05                           (NR   MAcro)
  178     dE    -2.264445e-08     9.246927e-05                           (NR   MIcro)
  178     dE    -1.248149e-07     2.640514e-04                           (NR   MIcro)
  178     dE    -6.400469e-07     3.317011e-04                           (NR   MIcro)
  178     dE    -8.344547e-07     1.724064e-04                           (NR   MIcro)
  178     dE    -1.050648e-06     3.102434e-04                           (NR   MIcro)
  178     dE    -2.514586e-06     1.171885e-03                           (NR   MIcro)
  178     dE     2.901915e-06     9.298320e-04                           (NR   MIcro)
  178     dE     1.439609e-06     4.160130e-04                           (NR   MIcro)
  178     dE     9.040068e-07     2.350080e-04                           (NR   MIcro)
  178     dE     8.319558e-07     9.526512e-05                           (NR   MIcro)
  178     dE     7.447170e-07     2.453983e-04                           (NR   MIcro)
  178     dE     5.842202e-07     1.539124e-04                           (NR   MIcro)
  178     dE     5.476459e-07     6.838900e-05                           (NR   MIcro)
  178     dE     5.348498e-07     8.583354e-05                           (NR   MIcro)
  178     dE     4.976225e-07     1.313870e-04                           (NR   MIcro)
  178     dE     4.554914e-07     1.168643e-04                           (NR   MIcro)
  178     dE     4.277229e-07     1.080361e-04                           (NR   MIcro)
  178     dE     3.985337e-07     7.453862e-05                           (NR   MIcro)
  178     dE     3.926499e-07     2.327113e-05                           (NR   MIcro)
  178     dE     3.900882e-07     3.142536e-05                           (NR   MIcro)
  178     dE     3.797678e-07     9.132956e-05                           (NR   MIcro)
  178     dE     2.743276e-07     1.807860e-04                           (NR   MIcro)
  178     dE     2.100905e-07     9.775035e-05                           (NR   MIcro)
  178     dE     1.717734e-07     1.123008e-04                           (NR   MIcro)
  179       -295.077842726816     1.616955e-04                     0.055 (TRAH MAcro)   No
  179     dE    -4.472115e-08     8.810920e-05    -4.4721e-08      0.000 (TRAH MIcro)
  179     dE    -1.000589e-07     1.788536e-04    -1.0006e-07      0.002 (TRAH MIcro)
  179     dE    -3.966315e-07     3.191754e-04    -3.9658e-07      0.011 (TRAH MIcro)
  179     dE    -7.425709e-07     2.951794e-04    -7.4221e-07      0.022 (TRAH MIcro)
  179     dE    -1.157993e-06     3.740851e-04    -1.1565e-06      0.036 (TRAH MIcro)
  179     dE    -1.701850e-06     3.682559e-04    -1.6969e-06      0.054 (TRAH MIcro)
  179     dE    -1.948840e-06     1.984880e-04    -7.9189e-05      0.055 (TRAH MIcro)
  179     dE    -2.297286e-06     5.152511e-04    -2.0451e-04      0.055 (TRAH MIcro)
  179     dE    -3.772580e-06     4.907532e-04    -7.7160e-04      0.055 (TRAH MIcro)
  179     dE    -2.694776e-06     9.261261e-05    -1.0793e-03      0.039 (TRAH MIcro)
  179     dE    -2.740315e-06     5.325427e-05    -1.0847e-03      0.040 (TRAH MIcro)
  179     dE    -2.777478e-06     6.321454e-05    -1.0889e-03      0.040 (TRAH MIcro)
  179     dE    -2.838028e-06     8.384016e-05    -1.0954e-03      0.040 (TRAH MIcro)
  179     dE    -2.889986e-06     7.684938e-05    -1.1008e-03      0.041 (TRAH MIcro)
  179     dE    -2.955086e-06     5.379645e-05    -1.1068e-03      0.041 (TRAH MIcro)
  179     dE    -2.984217e-06     2.977022e-05    -1.1092e-03      0.042 (TRAH MIcro)
  179     dE    -2.989058e-06     1.346623e-05    -1.1096e-03      0.042 (TRAH MIcro)
  180       -295.077844351969     1.012972e-04                     0.055 (TRAH MAcro)   No
  180     dE    -2.138977e-08     5.600166e-05    -2.1390e-08      0.000 (TRAH MIcro)
  180     dE    -7.567793e-08     1.894060e-04    -7.5677e-08      0.003 (TRAH MIcro)
  180     dE    -3.448592e-07     2.462688e-04    -3.4477e-07      0.016 (TRAH MIcro)
  180     dE    -4.493878e-07     8.914703e-05    -4.4920e-07      0.021 (TRAH MIcro)
  180     dE    -5.253643e-07     1.731808e-04    -5.2505e-07      0.024 (TRAH MIcro)
  180     dE    -8.392081e-07     3.725135e-04    -8.3782e-07      0.041 (TRAH MIcro)
  180     dE    -1.837509e-06     4.827698e-04    -2.8214e-04      0.054 (TRAH MIcro)
  180     dE    -1.652694e-06     2.313378e-04    -7.0089e-04      0.037 (TRAH MIcro)
  180     dE    -2.494423e-06     1.872253e-04    -8.0809e-04      0.046 (TRAH MIcro)
  180     dE    -2.682649e-06     6.745579e-05    -8.2712e-04      0.048 (TRAH MIcro)
  180     dE    -2.771435e-06     9.314061e-05    -8.3570e-04      0.049 (TRAH MIcro)
  180     dE    -3.067196e-06     1.648734e-04    -8.6132e-04      0.051 (TRAH MIcro)
  180     dE    -3.308438e-06     7.336168e-05    -8.7937e-04      0.053 (TRAH MIcro)
  180     dE    -3.365923e-06     6.129422e-05    -8.8338e-04      0.053 (TRAH MIcro)
  180     dE    -3.454007e-06     7.986861e-05    -8.8922e-04      0.054 (TRAH MIcro)
  180     dE    -3.541322e-06     6.973466e-05    -8.9631e-04      0.055 (TRAH MIcro)
  180     dE    -3.562353e-06     8.530239e-05    -9.0502e-04      0.055 (TRAH MIcro)
  180     dE    -3.593261e-06     8.784472e-05    -9.1829e-04      0.055 (TRAH MIcro)
  180     dE    -3.600128e-06     3.292335e-05    -9.2129e-04      0.055 (TRAH MIcro)
  180     dE    -3.603412e-06     3.588973e-05    -9.2278e-04      0.055 (TRAH MIcro)
  180     dE    -3.613094e-06     9.585990e-05    -9.2711e-04      0.055 (TRAH MIcro)
  180     dE    -3.644313e-06     5.577768e-05    -9.4217e-04      0.055 (TRAH MIcro)
  180     dE    -3.647616e-06     1.567593e-05    -9.4393e-04      0.055 (TRAH MIcro)
  181       -295.077845684762     1.704548e-04                     0.055 (TRAH MAcro)   No
  181     dE    -3.275559e-08     2.961483e-05    -3.2756e-08      0.000 (TRAH MIcro)
  181     dE    -5.142685e-08     1.107512e-04    -5.1427e-08      0.001 (TRAH MIcro)
  181     dE    -1.513924e-07     1.992624e-04    -1.5138e-07      0.008 (TRAH MIcro)
  181     dE    -2.330873e-07     8.581055e-05    -2.3305e-07      0.013 (TRAH MIcro)
  181     dE    -2.828634e-07     1.256428e-04    -2.8279e-07      0.017 (TRAH MIcro)
  181     dE    -3.578324e-07     1.131712e-04    -3.5766e-07      0.022 (TRAH MIcro)
  181     dE    -4.705025e-07     2.189291e-04    -4.7008e-07      0.030 (TRAH MIcro)
  181     dE    -1.189259e-06     5.045106e-04    -1.9523e-04      0.050 (TRAH MIcro)
  181     dE    -2.154357e-06     2.769695e-04    -6.3894e-04      0.049 (TRAH MIcro)
  181     dE    -2.595023e-06     1.143918e-04    -6.7831e-04      0.054 (TRAH MIcro)
  181     dE    -2.702161e-06     6.314710e-05    -6.8705e-04      0.054 (TRAH MIcro)
  181     dE    -2.803269e-06     2.396187e-04    -7.1801e-04      0.055 (TRAH MIcro)
  181     dE    -3.008874e-06     2.010304e-04    -7.9587e-04      0.055 (TRAH MIcro)
  181     dE    -3.084786e-06     9.480809e-05    -8.2536e-04      0.055 (TRAH MIcro)
  181     dE    -3.112253e-06     7.744939e-05    -8.3617e-04      0.055 (TRAH MIcro)
  181     dE    -3.134655e-06     4.544176e-05    -8.4504e-04      0.055 (TRAH MIcro)
  181     dE    -3.139525e-06     5.513489e-05    -8.4702e-04      0.055 (TRAH MIcro)
  181     dE    -3.155229e-06     1.256002e-04    -8.5331e-04      0.055 (TRAH MIcro)
  181     dE    -3.178550e-06     5.559627e-05    -8.6293e-04      0.055 (TRAH MIcro)
  181     dE    -3.183967e-06     2.793094e-05    -8.6525e-04      0.055 (TRAH MIcro)
  181     dE    -3.189294e-06     5.561131e-05    -8.6752e-04      0.055 (TRAH MIcro)
  181     dE    -3.209357e-06     6.753411e-05    -8.7632e-04      0.055 (TRAH MIcro)
  181     dE    -3.215448e-06     2.956570e-05    -8.7908e-04      0.055 (TRAH MIcro)
  182       -295.077846636839     1.700134e-04                     0.055 (TRAH MAcro)   No
  182     dE    -3.123188e-08     2.931742e-05    -3.1232e-08      0.000 (TRAH MIcro)
  182     dE    -3.733837e-08     5.300060e-05    -3.7338e-08      0.001 (TRAH MIcro)
  182     dE    -6.038918e-08     7.879552e-05    -6.0389e-08      0.002 (TRAH MIcro)
  182     dE    -8.704336e-08     1.000031e-04    -8.7042e-08      0.004 (TRAH MIcro)
  182     dE    -1.829085e-07     1.982410e-04    -1.8288e-07      0.013 (TRAH MIcro)
  182     dE    -2.897647e-07     8.899129e-05    -2.8963e-07      0.022 (TRAH MIcro)
  182     dE    -3.196826e-07     8.542789e-05    -3.1949e-07      0.024 (TRAH MIcro)
  182     dE    -4.226981e-07     2.455929e-04    -4.2222e-07      0.034 (TRAH MIcro)
  182     dE    -1.469933e-06     4.825768e-04    -2.9109e-04      0.055 (TRAH MIcro)
  182     dE    -1.436252e-06     1.599845e-04    -4.8733e-04      0.045 (TRAH MIcro)
  182     dE    -1.805136e-06     1.759870e-04    -5.2590e-04      0.050 (TRAH MIcro)
  182     dE    -2.240982e-06     1.930113e-04    -5.6922e-04      0.055 (TRAH MIcro)
  182     dE    -2.368848e-06     1.624442e-04    -6.1596e-04      0.055 (TRAH MIcro)
  182     dE    -2.569680e-06     2.869517e-04    -6.9003e-04      0.055 (TRAH MIcro)
  182     dE    -2.790041e-06     1.791768e-04    -7.7225e-04      0.055 (TRAH MIcro)
  182     dE    -2.857961e-06     8.341512e-05    -7.9779e-04      0.055 (TRAH MIcro)
  182     dE    -2.882258e-06     9.740957e-05    -8.0699e-04      0.055 (TRAH MIcro)
  182     dE    -8.999142e-07     1.027900e-04    -9.9467e-04      0.026 (TRAH MIcro)
  182     dE    -9.585300e-07     3.657858e-05    -1.0066e-03      0.027 (TRAH MIcro)
  182     dE    -9.663825e-07     1.505446e-05    -1.0080e-03      0.027 (TRAH MIcro)
  183       -295.077847094075     5.936616e-05                           (NR   MAcro)
  183     dE    -6.630746e-09     2.751101e-05                           (NR   MIcro)
  183     dE    -1.498709e-08     7.492507e-05                           (NR   MIcro)
  183     dE    -1.203847e-07     1.918066e-04                           (NR   MIcro)
  183     dE    -2.087399e-07     1.226088e-04                           (NR   MIcro)
  183     dE    -3.069096e-07     1.919824e-04                           (NR   MIcro)
  183     dE    -4.339039e-07     1.077189e-04                           (NR   MIcro)
  183     dE    -5.572457e-07     2.549074e-04                           (NR   MIcro)
  183     dE     4.578574e-06     3.816040e-03                           (NR   MIcro)
  183     dE     2.035847e-07     1.714973e-04                           (NR   MIcro)
  183     dE     1.503514e-07     7.242840e-05                           (NR   MIcro)
  183     dE     9.773110e-08     1.503828e-04                           (NR   MIcro)
  183     dE     3.102900e-08     1.114491e-04                           (NR   MIcro)
  183     dE     5.956313e-09     4.910700e-05                           (NR   MIcro)
  183     dE    -1.407248e-09     4.531697e-05                           (NR   MIcro)
  183     dE    -5.881693e-09     2.893944e-05                           (NR   MIcro)
  183     dE    -9.085785e-09     3.218106e-05                           (NR   MIcro)
  183     dE    -1.415594e-08     5.059206e-05                           (NR   MIcro)
  183     dE    -4.822886e-08     1.647931e-04                           (NR   MIcro)
  183     dE    -6.956533e-08     4.275742e-05                           (NR   MIcro)
  183     dE    -7.363093e-08     3.538214e-05                           (NR   MIcro)
  183     dE    -8.250030e-08     1.090567e-04                           (NR   MIcro)
  183     dE    -1.297205e-07     8.775392e-05                           (NR   MIcro)
  183     dE    -1.632937e-07     1.147799e-04                           (NR   MIcro)
  183     dE    -2.594239e-07     1.473228e-04                           (NR   MIcro)
  184       -295.077847318897     2.008399e-04                     0.055 (TRAH MAcro)   No
  184     dE    -3.448725e-08     4.653019e-05    -3.4487e-08      0.000 (TRAH MIcro)
  184     dE    -4.020434e-08     3.960559e-05    -4.0204e-08      0.000 (TRAH MIcro)
  184     dE    -5.532553e-08     1.033956e-04    -5.5325e-08      0.001 (TRAH MIcro)
  184     dE    -1.152575e-07     1.539612e-04    -1.1525e-07      0.006 (TRAH MIcro)
  184     dE    -1.999557e-07     1.551173e-04    -1.9992e-07      0.013 (TRAH MIcro)
  184     dE    -3.077504e-07     2.352330e-04    -3.0760e-07      0.022 (TRAH MIcro)
  184     dE    -4.408739e-07     1.786731e-04    -4.4040e-07      0.033 (TRAH MIcro)
  184     dE    -5.245621e-07     1.742793e-04    -5.2373e-07      0.040 (TRAH MIcro)
  184     dE    -1.104446e-06     6.112916e-04    -4.6716e-04      0.037 (TRAH MIcro)
  184     dE    -2.800951e-06     3.590368e-04    -7.5033e-04      0.055 (TRAH MIcro)
  184     dE    -2.949587e-06     1.552413e-04    -8.0394e-04      0.055 (TRAH MIcro)
  184     dE    -3.011636e-06     1.233150e-04    -8.2646e-04      0.055 (TRAH MIcro)
  184     dE    -3.108987e-06     2.308047e-04    -8.6190e-04      0.055 (TRAH MIcro)
  184     dE    -3.198056e-06     1.378048e-04    -8.9459e-04      0.055 (TRAH MIcro)
  184     dE    -3.305542e-06     2.569406e-04    -9.3449e-04      0.055 (TRAH MIcro)
  184     dE    -1.095140e-06     5.211304e-05    -1.1222e-03      0.027 (TRAH MIcro)
  184     dE    -1.113276e-06     2.223596e-05    -1.1260e-03      0.027 (TRAH MIcro)
  184     dE    -1.120370e-06     2.346970e-05    -1.1274e-03      0.027 (TRAH MIcro)
  184     dE    -1.160412e-06     5.684603e-05    -1.1346e-03      0.028 (TRAH MIcro)
  184     dE    -1.191928e-06     2.494552e-05    -1.1398e-03      0.028 (TRAH MIcro)
  184     dE    -1.199643e-06     1.479251e-05    -1.1410e-03      0.028 (TRAH MIcro)
  185       -295.077847819883     6.852264e-05                           (NR   MAcro)
  185     dE    -8.096201e-09     2.531687e-05                           (NR   MIcro)
  185     dE    -2.122727e-08     9.416172e-05                           (NR   MIcro)
  185     dE    -9.150543e-08     1.462512e-04                           (NR   MIcro)
  185     dE    -1.526105e-07     1.269050e-04                           (NR   MIcro)
  185     dE    -3.037712e-07     2.246428e-04                           (NR   MIcro)
  185     dE    -4.979373e-07     1.936252e-04                           (NR   MIcro)
  185     dE     5.422624e-06     5.262412e-03                           (NR   MIcro)
  185     dE     2.850473e-07     1.995755e-04                           (NR   MIcro)
  185     dE     2.029856e-07     7.923090e-05                           (NR   MIcro)
  185     dE     1.769078e-07     9.195469e-05                           (NR   MIcro)
  185     dE     1.064455e-07     1.719832e-04                           (NR   MIcro)
  185     dE     3.311267e-08     9.325454e-05                           (NR   MIcro)
  185     dE     2.085535e-08     3.790617e-05                           (NR   MIcro)
  185     dE     1.529857e-08     4.569339e-05                           (NR   MIcro)
  185     dE     1.240630e-08     2.019364e-05                           (NR   MIcro)
  185     dE     1.116721e-08     2.017223e-05                           (NR   MIcro)
  185     dE     6.858473e-09     7.461388e-05                           (NR   MIcro)
  185     dE    -1.502696e-08     9.953265e-05                           (NR   MIcro)
  185     dE    -2.321107e-08     3.205088e-05                           (NR   MIcro)
  185     dE    -2.555313e-08     2.295269e-05                           (NR   MIcro)
  185     dE    -2.967896e-08     5.609820e-05                           (NR   MIcro)
  185     dE    -4.517872e-08     5.583892e-05                           (NR   MIcro)
  185     dE    -7.551347e-08     1.395577e-04                           (NR   MIcro)
  185     dE    -1.555463e-07     1.616165e-04                           (NR   MIcro)
  186       -295.077847851396     1.894357e-04                     0.055 (TRAH MAcro)   No
  186     dE    -3.460428e-08     5.066518e-05    -3.4604e-08      0.000 (TRAH MIcro)
  186     dE    -4.348785e-08     5.096984e-05    -4.3488e-08      0.001 (TRAH MIcro)
  186     dE    -7.298691e-08     1.444838e-04    -7.2987e-08      0.002 (TRAH MIcro)
  186     dE    -1.686307e-07     1.727292e-04    -1.6862e-07      0.008 (TRAH MIcro)
  186     dE    -2.790569e-07     1.742160e-04    -2.7899e-07      0.016 (TRAH MIcro)
  186     dE    -3.738751e-07     1.917870e-04    -3.7369e-07      0.022 (TRAH MIcro)
  186     dE    -4.648430e-07     1.353735e-04    -4.6446e-07      0.029 (TRAH MIcro)
  186     dE    -5.322829e-07     1.586900e-04    -5.3169e-07      0.033 (TRAH MIcro)
  186     dE    -1.111231e-06     7.243726e-04    -1.0122e-04      0.055 (TRAH MIcro)
  186     dE    -2.518878e-06     4.572605e-04    -6.7294e-04      0.053 (TRAH MIcro)
  186     dE    -2.924265e-06     1.798969e-04    -7.6225e-04      0.055 (TRAH MIcro)
  186     dE    -2.990754e-06     1.299390e-04    -7.8671e-04      0.055 (TRAH MIcro)
  186     dE    -3.171458e-06     4.372844e-04    -8.5358e-04      0.055 (TRAH MIcro)
  186     dE    -3.383694e-06     1.708107e-04    -9.4244e-04      0.054 (TRAH MIcro)
  186     dE    -3.518085e-06     1.784895e-04    -9.8380e-04      0.055 (TRAH MIcro)
  186     dE    -3.600926e-06     1.224706e-04    -1.0154e-03      0.055 (TRAH MIcro)
  186     dE    -1.059182e-06     2.368871e-05    -1.2163e-03      0.025 (TRAH MIcro)
  186     dE    -1.069994e-06     3.095871e-05    -1.2188e-03      0.025 (TRAH MIcro)
  186     dE    -1.114024e-06     4.264390e-05    -1.2279e-03      0.026 (TRAH MIcro)
  186     dE    -1.134525e-06     1.802107e-05    -1.2314e-03      0.026 (TRAH MIcro)
  187       -295.077848375456     6.929278e-05                           (NR   MAcro)
  187     dE    -8.496940e-09     2.765313e-05                           (NR   MIcro)
  187     dE    -1.840223e-08     8.129054e-05                           (NR   MIcro)
  187     dE    -1.546046e-07     2.440677e-04                           (NR   MIcro)
  187     dE    -2.925450e-07     1.322720e-04                           (NR   MIcro)
  187     dE    -4.031093e-07     2.023033e-04                           (NR   MIcro)
  187     dE    -7.215640e-07     3.098221e-04                           (NR   MIcro)
  187     dE    -2.231515e-06     1.111490e-03                           (NR   MIcro)
  187     dE     9.259354e-07     6.668224e-04                           (NR   MIcro)
  187     dE     2.005277e-07     1.857983e-04                           (NR   MIcro)
  187     dE     1.455017e-07     6.124883e-05                           (NR   MIcro)
  187     dE     1.060303e-07     1.355492e-04                           (NR   MIcro)
  187     dE     3.487315e-08     1.150344e-04                           (NR   MIcro)
  187     dE     1.085581e-08     4.098713e-05                           (NR   MIcro)
  187     dE     7.328977e-09     2.630548e-05                           (NR   MIcro)
  187     dE     4.764574e-09     2.451987e-05                           (NR   MIcro)
  187     dE     1.839223e-09     2.884844e-05                           (NR   MIcro)
  187     dE    -9.704603e-10     3.487144e-05                           (NR   MIcro)
  187     dE    -1.098867e-08     8.317082e-05                           (NR   MIcro)
  187     dE    -1.683086e-08     3.052538e-05                           (NR   MIcro)
  187     dE    -1.768330e-08     1.077937e-05                           (NR   MIcro)
  187     dE    -1.857818e-08     3.666124e-05                           (NR   MIcro)
  187     dE    -2.497761e-08     3.651187e-05                           (NR   MIcro)
  187     dE    -2.880682e-08     3.095477e-05                           (NR   MIcro)
  187     dE    -3.214571e-08     2.432724e-05                           (NR   MIcro)
  188       -295.077848384816     3.724036e-05                           (NR   MAcro)
  188     dE    -4.566684e-09     3.763035e-05                           (NR   MIcro)
  188     dE    -1.604170e-08     6.799583e-05                           (NR   MIcro)
  188     dE    -5.187026e-08     1.216167e-04                           (NR   MIcro)
  188     dE    -2.023104e-07     3.204140e-04                           (NR   MIcro)
  188     dE     7.320843e-07     7.264110e-04                           (NR   MIcro)
  188     dE     2.892957e-07     1.354918e-04                           (NR   MIcro)
  188     dE     2.550757e-07     7.410315e-05                           (NR   MIcro)
  188     dE     2.018901e-07     1.733034e-04                           (NR   MIcro)
  188     dE     8.311531e-08     1.272557e-04                           (NR   MIcro)
  188     dE     5.794624e-08     4.497496e-05                           (NR   MIcro)
  188     dE     5.207688e-08     3.517457e-05                           (NR   MIcro)
  188     dE     4.870489e-08     3.290553e-05                           (NR   MIcro)
  188     dE     4.661234e-08     2.416349e-05                           (NR   MIcro)
  188     dE     4.369300e-08     5.888834e-05                           (NR   MIcro)
  188     dE     3.485926e-08     3.786995e-05                           (NR   MIcro)
  188     dE     3.227737e-08     1.793205e-05                           (NR   MIcro)
  188     dE     3.185479e-08     8.063587e-06                           (NR   MIcro)
  188     dE     3.132887e-08     1.999919e-05                           (NR   MIcro)
  188     dE     2.842418e-08     3.536423e-05                           (NR   MIcro)
  188     dE     2.518538e-08     2.449378e-05                           (NR   MIcro)
  188     dE     2.217351e-08     3.536067e-05                           (NR   MIcro)
  188     dE     1.862852e-08     2.068233e-05                           (NR   MIcro)
  188     dE     1.742743e-08     1.476568e-05                           (NR   MIcro)
  188     dE     1.593972e-08     2.730739e-05                           (NR   MIcro)
  189       -295.077848335367     3.384727e-05                           (NR   MAcro)
  189     dE    -3.924341e-09     3.355895e-05                           (NR   MIcro)
  189     dE    -1.341190e-08     7.057184e-05                           (NR   MIcro)
  189     dE    -8.344024e-08     1.857658e-04                           (NR   MIcro)
  189     dE    -2.167132e-07     2.040083e-04                           (NR   MIcro)
  189     dE    -1.120783e-06     1.133198e-03                           (NR   MIcro)
  189     dE     6.188727e-07     4.175918e-04                           (NR   MIcro)
  189     dE     3.674462e-07     1.851578e-04                           (NR   MIcro)
  189     dE     2.013499e-07     2.497622e-04                           (NR   MIcro)
  189     dE     1.194290e-07     7.631726e-05                           (NR   MIcro)
  189     dE     1.082633e-07     3.726910e-05                           (NR   MIcro)
  189     dE     9.803056e-08     9.295374e-05                           (NR   MIcro)
  189     dE     6.963876e-08     8.620704e-05                           (NR   MIcro)
  189     dE     5.153438e-08     5.609757e-05                           (NR   MIcro)
  189     dE     4.685501e-08     3.751105e-05                           (NR   MIcro)
  189     dE     4.422688e-08     1.838391e-05                           (NR   MIcro)
  189     dE     4.325277e-08     1.568980e-05                           (NR   MIcro)
  189     dE     4.214900e-08     2.244721e-05                           (NR   MIcro)
  189     dE     3.782882e-08     4.558338e-05                           (NR   MIcro)
  189     dE     3.471448e-08     1.512296e-05                           (NR   MIcro)
  189     dE     3.432004e-08     7.170610e-06                           (NR   MIcro)
  189     dE     3.399417e-08     1.313927e-05                           (NR   MIcro)
  189     dE     3.283542e-08     1.892466e-05                           (NR   MIcro)
  189     dE     3.112468e-08     2.331281e-05                           (NR   MIcro)
  189     dE     2.844401e-08     2.796600e-05                           (NR   MIcro)
  190       -295.077848264982     3.008319e-05                           (NR   MAcro)
  190     dE    -4.745917e-09     3.931980e-05                           (NR   MIcro)
  190     dE    -1.330816e-08     5.246010e-05                           (NR   MIcro)
  190     dE    -3.850041e-08     1.121066e-04                           (NR   MIcro)
  190     dE    -1.524074e-07     2.973044e-04                           (NR   MIcro)
  190     dE     2.772692e-07     3.906649e-04                           (NR   MIcro)
  190     dE     1.536246e-07     7.420671e-05                           (NR   MIcro)
  190     dE     1.454545e-07     3.199215e-05                           (NR   MIcro)
  190     dE     1.317468e-07     1.099328e-04                           (NR   MIcro)
  190     dE     8.878780e-08     1.025419e-04                           (NR   MIcro)
  190     dE     6.229699e-08     6.970675e-05                           (NR   MIcro)
  190     dE     5.560589e-08     4.209230e-05                           (NR   MIcro)
  190     dE     5.210363e-08     2.117401e-05                           (NR   MIcro)
  190     dE     5.114729e-08     1.281257e-05                           (NR   MIcro)
  190     dE     5.058582e-08     1.472592e-05                           (NR   MIcro)
  190     dE     4.898566e-08     2.812256e-05                           (NR   MIcro)
  190     dE     4.728645e-08     1.316963e-05                           (NR   MIcro)
  190     dE     4.693504e-08     8.830298e-06                           (NR   MIcro)
  190     dE     4.618654e-08     2.511684e-05                           (NR   MIcro)
  190     dE     4.286600e-08     3.231784e-05                           (NR   MIcro)
  190     dE     4.056927e-08     1.882021e-05                           (NR   MIcro)
  190     dE     3.904043e-08     2.284868e-05                           (NR   MIcro)
  190     dE     3.774612e-08     1.242640e-05                           (NR   MIcro)
  190     dE     3.730747e-08     9.293929e-06                           (NR   MIcro)
  190     dE     3.651064e-08     2.346503e-05                           (NR   MIcro)
  191       -295.077848183100     2.828166e-05                           (NR   MAcro)
  191     dE    -3.286878e-09     3.536109e-05                           (NR   MIcro)
  191     dE    -1.575474e-08     9.236673e-05                           (NR   MIcro)
  191     dE    -2.034115e-07     4.184364e-04                           (NR   MIcro)
  191     dE     8.954651e-07     7.280842e-04                           (NR   MIcro)
  191     dE     2.785591e-07     2.217230e-04                           (NR   MIcro)
  191     dE     1.944514e-07     8.973622e-05                           (NR   MIcro)
  191     dE     1.746100e-07     6.583935e-05                           (NR   MIcro)
  191     dE     1.408944e-07     1.380933e-04                           (NR   MIcro)
  191     dE     8.681395e-08     8.176306e-05                           (NR   MIcro)
  191     dE     7.663801e-08     2.869984e-05                           (NR   MIcro)
  191     dE     7.376395e-08     3.496799e-05                           (NR   MIcro)
  191     dE     6.807200e-08     4.618875e-05                           (NR   MIcro)
  191     dE     6.040088e-08     4.108063e-05                           (NR   MIcro)
  191     dE     5.745215e-08     3.121096e-05                           (NR   MIcro)
  191     dE     5.525534e-08     2.014863e-05                           (NR   MIcro)
  191     dE     5.428172e-08     1.500071e-05                           (NR   MIcro)
  191     dE     5.347847e-08     1.748351e-05                           (NR   MIcro)
  191     dE     5.079063e-08     4.138413e-05                           (NR   MIcro)
  191     dE     4.883334e-08     1.161395e-05                           (NR   MIcro)
  191     dE     4.861417e-08     5.768426e-06                           (NR   MIcro)
  191     dE     4.838228e-08     1.290199e-05                           (NR   MIcro)
  191     dE     4.745562e-08     1.783534e-05                           (NR   MIcro)
  191     dE     4.605152e-08     2.193198e-05                           (NR   MIcro)
  191     dE     4.413698e-08     2.273658e-05                           (NR   MIcro)
  192       -295.077848088100     2.903479e-05                           (NR   MAcro)
  192     dE    -4.484242e-09     4.093672e-05                           (NR   MIcro)
  192     dE    -1.494087e-08     6.171323e-05                           (NR   MIcro)
  192     dE    -4.807141e-08     1.294574e-04                           (NR   MIcro)
  192     dE    -3.480489e-07     6.524595e-04                           (NR   MIcro)
  192     dE     2.001474e-07     2.349840e-04                           (NR   MIcro)
  192     dE     1.361996e-07     6.123585e-05                           (NR   MIcro)
  192     dE     1.304430e-07     2.805995e-05                           (NR   MIcro)
  192     dE     1.213290e-07     8.264283e-05                           (NR   MIcro)
  192     dE     8.628242e-08     9.324736e-05                           (NR   MIcro)
  192     dE     6.895539e-08     4.719828e-05                           (NR   MIcro)
  192     dE     6.411435e-08     3.541390e-05                           (NR   MIcro)
  192     dE     6.146952e-08     2.019667e-05                           (NR   MIcro)
  192     dE     6.059708e-08     1.306970e-05                           (NR   MIcro)
  192     dE     5.986480e-08     2.133012e-05                           (NR   MIcro)
  192     dE     5.801356e-08     2.283656e-05                           (NR   MIcro)
  192     dE     5.699629e-08     1.141945e-05                           (NR   MIcro)
  192     dE     5.675854e-08     7.803499e-06                           (NR   MIcro)
  192     dE     5.625558e-08     2.104562e-05                           (NR   MIcro)
  192     dE     5.417661e-08     2.561862e-05                           (NR   MIcro)
  192     dE     5.310678e-08     1.213321e-05                           (NR   MIcro)
  192     dE     5.243709e-08     1.627075e-05                           (NR   MIcro)
  192     dE     5.180834e-08     9.663630e-06                           (NR   MIcro)
  192     dE     5.142785e-08     9.666868e-06                           (NR   MIcro)
  192     dE     5.060493e-08     2.326932e-05                           (NR   MIcro)
  193       -295.077847981293     2.902911e-05                           (NR   MAcro)
  193     dE    -3.243336e-09     3.304145e-05                           (NR   MIcro)
  193     dE    -1.377160e-08     7.902106e-05                           (NR   MIcro)
  193     dE    -1.563786e-07     3.623419e-04                           (NR   MIcro)
  193     dE     1.784021e-06     1.568589e-03                           (NR   MIcro)
  193     dE     2.759851e-07     2.598064e-04                           (NR   MIcro)
  193     dE     1.863233e-07     9.636109e-05                           (NR   MIcro)
  193     dE     1.685566e-07     5.965794e-05                           (NR   MIcro)
  193     dE     1.391371e-07     1.462155e-04                           (NR   MIcro)
  193     dE     9.228574e-08     7.159461e-05                           (NR   MIcro)
  193     dE     8.420683e-08     2.861857e-05                           (NR   MIcro)
  193     dE     8.197398e-08     2.993767e-05                           (NR   MIcro)
  193     dE     7.755613e-08     4.110057e-05                           (NR   MIcro)
  193     dE     7.101827e-08     4.097125e-05                           (NR   MIcro)
  193     dE     6.780132e-08     3.265197e-05                           (NR   MIcro)
  193     dE     6.521353e-08     2.000074e-05                           (NR   MIcro)
  193     dE     6.419517e-08     1.431049e-05                           (NR   MIcro)
  193     dE     6.329660e-08     1.991613e-05                           (NR   MIcro)
  193     dE     6.053161e-08     3.453290e-05                           (NR   MIcro)
  193     dE     5.890153e-08     1.060806e-05                           (NR   MIcro)
  193     dE     5.872956e-08     4.732728e-06                           (NR   MIcro)
  193     dE     5.859680e-08     8.550725e-06                           (NR   MIcro)
  193     dE     5.815350e-08     1.276186e-05                           (NR   MIcro)
  193     dE     5.733785e-08     1.703147e-05                           (NR   MIcro)
  193     dE     5.588279e-08     2.301480e-05                           (NR   MIcro)
  194       -295.077847864526     2.732638e-05                           (NR   MAcro)
  194     dE    -4.612181e-09     4.378270e-05                           (NR   MIcro)
  194     dE    -1.560241e-08     6.271171e-05                           (NR   MIcro)
  194     dE    -5.152573e-08     1.425056e-04                           (NR   MIcro)
  194     dE    -4.336503e-07     8.237678e-04                           (NR   MIcro)
  194     dE     1.923135e-07     2.275812e-04                           (NR   MIcro)
  194     dE     1.375977e-07     6.061861e-05                           (NR   MIcro)
  194     dE     1.325136e-07     2.547737e-05                           (NR   MIcro)
  194     dE     1.244649e-07     8.569144e-05                           (NR   MIcro)
  194     dE     9.500823e-08     8.539260e-05                           (NR   MIcro)
  194     dE     7.924506e-08     4.939429e-05                           (NR   MIcro)
  194     dE     7.460555e-08     3.876468e-05                           (NR   MIcro)
  194     dE     7.164373e-08     1.963540e-05                           (NR   MIcro)
  194     dE     7.066278e-08     1.508688e-05                           (NR   MIcro)
  194     dE     6.955000e-08     2.452139e-05                           (NR   MIcro)
  194     dE     6.747546e-08     2.166005e-05                           (NR   MIcro)
  194     dE     6.666281e-08     9.143527e-06                           (NR   MIcro)
  194     dE     6.648375e-08     6.780857e-06                           (NR   MIcro)
  194     dE     6.610671e-08     1.713325e-05                           (NR   MIcro)
  194     dE     6.470066e-08     1.866846e-05                           (NR   MIcro)
  194     dE     6.407289e-08     9.513862e-06                           (NR   MIcro)
  194     dE     6.363557e-08     1.289467e-05                           (NR   MIcro)
  194     dE     6.319356e-08     8.569914e-06                           (NR   MIcro)
  194     dE     6.285343e-08     9.560360e-06                           (NR   MIcro)
  194     dE     6.201268e-08     2.348462e-05                           (NR   MIcro)
  195       -295.077847735957     2.909833e-05                           (NR   MAcro)
  195     dE    -3.276540e-09     3.301838e-05                           (NR   MIcro)
  195     dE    -1.362498e-08     7.812142e-05                           (NR   MIcro)
  195     dE    -1.542949e-07     3.537847e-04                           (NR   MIcro)
  195     dE     2.406438e-06     2.048447e-03                           (NR   MIcro)
  195     dE     3.094950e-07     2.728334e-04                           (NR   MIcro)
  195     dE     2.035776e-07     9.672444e-05                           (NR   MIcro)
  195     dE     1.842758e-07     6.178236e-05                           (NR   MIcro)
  195     dE     1.532775e-07     1.416400e-04                           (NR   MIcro)
  195     dE     1.040470e-07     7.387820e-05                           (NR   MIcro)
  195     dE     9.537854e-08     2.873281e-05                           (NR   MIcro)
  195     dE     9.320661e-08     2.704019e-05                           (NR   MIcro)
  195     dE     8.947856e-08     3.819339e-05                           (NR   MIcro)
  195     dE     8.305026e-08     4.268307e-05                           (NR   MIcro)
  195     dE     7.971501e-08     3.517342e-05                           (NR   MIcro)
  195     dE     7.687414e-08     2.100682e-05                           (NR   MIcro)
  195     dE     7.577688e-08     1.514090e-05                           (NR   MIcro)
  195     dE     7.491231e-08     2.038881e-05                           (NR   MIcro)
  195     dE     7.225190e-08     3.417237e-05                           (NR   MIcro)
  195     dE     7.068644e-08     1.101190e-05                           (NR   MIcro)
  195     dE     7.052668e-08     4.379988e-06                           (NR   MIcro)
  195     dE     7.043429e-08     6.973121e-06                           (NR   MIcro)
  195     dE     7.016671e-08     1.007846e-05                           (NR   MIcro)
  195     dE     6.964419e-08     1.415045e-05                           (NR   MIcro)
  195     dE     6.859802e-08     2.076286e-05                           (NR   MIcro)
  196       -295.077847594647     2.809672e-05                           (NR   MAcro)
  196     dE    -4.555490e-09     4.505645e-05                           (NR   MIcro)
  196     dE    -1.752737e-08     7.107505e-05                           (NR   MIcro)
  196     dE    -5.936226e-08     1.458099e-04                           (NR   MIcro)
  196     dE    -5.854470e-07     1.040618e-03                           (NR   MIcro)
  196     dE     2.253937e-07     2.264661e-04                           (NR   MIcro)
  196     dE     1.633645e-07     6.718124e-05                           (NR   MIcro)
  196     dE     1.568613e-07     2.892924e-05                           (NR   MIcro)
  196     dE     1.475875e-07     8.576772e-05                           (NR   MIcro)
  196     dE     1.120488e-07     9.246762e-05                           (NR   MIcro)
  196     dE     9.629199e-08     4.432662e-05                           (NR   MIcro)
  196     dE     9.157475e-08     3.914123e-05                           (NR   MIcro)
  196     dE     8.835376e-08     2.269691e-05                           (NR   MIcro)
  196     dE     8.712499e-08     1.699250e-05                           (NR   MIcro)
  196     dE     8.548184e-08     3.361630e-05                           (NR   MIcro)
  196     dE     8.269279e-08     2.221249e-05                           (NR   MIcro)
  196     dE     8.181712e-08     1.064327e-05                           (NR   MIcro)
  196     dE     8.159560e-08     7.938755e-06                           (NR   MIcro)
  196     dE     8.116361e-08     1.789084e-05                           (NR   MIcro)
  196     dE     7.992008e-08     1.683099e-05                           (NR   MIcro)
  196     dE     7.950983e-08     7.470088e-06                           (NR   MIcro)
  196     dE     7.923212e-08     1.090021e-05                           (NR   MIcro)
  196     dE     7.892416e-08     7.334035e-06                           (NR   MIcro)
  196     dE     7.860448e-08     9.804490e-06                           (NR   MIcro)
  196     dE     7.775992e-08     2.237024e-05                           (NR   MIcro)
  197       -295.077847435382     3.120520e-05                           (NR   MAcro)
  197     dE    -3.490917e-09     3.211786e-05                           (NR   MIcro)
  197     dE    -1.242660e-08     7.123608e-05                           (NR   MIcro)
  197     dE    -1.434273e-07     3.259324e-04                           (NR   MIcro)
  197     dE    -7.462494e-06     6.380278e-03                           (NR   MIcro)
  197     dE     3.911078e-07     3.228491e-04                           (NR   MIcro)
  197     dE     2.460917e-07     1.154256e-04                           (NR   MIcro)
  197     dE     2.243411e-07     5.882207e-05                           (NR   MIcro)
  197     dE     1.951706e-07     1.465323e-04                           (NR   MIcro)
  197     dE     1.350759e-07     8.745235e-05                           (NR   MIcro)
  197     dE     1.219211e-07     3.712094e-05                           (NR   MIcro)
  197     dE     1.188242e-07     2.866379e-05                           (NR   MIcro)
  197     dE     1.147558e-07     4.074988e-05                           (NR   MIcro)
  197     dE     1.066303e-07     5.131947e-05                           (NR   MIcro)
  197     dE     1.025391e-07     3.886964e-05                           (NR   MIcro)
  197     dE     9.900170e-08     2.351649e-05                           (NR   MIcro)
  197     dE     9.769934e-08     1.591899e-05                           (NR   MIcro)
  197     dE     9.685264e-08     1.866895e-05                           (NR   MIcro)
  197     dE     9.424119e-08     3.611099e-05                           (NR   MIcro)
  197     dE     9.218032e-08     1.287992e-05                           (NR   MIcro)
  197     dE     9.197251e-08     4.834163e-06                           (NR   MIcro)
  197     dE     9.187472e-08     6.647436e-06                           (NR   MIcro)
  197     dE     9.164663e-08     9.326784e-06                           (NR   MIcro)
  197     dE     9.120307e-08     1.309019e-05                           (NR   MIcro)
  197     dE     9.034126e-08     1.899339e-05                           (NR   MIcro)
  198       -295.077847250918     3.120205e-05                           (NR   MAcro)
  198     dE    -4.628003e-09     4.278527e-05                           (NR   MIcro)
  198     dE    -1.971295e-08     8.210442e-05                           (NR   MIcro)
  198     dE    -6.900736e-08     1.391533e-04                           (NR   MIcro)
  198     dE    -4.546549e-07     7.944996e-04                           (NR   MIcro)
  198     dE     3.598272e-07     3.014386e-04                           (NR   MIcro)
  198     dE     2.484468e-07     1.013357e-04                           (NR   MIcro)
  198     dE     2.350465e-07     4.012218e-05                           (NR   MIcro)
  198     dE     2.176934e-07     1.191829e-04                           (NR   MIcro)
  198     dE     1.582733e-07     1.088268e-04                           (NR   MIcro)
  198     dE     1.387078e-07     4.820799e-05                           (NR   MIcro)
  198     dE     1.328958e-07     4.391677e-05                           (NR   MIcro)
  198     dE     1.283203e-07     2.942635e-05                           (NR   MIcro)
  198     dE     1.262249e-07     2.279427e-05                           (NR   MIcro)
  198     dE     1.227918e-07     5.110678e-05                           (NR   MIcro)
  198     dE     1.173429e-07     2.938167e-05                           (NR   MIcro)
  198     dE     1.159173e-07     1.406970e-05                           (NR   MIcro)
  198     dE     1.154903e-07     1.098032e-05                           (NR   MIcro)
  198     dE     1.147401e-07     2.213859e-05                           (NR   MIcro)
  198     dE     1.131036e-07     1.687263e-05                           (NR   MIcro)
  198     dE     1.127316e-07     6.972797e-06                           (NR   MIcro)
  198     dE     1.124740e-07     1.091652e-05                           (NR   MIcro)
  198     dE     1.121690e-07     7.175835e-06                           (NR   MIcro)
  198     dE     1.117948e-07     1.136511e-05                           (NR   MIcro)
  198     dE     1.106724e-07     2.406019e-05                           (NR   MIcro)
  199       -295.077847024628     3.975617e-05                           (NR   MAcro)
  199     dE    -4.273599e-09     3.025030e-05                           (NR   MIcro)
  199     dE    -1.132879e-08     6.289350e-05                           (NR   MIcro)
  199     dE    -1.094093e-07     2.470899e-04                           (NR   MIcro)
  199     dE    -5.041461e-07     4.498905e-04                           (NR   MIcro)
  199     dE     1.620325e-06     1.214341e-03                           (NR   MIcro)
  199     dE     4.948077e-07     2.426846e-04                           (NR   MIcro)
  199     dE     4.284593e-07     8.466475e-05                           (NR   MIcro)
  199     dE     3.741653e-07     2.025417e-04                           (NR   MIcro)
  199     dE     2.449034e-07     1.371282e-04                           (NR   MIcro)
  199     dE     2.099125e-07     6.383987e-05                           (NR   MIcro)
  199     dE     2.021638e-07     3.864870e-05                           (NR   MIcro)
  199     dE     1.952772e-07     5.336538e-05                           (NR   MIcro)
  199     dE     1.793858e-07     7.794438e-05                           (NR   MIcro)
  199     dE     1.713773e-07     5.251425e-05                           (NR   MIcro)
  199     dE     1.646079e-07     3.350531e-05                           (NR   MIcro)
  199     dE     1.620801e-07     2.141589e-05                           (NR   MIcro)
  199     dE     1.608404e-07     2.031250e-05                           (NR   MIcro)
  199     dE     1.571480e-07     4.713147e-05                           (NR   MIcro)
  199     dE     1.527581e-07     2.015808e-05                           (NR   MIcro)
  199     dE     1.522592e-07     7.329180e-06                           (NR   MIcro)
  199     dE     1.520791e-07     8.033947e-06                           (NR   MIcro)
  199     dE     1.517674e-07     1.059473e-05                           (NR   MIcro)
  199     dE     1.511979e-07     1.485248e-05                           (NR   MIcro)
  199     dE     1.501429e-07     2.044667e-05                           (NR   MIcro)
  200       -295.077846715880     4.917988e-05                           (NR   MAcro)
  200     dE    -5.598120e-09     3.421548e-05                           (NR   MIcro)
  200     dE    -2.072590e-08     8.644451e-05                           (NR   MIcro)
  200     dE    -6.258493e-08     1.057112e-04                           (NR   MIcro)
  200     dE    -1.929779e-07     3.428720e-04                           (NR   MIcro)
  200     dE    -3.066539e-06     2.354215e-03                           (NR   MIcro)
  200     dE     1.328777e-06     5.105180e-04                           (NR   MIcro)
  200     dE     1.051364e-06     1.524552e-04                           (NR   MIcro)
  200     dE     8.668315e-07     3.376532e-04                           (NR   MIcro)
  200     dE     4.639684e-07     2.486066e-04                           (NR   MIcro)
  200     dE     3.756794e-07     9.883845e-05                           (NR   MIcro)
  200     dE     3.530947e-07     7.949212e-05                           (NR   MIcro)
  200     dE     3.347478e-07     6.496951e-05                           (NR   MIcro)
  200     dE     3.260953e-07     4.368073e-05                           (NR   MIcro)
  200     dE     3.114982e-07     1.140175e-04                           (NR   MIcro)
  200     dE     2.853899e-07     6.489264e-05                           (NR   MIcro)
  200     dE     2.787924e-07     3.040886e-05                           (NR   MIcro)
  200     dE     2.768139e-07     2.382075e-05                           (NR   MIcro)
  200     dE     2.737671e-07     4.303896e-05                           (NR   MIcro)
  200     dE     2.675651e-07     3.667480e-05                           (NR   MIcro)
  200     dE     2.662043e-07     1.181205e-05                           (NR   MIcro)
  200     dE     2.654675e-07     1.951973e-05                           (NR   MIcro)
  200     dE     2.645700e-07     1.047344e-05                           (NR   MIcro)
  200     dE     2.636650e-07     1.931550e-05                           (NR   MIcro)
  200     dE     2.601678e-07     4.153182e-05                           (NR   MIcro)
  201       -295.077846165978     1.008349e-04                     0.055 (TRAH MAcro)   No
  201     dE    -1.327789e-08     2.868642e-05    -1.3278e-08      0.000 (TRAH MIcro)
  201     dE    -1.821929e-08     4.745444e-05    -1.8219e-08      0.000 (TRAH MIcro)
  201     dE    -6.462285e-08     1.398632e-04    -6.4622e-08      0.004 (TRAH MIcro)
  201     dE    -1.417602e-07     1.479812e-04    -1.4174e-07      0.011 (TRAH MIcro)
  201     dE    -2.510237e-07     1.869532e-04    -2.5092e-07      0.020 (TRAH MIcro)
  201     dE    -4.392010e-07     2.732382e-04    -4.3860e-07      0.037 (TRAH MIcro)
  201     dE    -5.223673e-07     9.286570e-05    -5.2135e-07      0.044 (TRAH MIcro)
  201     dE    -5.725969e-07     1.974277e-04    -5.7124e-07      0.049 (TRAH MIcro)
  201     dE    -8.151933e-07     2.662288e-04    -6.1880e-05      0.055 (TRAH MIcro)
  201     dE    -9.156969e-07     1.609504e-04    -1.5254e-04      0.049 (TRAH MIcro)
  201     dE    -9.874548e-07     7.199397e-05    -1.5853e-04      0.051 (TRAH MIcro)
  201     dE    -1.021346e-06     7.793469e-05    -1.6122e-04      0.052 (TRAH MIcro)
  201     dE    -1.116012e-06     1.780678e-04    -1.6988e-04      0.055 (TRAH MIcro)
  201     dE    -1.155424e-06     9.820231e-05    -1.8465e-04      0.055 (TRAH MIcro)
  201     dE    -1.187679e-06     8.566096e-05    -1.9703e-04      0.055 (TRAH MIcro)
  201     dE    -1.201943e-06     5.625996e-05    -2.0453e-04      0.055 (TRAH MIcro)
  201     dE    -1.212027e-06     3.917802e-05    -2.0657e-04      0.055 (TRAH MIcro)
  201     dE    -1.228549e-06     1.119614e-04    -2.1317e-04      0.055 (TRAH MIcro)
  201     dE    -1.273597e-06     8.498439e-05    -2.3198e-04      0.055 (TRAH MIcro)
  201     dE    -1.282756e-06     3.135897e-05    -2.3598e-04      0.055 (TRAH MIcro)
  201     dE    -1.285686e-06     3.107709e-05    -2.3729e-04      0.055 (TRAH MIcro)
  201     dE    -1.284729e-06     4.387468e-05    -2.4056e-04      0.054 (TRAH MIcro)
  201     dE    -1.302519e-06     6.994168e-05    -2.4484e-04      0.055 (TRAH MIcro)
  202       -295.077847068535     1.876315e-04                     0.055 (TRAH MAcro)   No
  202     dE    -3.595328e-08     3.978673e-05    -3.5953e-08      0.000 (TRAH MIcro)
  202     dE    -4.307998e-08     4.898643e-05    -4.3080e-08      0.000 (TRAH MIcro)
  202     dE    -6.022150e-08     5.368546e-05    -6.0221e-08      0.001 (TRAH MIcro)
  202     dE    -7.444333e-08     7.598486e-05    -7.4443e-08      0.002 (TRAH MIcro)
  202     dE    -1.453825e-07     2.272829e-04    -1.4537e-07      0.008 (TRAH MIcro)
  202     dE    -4.217113e-07     2.097286e-04    -4.2129e-07      0.032 (TRAH MIcro)
  202     dE    -5.523401e-07     1.631105e-04    -5.5133e-07      0.043 (TRAH MIcro)
  202     dE    -7.836455e-07     3.247477e-04    -3.2039e-05      0.055 (TRAH MIcro)
  202     dE    -1.549137e-06     5.051707e-04    -2.9829e-04      0.055 (TRAH MIcro)
  202     dE    -1.633982e-06     1.692220e-04    -5.4243e-04      0.045 (TRAH MIcro)
  202     dE    -1.866896e-06     1.127280e-04    -5.6766e-04      0.048 (TRAH MIcro)
  202     dE    -2.006841e-06     1.089689e-04    -5.8136e-04      0.050 (TRAH MIcro)
  202     dE    -2.112831e-06     7.638485e-05    -5.9108e-04      0.051 (TRAH MIcro)
  202     dE    -2.208063e-06     1.537981e-04    -5.9930e-04      0.052 (TRAH MIcro)
  202     dE    -2.443670e-06     1.355724e-04    -6.1827e-04      0.055 (TRAH MIcro)
  202     dE    -2.468701e-06     5.779055e-05    -6.2772e-04      0.055 (TRAH MIcro)
  202     dE    -2.475631e-06     4.320354e-05    -6.3038e-04      0.055 (TRAH MIcro)
  202     dE    -2.499436e-06     1.671954e-04    -6.3957e-04      0.055 (TRAH MIcro)
  202     dE    -2.529088e-06     6.241429e-05    -6.5134e-04      0.055 (TRAH MIcro)
  202     dE    -2.536115e-06     4.164536e-05    -6.5418e-04      0.055 (TRAH MIcro)
  202     dE    -2.538846e-06     2.845628e-05    -6.5535e-04      0.055 (TRAH MIcro)
  202     dE    -2.541054e-06     1.598871e-05    -6.5620e-04      0.055 (TRAH MIcro)
  203       -295.077847977136     1.738192e-04                     0.055 (TRAH MAcro)   No
  203     dE    -2.980850e-08     2.148084e-05    -2.9808e-08      0.000 (TRAH MIcro)
  203     dE    -3.433753e-08     5.082727e-05    -3.4338e-08      0.001 (TRAH MIcro)
  203     dE    -8.068704e-08     1.941824e-04    -8.0685e-08      0.005 (TRAH MIcro)
  203     dE    -2.889095e-07     1.720923e-04    -2.8874e-07      0.024 (TRAH MIcro)
  203     dE    -4.501200e-07     2.305169e-04    -4.4941e-07      0.040 (TRAH MIcro)
  203     dE    -8.927541e-07     2.891260e-04    -1.4879e-04      0.049 (TRAH MIcro)
  203     dE    -1.545256e-06     3.453680e-04    -3.1926e-04      0.055 (TRAH MIcro)
  203     dE    -1.733276e-06     3.333180e-04    -5.2772e-04      0.048 (TRAH MIcro)
  203     dE    -2.880617e-06     3.691083e-04    -7.8446e-04      0.055 (TRAH MIcro)
  203     dE    -3.140833e-06     1.367867e-04    -8.7664e-04      0.055 (TRAH MIcro)
  203     dE    -3.180289e-06     5.423880e-05    -8.9066e-04      0.055 (TRAH MIcro)
  203     dE    -3.216806e-06     1.377633e-04    -9.0362e-04      0.055 (TRAH MIcro)
  203     dE    -3.328094e-06     1.487619e-04    -9.4393e-04      0.055 (TRAH MIcro)
  203     dE    -1.153112e-06     2.980216e-05    -1.1087e-03      0.028 (TRAH MIcro)
  203     dE    -1.165174e-06     2.689747e-05    -1.1114e-03      0.028 (TRAH MIcro)
  203     dE    -1.184799e-06     3.478597e-05    -1.1155e-03      0.029 (TRAH MIcro)
  203     dE    -1.196313e-06     2.140916e-05    -1.1177e-03      0.029 (TRAH MIcro)
  203     dE    -1.211404e-06     3.534603e-05    -1.1205e-03      0.029 (TRAH MIcro)
  203     dE    -1.223195e-06     1.895859e-05    -1.1227e-03      0.029 (TRAH MIcro)
  203     dE    -1.224947e-06     6.364127e-06    -1.1230e-03      0.029 (TRAH MIcro)
  204       -295.077848489195     6.997693e-05                           (NR   MAcro)
  204     dE    -7.435089e-09     1.951555e-05                           (NR   MIcro)
  204     dE    -1.914595e-08     9.945390e-05                           (NR   MIcro)
  204     dE    -2.429901e-06     5.452019e-03                           (NR   MIcro)
  204     dE     2.042688e-07     5.836414e-05                           (NR   MIcro)
  204     dE     1.824515e-07     8.070240e-05                           (NR   MIcro)
  204     dE     1.485640e-07     7.868369e-05                           (NR   MIcro)
  204     dE     1.218915e-07     7.555314e-05                           (NR   MIcro)
  204     dE     9.339391e-08     8.057651e-05                           (NR   MIcro)
  204     dE     6.918814e-08     4.694684e-05                           (NR   MIcro)
  204     dE     6.406106e-08     2.489924e-05                           (NR   MIcro)
  204     dE     6.067074e-08     3.030151e-05                           (NR   MIcro)
  204     dE     5.071404e-08     5.350210e-05                           (NR   MIcro)
  204     dE     4.600381e-08     2.219162e-05                           (NR   MIcro)
  204     dE     4.509257e-08     1.062590e-05                           (NR   MIcro)
  204     dE     4.450679e-08     1.736493e-05                           (NR   MIcro)
  204     dE     4.335476e-08     1.876584e-05                           (NR   MIcro)
  204     dE     4.251162e-08     2.054034e-05                           (NR   MIcro)
  204     dE     4.019794e-08     3.716008e-05                           (NR   MIcro)
  204     dE     3.926777e-08     8.917575e-06                           (NR   MIcro)
  204     dE     3.899310e-08     1.001696e-05                           (NR   MIcro)
  204     dE     3.798637e-08     2.953054e-05                           (NR   MIcro)
  204     dE     2.462485e-08     7.185518e-05                           (NR   MIcro)
  204     dE     1.956369e-08     2.345965e-05                           (NR   MIcro)
  204     dE     1.764238e-08     2.992740e-05                           (NR   MIcro)
  205       -295.077848420019     4.299227e-05                           (NR   MAcro)
  205     dE    -3.845879e-09     3.553842e-05                           (NR   MIcro)
  205     dE    -1.340957e-08     8.102890e-05                           (NR   MIcro)
  205     dE    -7.582453e-08     1.621211e-04                           (NR   MIcro)
  205     dE    -6.209177e-07     1.061452e-03                           (NR   MIcro)
  205     dE     2.392179e-07     2.293095e-04                           (NR   MIcro)
  205     dE     1.806664e-07     5.835529e-05                           (NR   MIcro)
  205     dE     1.684173e-07     5.467380e-05                           (NR   MIcro)
  205     dE     1.444537e-07     1.120941e-04                           (NR   MIcro)
  205     dE     8.443136e-08     1.095986e-04                           (NR   MIcro)
  205     dE     6.895372e-08     2.818979e-05                           (NR   MIcro)
  205     dE     6.666195e-08     3.392812e-05                           (NR   MIcro)
  205     dE     6.426372e-08     2.598689e-05                           (NR   MIcro)
  205     dE     6.188404e-08     3.336305e-05                           (NR   MIcro)
  205     dE     5.896932e-08     3.699023e-05                           (NR   MIcro)
  205     dE     5.611771e-08     2.355523e-05                           (NR   MIcro)
  205     dE     5.529804e-08     9.255427e-06                           (NR   MIcro)
  205     dE     5.501632e-08     9.086163e-06                           (NR   MIcro)
  205     dE     5.413538e-08     2.444023e-05                           (NR   MIcro)
  205     dE     5.304289e-08     8.448113e-06                           (NR   MIcro)
  205     dE     5.287903e-08     5.582633e-06                           (NR   MIcro)
  205     dE     5.262788e-08     1.201208e-05                           (NR   MIcro)
  205     dE     5.207617e-08     1.001968e-05                           (NR   MIcro)
  205     dE     5.137681e-08     1.855699e-05                           (NR   MIcro)
  205     dE     4.723758e-08     3.507711e-05                           (NR   MIcro)
  206       -295.077848310345     3.786308e-05                           (NR   MAcro)
  206     dE    -3.944456e-09     3.134025e-05                           (NR   MIcro)
  206     dE    -1.066171e-08     5.570369e-05                           (NR   MIcro)
  206     dE    -7.724342e-08     2.656592e-04                           (NR   MIcro)
  206     dE     7.012719e-07     7.149263e-04                           (NR   MIcro)
  206     dE     2.445291e-07     1.701255e-04                           (NR   MIcro)
  206     dE     1.842063e-07     9.398192e-05                           (NR   MIcro)
  206     dE     1.651053e-07     5.127850e-05                           (NR   MIcro)
  206     dE     1.502580e-07     1.044170e-04                           (NR   MIcro)
  206     dE     1.021860e-07     1.255427e-04                           (NR   MIcro)
  206     dE     7.251982e-08     4.303175e-05                           (NR   MIcro)
  206     dE     7.025219e-08     1.595017e-05                           (NR   MIcro)
  206     dE     6.904926e-08     2.168161e-05                           (NR   MIcro)
  206     dE     6.651729e-08     2.883580e-05                           (NR   MIcro)
  206     dE     6.466529e-08     1.945558e-05                           (NR   MIcro)
  206     dE     6.197240e-08     4.066897e-05                           (NR   MIcro)
  206     dE     6.042153e-08     1.128442e-05                           (NR   MIcro)
  206     dE     6.019628e-08     7.209808e-06                           (NR   MIcro)
  206     dE     6.000967e-08     1.167667e-05                           (NR   MIcro)
  206     dE     5.928068e-08     1.341540e-05                           (NR   MIcro)
  206     dE     5.896670e-08     7.124457e-06                           (NR   MIcro)
  206     dE     5.884550e-08     5.371212e-06                           (NR   MIcro)
  206     dE     5.857406e-08     1.079439e-05                           (NR   MIcro)
  206     dE     5.796867e-08     1.299665e-05                           (NR   MIcro)
  206     dE     5.733722e-08     1.358584e-05                           (NR   MIcro)
  207       -295.077848189357     2.547894e-05                           (NR   MAcro)
  207     dE    -4.058595e-09     4.374084e-05                           (NR   MIcro)
  207     dE    -2.326491e-08     1.027421e-04                           (NR   MIcro)
  207     dE    -1.265114e-07     2.058114e-04                           (NR   MIcro)
  207     dE     9.032965e-07     1.264097e-03                           (NR   MIcro)
  207     dE     1.832810e-07     1.283786e-04                           (NR   MIcro)
  207     dE     1.595423e-07     3.885556e-05                           (NR   MIcro)
  207     dE     1.519501e-07     4.609126e-05                           (NR   MIcro)
  207     dE     1.298203e-07     1.018163e-04                           (NR   MIcro)
  207     dE     9.320522e-08     8.275864e-05                           (NR   MIcro)
  207     dE     8.237118e-08     2.158633e-05                           (NR   MIcro)
  207     dE     7.866037e-08     3.678979e-05                           (NR   MIcro)
  207     dE     7.496898e-08     2.702505e-05                           (NR   MIcro)
  207     dE     7.215174e-08     2.697511e-05                           (NR   MIcro)
  207     dE     7.027395e-08     2.492192e-05                           (NR   MIcro)
  207     dE     6.903474e-08     1.376075e-05                           (NR   MIcro)
  207     dE     6.885853e-08     4.321902e-06                           (NR   MIcro)
  207     dE     6.879273e-08     4.954347e-06                           (NR   MIcro)
  207     dE     6.836239e-08     2.381394e-05                           (NR   MIcro)
  207     dE     6.744578e-08     1.079890e-05                           (NR   MIcro)
  207     dE     6.721886e-08     6.944714e-06                           (NR   MIcro)
  207     dE     6.704515e-08     8.272606e-06                           (NR   MIcro)
  207     dE     6.694159e-08     3.498984e-06                           (NR   MIcro)
  207     dE     6.686646e-08     6.689612e-06                           (NR   MIcro)
  207     dE     6.643132e-08     1.475989e-05                           (NR   MIcro)
  208       -295.077848053927     2.678146e-05                           (NR   MAcro)
  208     dE    -3.876800e-09     3.931126e-05                           (NR   MIcro)
  208     dE    -2.101366e-08     1.051511e-04                           (NR   MIcro)
  208     dE    -1.161963e-06     2.169062e-03                           (NR   MIcro)
  208     dE     2.310225e-07     1.483665e-04                           (NR   MIcro)
  208     dE     1.877023e-07     6.910689e-05                           (NR   MIcro)
  208     dE     1.692097e-07     6.357034e-05                           (NR   MIcro)
  208     dE     1.580501e-07     4.208759e-05                           (NR   MIcro)
  208     dE     1.443054e-07     8.953396e-05                           (NR   MIcro)
  208     dE     9.858909e-08     1.042269e-04                           (NR   MIcro)
  208     dE     8.015825e-08     2.308732e-05                           (NR   MIcro)
  208     dE     7.907921e-08     1.088457e-05                           (NR   MIcro)
  208     dE     7.864995e-08     9.938195e-06                           (NR   MIcro)
  208     dE     7.785465e-08     1.642398e-05                           (NR   MIcro)
  208     dE     7.730099e-08     1.029876e-05                           (NR   MIcro)
  208     dE     7.643854e-08     2.165077e-05                           (NR   MIcro)
  208     dE     7.582837e-08     8.463950e-06                           (NR   MIcro)
  208     dE     7.573348e-08     4.244544e-06                           (NR   MIcro)
  208     dE     7.564804e-08     9.083515e-06                           (NR   MIcro)
  208     dE     7.523094e-08     1.151268e-05                           (NR   MIcro)
  208     dE     7.500834e-08     6.288749e-06                           (NR   MIcro)
  208     dE     7.491858e-08     5.534101e-06                           (NR   MIcro)
  208     dE     7.474348e-08     8.035155e-06                           (NR   MIcro)
  208     dE     7.429934e-08     1.391776e-05                           (NR   MIcro)
  208     dE     7.389030e-08     9.608890e-06                           (NR   MIcro)
  209       -295.077847904073     2.582844e-05                           (NR   MAcro)
  209     dE    -4.416588e-09     4.499339e-05                           (NR   MIcro)
  209     dE    -2.969445e-08     1.225376e-04                           (NR   MIcro)
  209     dE    -2.214167e-07     2.844066e-04                           (NR   MIcro)
  209     dE     6.047793e-07     7.310777e-04                           (NR   MIcro)
  209     dE     2.117730e-07     1.241501e-04                           (NR   MIcro)
  209     dE     1.897023e-07     3.791289e-05                           (NR   MIcro)
  209     dE     1.792324e-07     5.936740e-05                           (NR   MIcro)
  209     dE     1.499141e-07     1.067774e-04                           (NR   MIcro)
  209     dE     1.111210e-07     7.455085e-05                           (NR   MIcro)
  209     dE     1.024577e-07     2.038949e-05                           (NR   MIcro)
  209     dE     9.807758e-08     4.049499e-05                           (NR   MIcro)
  209     dE     9.331642e-08     3.044066e-05                           (NR   MIcro)
  209     dE     9.010661e-08     2.708859e-05                           (NR   MIcro)
  209     dE     8.782821e-08     2.664153e-05                           (NR   MIcro)
  209     dE     8.638509e-08     1.338004e-05                           (NR   MIcro)
  209     dE     8.617796e-08     6.375206e-06                           (NR   MIcro)
  209     dE     8.599960e-08     8.726066e-06                           (NR   MIcro)
  209     dE     8.527749e-08     2.232740e-05                           (NR   MIcro)
  209     dE     8.478267e-08     6.232018e-06                           (NR   MIcro)
  209     dE     8.471174e-08     3.676059e-06                           (NR   MIcro)
  209     dE     8.461689e-08     7.685352e-06                           (NR   MIcro)
  209     dE     8.450221e-08     5.405883e-06                           (NR   MIcro)
  209     dE     8.430011e-08     1.175603e-05                           (NR   MIcro)
  209     dE     8.351207e-08     1.664703e-05                           (NR   MIcro)
  210       -295.077847734752     3.139108e-05                           (NR   MAcro)
  210     dE    -3.961230e-09     3.715963e-05                           (NR   MIcro)
  210     dE    -1.810912e-08     9.633369e-05                           (NR   MIcro)
  210     dE    -3.694546e-07     7.260885e-04                           (NR   MIcro)
  210     dE     3.640029e-07     2.502875e-04                           (NR   MIcro)
  210     dE     2.607792e-07     1.013786e-04                           (NR   MIcro)
  210     dE     2.280303e-07     8.625979e-05                           (NR   MIcro)
  210     dE     2.110685e-07     4.844720e-05                           (NR   MIcro)
  210     dE     1.953432e-07     1.001704e-04                           (NR   MIcro)
  210     dE     1.384108e-07     1.256946e-04                           (NR   MIcro)
  210     dE     1.098921e-07     3.574485e-05                           (NR   MIcro)
  210     dE     1.076830e-07     1.730316e-05                           (NR   MIcro)
  210     dE     1.066921e-07     1.643049e-05                           (NR   MIcro)
  210     dE     1.044546e-07     3.244846e-05                           (NR   MIcro)
  210     dE     1.029180e-07     1.662917e-05                           (NR   MIcro)
  210     dE     1.010597e-07     3.257643e-05                           (NR   MIcro)
  210     dE     9.998506e-08     1.045633e-05                           (NR   MIcro)
  210     dE     9.983116e-08     5.559111e-06                           (NR   MIcro)
  210     dE     9.972080e-08     9.115366e-06                           (NR   MIcro)
  210     dE     9.926160e-08     1.100336e-05                           (NR   MIcro)
  210     dE     9.903942e-08     6.070541e-06                           (NR   MIcro)
  210     dE     9.895103e-08     4.789046e-06                           (NR   MIcro)
  210     dE     9.878456e-08     8.364643e-06                           (NR   MIcro)
  210     dE     9.828689e-08     1.406734e-05                           (NR   MIcro)
  210     dE     9.776988e-08     1.067454e-05                           (NR   MIcro)
  211       -295.077847536263     3.192042e-05                           (NR   MAcro)
  211     dE    -4.433974e-09     3.973621e-05                           (NR   MIcro)
  211     dE    -2.460692e-08     1.080207e-04                           (NR   MIcro)
  211     dE    -1.304734e-07     1.714005e-04                           (NR   MIcro)
  211     dE    -1.169227e-06     1.531169e-03                           (NR   MIcro)
  211     dE     3.633390e-07     2.289435e-04                           (NR   MIcro)
  211     dE     3.008454e-07     5.652147e-05                           (NR   MIcro)
  211     dE     2.826726e-07     7.535838e-05                           (NR   MIcro)
  211     dE     2.368723e-07     1.306961e-04                           (NR   MIcro)
  211     dE     1.741986e-07     9.768465e-05                           (NR   MIcro)
  211     dE     1.583673e-07     2.832765e-05                           (NR   MIcro)
  211     dE     1.511653e-07     4.832413e-05                           (NR   MIcro)
  211     dE     1.424246e-07     4.329802e-05                           (NR   MIcro)
  211     dE     1.360389e-07     3.551929e-05                           (NR   MIcro)
  211     dE     1.310300e-07     4.067994e-05                           (NR   MIcro)
  211     dE     1.271940e-07     1.970736e-05                           (NR   MIcro)
  211     dE     1.266938e-07     1.034116e-05                           (NR   MIcro)
  211     dE     1.262145e-07     1.423008e-05                           (NR   MIcro)
  211     dE     1.245790e-07     2.965227e-05                           (NR   MIcro)
  211     dE     1.236705e-07     8.337444e-06                           (NR   MIcro)
  211     dE     1.235555e-07     4.424574e-06                           (NR   MIcro)
  211     dE     1.234248e-07     8.824706e-06                           (NR   MIcro)
  211     dE     1.232836e-07     5.814719e-06                           (NR   MIcro)
  211     dE     1.230365e-07     1.376365e-05                           (NR   MIcro)
  211     dE     1.218999e-07     2.219119e-05                           (NR   MIcro)
  212       -295.077847287654     4.406131e-05                           (NR   MAcro)
  212     dE    -4.573488e-09     3.146661e-05                           (NR   MIcro)
  212     dE    -1.352215e-08     7.505537e-05                           (NR   MIcro)
  212     dE    -1.342533e-07     2.960361e-04                           (NR   MIcro)
  212     dE    -3.512554e-06     2.945837e-03                           (NR   MIcro)
  212     dE     7.958788e-07     3.568863e-04                           (NR   MIcro)
  212     dE     5.407008e-07     2.088251e-04                           (NR   MIcro)
  212     dE     4.607107e-07     9.170595e-05                           (NR   MIcro)
  212     dE     4.236496e-07     1.448543e-04                           (NR   MIcro)
  212     dE     3.018485e-07     2.027973e-04                           (NR   MIcro)
  212     dE     2.141917e-07     7.326382e-05                           (NR   MIcro)
  212     dE     2.054708e-07     3.178409e-05                           (NR   MIcro)
  212     dE     2.022119e-07     3.009741e-05                           (NR   MIcro)
  212     dE     1.940360e-07     6.414367e-05                           (NR   MIcro)
  212     dE     1.884333e-07     3.075806e-05                           (NR   MIcro)
  212     dE     1.820549e-07     6.161298e-05                           (NR   MIcro)
  212     dE     1.781780e-07     2.006606e-05                           (NR   MIcro)
  212     dE     1.775583e-07     1.159521e-05                           (NR   MIcro)
  212     dE     1.770744e-07     1.928126e-05                           (NR   MIcro)
  212     dE     1.755006e-07     1.739649e-05                           (NR   MIcro)
  212     dE     1.749821e-07     8.752294e-06                           (NR   MIcro)
  212     dE     1.748201e-07     5.761628e-06                           (NR   MIcro)
  212     dE     1.745801e-07     1.040601e-05                           (NR   MIcro)
  212     dE     1.737679e-07     1.846834e-05                           (NR   MIcro)
  212     dE     1.727395e-07     1.566194e-05                           (NR   MIcro)
  213       -295.077846931971     5.730503e-05                           (NR   MAcro)
  213     dE    -6.272495e-09     3.065706e-05                           (NR   MIcro)
  213     dE    -1.797198e-08     8.034779e-05                           (NR   MIcro)
  213     dE    -6.764857e-08     9.649013e-05                           (NR   MIcro)
  213     dE    -1.603255e-07     2.470169e-04                           (NR   MIcro)
  213     dE    -1.409846e-06     1.099352e-03                           (NR   MIcro)
  213     dE     1.035874e-05     2.150917e-03                           (NR   MIcro)
  213     dE     4.184400e-06     7.046434e-04                           (NR   MIcro)
  213     dE     2.013410e-06     6.973965e-04                           (NR   MIcro)
  213     dE     8.056363e-07     3.598178e-04                           (NR   MIcro)
  213     dE     6.055394e-07     1.003944e-04                           (NR   MIcro)
  213     dE     5.586336e-07     1.027276e-04                           (NR   MIcro)
  213     dE     5.100290e-07     1.084044e-04                           (NR   MIcro)
  213     dE     4.702808e-07     8.289611e-05                           (NR   MIcro)
  213     dE     4.360211e-07     1.164641e-04                           (NR   MIcro)
  213     dE     3.932427e-07     6.927298e-05                           (NR   MIcro)
  213     dE     3.875403e-07     2.793646e-05                           (NR   MIcro)
  213     dE     3.840198e-07     3.881942e-05                           (NR   MIcro)
  213     dE     3.701033e-07     8.601465e-05                           (NR   MIcro)
  213     dE     3.621107e-07     2.872777e-05                           (NR   MIcro)
  213     dE     3.609144e-07     1.360826e-05                           (NR   MIcro)
  213     dE     3.600089e-07     2.235451e-05                           (NR   MIcro)
  213     dE     3.592500e-07     1.065001e-05                           (NR   MIcro)
  213     dE     3.583075e-07     2.905658e-05                           (NR   MIcro)
  213     dE     3.511382e-07     5.904239e-05                           (NR   MIcro)
  214       -295.077846177215     1.553681e-04                     0.055 (TRAH MAcro)   No
  214     dE    -2.561394e-08     3.357193e-05    -2.5614e-08      0.000 (TRAH MIcro)
  214     dE    -3.026524e-08     3.969852e-05    -3.0265e-08      0.000 (TRAH MIcro)
  214     dE    -6.003737e-08     1.219813e-04    -6.0037e-08      0.003 (TRAH MIcro)
  214     dE    -1.377207e-07     1.617582e-04    -1.3771e-07      0.009 (TRAH MIcro)
  214     dE    -2.601615e-07     1.502235e-04    -2.6007e-07      0.019 (TRAH MIcro)
  214     dE    -3.310799e-07     1.420567e-04    -3.3087e-07      0.025 (TRAH MIcro)
  214     dE    -4.007973e-07     9.348821e-05    -4.0041e-07      0.031 (TRAH MIcro)
  214     dE    -4.158496e-07     5.971562e-05    -4.1542e-07      0.032 (TRAH MIcro)
  214     dE    -4.455505e-07     1.416062e-04    -4.4501e-07      0.035 (TRAH MIcro)
  214     dE    -6.019176e-07     1.943130e-04    -6.0047e-07      0.049 (TRAH MIcro)
  214     dE    -6.504925e-07     6.397065e-05    -6.4862e-07      0.054 (TRAH MIcro)
  214     dE    -6.645923e-07     6.212682e-05    -1.8984e-06      0.055 (TRAH MIcro)
  214     dE    -6.933031e-07     1.160391e-04    -1.2674e-05      0.055 (TRAH MIcro)
  214     dE    -7.243525e-07     7.772766e-05    -2.4506e-05      0.055 (TRAH MIcro)
  214     dE    -7.628947e-07     1.571737e-04    -3.9566e-05      0.055 (TRAH MIcro)
  214     dE    -8.100860e-07     8.495891e-05    -5.8687e-05      0.055 (TRAH MIcro)
  214     dE    -8.233991e-07     5.421546e-05    -6.4204e-05      0.055 (TRAH MIcro)
  214     dE    -8.359790e-07     1.061093e-04    -6.9468e-05      0.055 (TRAH MIcro)
  214     dE    -8.856770e-07     1.207115e-04    -9.0977e-05      0.055 (TRAH MIcro)
  214     dE    -9.134952e-07     7.175739e-05    -1.0353e-04      0.055 (TRAH MIcro)
  214     dE    -9.203768e-07     3.633873e-05    -1.0670e-04      0.055 (TRAH MIcro)
  214     dE    -9.315681e-07     8.490706e-05    -1.1188e-04      0.055 (TRAH MIcro)
  214     dE    -9.091554e-07     1.323416e-04    -1.4806e-04      0.050 (TRAH MIcro)
  215       -295.077846954381     2.049375e-04                     0.066 (TRAH MAcro)   No
  215     dE    -4.765405e-08     5.899546e-05    -4.7654e-08      0.000 (TRAH MIcro)
  215     dE    -6.172201e-08     6.466821e-05    -6.1722e-08      0.001 (TRAH MIcro)
  215     dE    -8.266211e-08     6.128014e-05    -8.2662e-08      0.001 (TRAH MIcro)
  215     dE    -9.898731e-08     7.806276e-05    -9.8987e-08      0.002 (TRAH MIcro)
  215     dE    -1.413782e-07     1.504594e-04    -1.4137e-07      0.005 (TRAH MIcro)
  215     dE    -2.787190e-07     2.003929e-04    -2.7866e-07      0.015 (TRAH MIcro)
  215     dE    -3.310032e-07     8.003228e-05    -3.3089e-07      0.019 (TRAH MIcro)
  215     dE    -3.718210e-07     1.637145e-04    -3.7164e-07      0.022 (TRAH MIcro)
  215     dE    -9.115286e-07     7.446661e-04    -9.0783e-07      0.064 (TRAH MIcro)
  215     dE    -1.721856e-06     2.752129e-04    -2.3053e-04      0.062 (TRAH MIcro)
  215     dE    -2.003320e-06     1.867998e-04    -2.6321e-04      0.066 (TRAH MIcro)
  215     dE    -2.137115e-06     2.152048e-04    -2.9649e-04      0.066 (TRAH MIcro)
  215     dE    -2.304409e-06     2.177783e-04    -3.3810e-04      0.066 (TRAH MIcro)
  215     dE    -2.424235e-06     2.932347e-04    -3.6839e-04      0.066 (TRAH MIcro)
  215     dE    -2.563086e-06     1.437406e-04    -4.0392e-04      0.066 (TRAH MIcro)
  215     dE    -2.607304e-06     9.567977e-05    -4.1538e-04      0.066 (TRAH MIcro)
  215     dE    -2.618535e-06     4.472757e-05    -4.1828e-04      0.066 (TRAH MIcro)
  215     dE    -1.352901e-06     9.082298e-05    -5.3927e-04      0.039 (TRAH MIcro)
  215     dE    -1.444352e-06     5.691422e-05    -5.4937e-04      0.041 (TRAH MIcro)
  215     dE    -1.467324e-06     2.615548e-05    -5.5158e-04      0.041 (TRAH MIcro)
  215     dE    -1.474738e-06     1.776873e-05    -5.5227e-04      0.041 (TRAH MIcro)
  216       -295.077847751848     9.496823e-05                           (NR   MAcro)
  216     dE    -1.091007e-08     2.361943e-05                           (NR   MIcro)
  216     dE    -2.013892e-08     7.532327e-05                           (NR   MIcro)
  216     dE    -6.440038e-08     1.315816e-04                           (NR   MIcro)
  216     dE    -1.507193e-07     1.646215e-04                           (NR   MIcro)
  216     dE    -4.777607e-07     3.362183e-04                           (NR   MIcro)
  216     dE    -1.065333e-06     4.545877e-04                           (NR   MIcro)
  216     dE    -6.565279e-06     2.657407e-03                           (NR   MIcro)
  216     dE     7.257083e-07     6.510055e-04                           (NR   MIcro)
  216     dE     1.574098e-07     1.193747e-04                           (NR   MIcro)
  216     dE     1.387215e-07     3.420236e-05                           (NR   MIcro)
  216     dE     1.353497e-07     2.665067e-05                           (NR   MIcro)
  216     dE     1.275768e-07     5.277047e-05                           (NR   MIcro)
  216     dE     1.213406e-07     3.632363e-05                           (NR   MIcro)
  216     dE     1.074343e-07     1.054578e-04                           (NR   MIcro)
  216     dE     9.036953e-08     4.300524e-05                           (NR   MIcro)
  216     dE     8.715895e-08     2.063625e-05                           (NR   MIcro)
  216     dE     8.659104e-08     1.333820e-05                           (NR   MIcro)
  216     dE     8.550862e-08     2.781359e-05                           (NR   MIcro)
  216     dE     8.358619e-08     2.031283e-05                           (NR   MIcro)
  216     dE     8.301577e-08     8.237544e-06                           (NR   MIcro)
  216     dE     8.271191e-08     1.191208e-05                           (NR   MIcro)
  216     dE     8.181553e-08     1.605346e-05                           (NR   MIcro)
  216     dE     8.070874e-08     2.486092e-05                           (NR   MIcro)
  216     dE     7.643876e-08     4.717268e-05                           (NR   MIcro)
  217       -295.077847563234     5.927418e-05                           (NR   MAcro)
  217     dE    -5.476953e-09     2.760883e-05                           (NR   MIcro)
  217     dE    -1.057527e-08     4.822656e-05                           (NR   MIcro)
  217     dE    -4.439569e-08     1.499620e-04                           (NR   MIcro)
  217     dE    -1.368413e-07     1.837877e-04                           (NR   MIcro)
  217     dE    -6.287711e-07     7.844139e-04                           (NR   MIcro)
  217     dE     7.182286e-07     4.561233e-04                           (NR   MIcro)
  217     dE     4.787964e-07     1.359067e-04                           (NR   MIcro)
  217     dE     4.214002e-07     1.601639e-04                           (NR   MIcro)
  217     dE     2.902088e-07     2.235654e-04                           (NR   MIcro)
  217     dE     2.017177e-07     8.037702e-05                           (NR   MIcro)
  217     dE     1.908649e-07     4.025196e-05                           (NR   MIcro)
  217     dE     1.832660e-07     5.704511e-05                           (NR   MIcro)
  217     dE     1.592026e-07     9.075966e-05                           (NR   MIcro)
  217     dE     1.499964e-07     4.682821e-05                           (NR   MIcro)
  217     dE     1.430973e-07     5.547644e-05                           (NR   MIcro)
  217     dE     1.391755e-07     2.022970e-05                           (NR   MIcro)
  217     dE     1.381120e-07     1.398720e-05                           (NR   MIcro)
  217     dE     1.357636e-07     4.711695e-05                           (NR   MIcro)
  217     dE     1.307121e-07     2.175936e-05                           (NR   MIcro)
  217     dE     1.298620e-07     1.060495e-05                           (NR   MIcro)
  217     dE     1.296479e-07     5.577664e-06                           (NR   MIcro)
  217     dE     1.294867e-07     6.575561e-06                           (NR   MIcro)
  217     dE     1.292925e-07     7.106918e-06                           (NR   MIcro)
  217     dE     1.289868e-07     9.817561e-06                           (NR   MIcro)
  218       -295.077847292652     4.262197e-05                           (NR   MAcro)
  218     dE    -4.494281e-09     3.200378e-05                           (NR   MIcro)
  218     dE    -2.418890e-08     1.175578e-04                           (NR   MIcro)
  218     dE    -2.086340e-07     2.885979e-04                           (NR   MIcro)
  218     dE    -1.251316e-06     1.004094e-03                           (NR   MIcro)
  218     dE     8.135294e-07     4.248304e-04                           (NR   MIcro)
  218     dE     5.733060e-07     1.177680e-04                           (NR   MIcro)
  218     dE     5.333048e-07     7.925543e-05                           (NR   MIcro)
  218     dE     4.912597e-07     1.358346e-04                           (NR   MIcro)
  218     dE     3.157023e-07     1.871893e-04                           (NR   MIcro)
  218     dE     2.565294e-07     5.587079e-05                           (NR   MIcro)
  218     dE     2.463026e-07     4.071630e-05                           (NR   MIcro)
  218     dE     2.386749e-07     4.219578e-05                           (NR   MIcro)
  218     dE     2.326332e-07     3.212997e-05                           (NR   MIcro)
  218     dE     2.280156e-07     4.300350e-05                           (NR   MIcro)
  218     dE     2.196409e-07     4.266480e-05                           (NR   MIcro)
  218     dE     2.172480e-07     1.403623e-05                           (NR   MIcro)
  218     dE     2.168291e-07     1.029009e-05                           (NR   MIcro)
  218     dE     2.158420e-07     2.886626e-05                           (NR   MIcro)
  218     dE     2.138864e-07     2.004887e-05                           (NR   MIcro)
  218     dE     2.135638e-07     5.552217e-06                           (NR   MIcro)
  218     dE     2.134158e-07     1.005033e-05                           (NR   MIcro)
  218     dE     2.131450e-07     7.647684e-06                           (NR   MIcro)
  218     dE     2.128472e-07     1.215748e-05                           (NR   MIcro)
  218     dE     2.118562e-07     2.367476e-05                           (NR   MIcro)
  219       -295.077846851102     7.717289e-05                           (NR   MAcro)
  219     dE    -7.986825e-09     2.704422e-05                           (NR   MIcro)
  219     dE    -1.526684e-08     6.684788e-05                           (NR   MIcro)
  219     dE    -9.782122e-08     1.987936e-04                           (NR   MIcro)
  219     dE    -2.360728e-07     2.335083e-04                           (NR   MIcro)
  219     dE    -5.408474e-07     3.985391e-04                           (NR   MIcro)
  219     dE    -1.310168e-06     5.846560e-04                           (NR   MIcro)
  219     dE    -1.868516e-06     2.430584e-04                           (NR   MIcro)
  219     dE    -2.317621e-06     5.559311e-04                           (NR   MIcro)
  219     dE     9.036382e-06     4.234563e-03                           (NR   MIcro)
  219     dE     1.695951e-06     4.119564e-04                           (NR   MIcro)
  219     dE     1.434265e-06     1.790103e-04                           (NR   MIcro)
  219     dE     1.306406e-06     2.319280e-04                           (NR   MIcro)
  219     dE     1.109760e-06     2.778700e-04                           (NR   MIcro)
  219     dE     9.809597e-07     1.981768e-04                           (NR   MIcro)
  219     dE     8.535181e-07     1.755930e-04                           (NR   MIcro)
  219     dE     7.883628e-07     9.753294e-05                           (NR   MIcro)
  219     dE     7.734530e-07     5.536646e-05                           (NR   MIcro)
  219     dE     7.480885e-07     1.473892e-04                           (NR   MIcro)
  219     dE     6.884673e-07     9.755849e-05                           (NR   MIcro)
  219     dE     6.787543e-07     2.953839e-05                           (NR   MIcro)
  219     dE     6.755047e-07     3.878500e-05                           (NR   MIcro)
  219     dE     6.674749e-07     5.055583e-05                           (NR   MIcro)
  219     dE     6.535963e-07     7.590717e-05                           (NR   MIcro)
  219     dE     6.154763e-07     1.345640e-04                           (NR   MIcro)
  220       -295.077845265365     3.695388e-04                     0.066 (TRAH MAcro)   No
  220     dE    -1.433869e-07     7.628460e-05    -1.4339e-07      0.001 (TRAH MIcro)
  220     dE    -1.625822e-07     7.327248e-05    -1.6258e-07      0.001 (TRAH MIcro)
  220     dE    -1.911063e-07     6.514743e-05    -1.9111e-07      0.002 (TRAH MIcro)
  220     dE    -2.106955e-07     9.035392e-05    -2.1069e-07      0.002 (TRAH MIcro)
  220     dE    -2.611245e-07     1.438060e-04    -2.6112e-07      0.005 (TRAH MIcro)
  220     dE    -4.002060e-07     2.533370e-04    -4.0013e-07      0.014 (TRAH MIcro)
  220     dE    -4.646244e-07     7.496219e-05    -4.6448e-07      0.018 (TRAH MIcro)
  220     dE    -4.835514e-07     1.014468e-04    -4.8338e-07      0.019 (TRAH MIcro)
  220     dE    -5.519480e-07     1.873424e-04    -5.5164e-07      0.024 (TRAH MIcro)
  220     dE    -7.721627e-07     3.198612e-04    -7.7097e-07      0.039 (TRAH MIcro)
  220     dE    -9.135826e-07     2.401025e-04    -9.1131e-07      0.050 (TRAH MIcro)
  220     dE    -1.086041e-06     2.117335e-04    -1.0817e-06      0.063 (TRAH MIcro)
  220     dE    -1.226854e-06     2.064453e-04    -2.8407e-05      0.066 (TRAH MIcro)
  220     dE    -1.366236e-06     2.480344e-04    -6.4323e-05      0.066 (TRAH MIcro)
  220     dE    -1.739495e-06     3.884853e-04    -1.6658e-04      0.065 (TRAH MIcro)
  220     dE    -1.733661e-06     1.163422e-04    -2.4985e-04      0.058 (TRAH MIcro)
  220     dE    -1.842660e-06     1.025841e-04    -2.5546e-04      0.060 (TRAH MIcro)
  220     dE    -2.149241e-06     3.011120e-04    -2.7366e-04      0.066 (TRAH MIcro)
  220     dE    -2.624738e-06     2.856497e-04    -4.0699e-04      0.066 (TRAH MIcro)
  220     dE    -1.163970e-06     3.758338e-05    -5.7407e-04      0.033 (TRAH MIcro)
  220     dE    -1.185436e-06     3.778174e-05    -5.7633e-04      0.033 (TRAH MIcro)
  220     dE    -1.204831e-06     2.184452e-05    -5.7827e-04      0.033 (TRAH MIcro)
  221       -295.077845888850     8.116161e-05                           (NR   MAcro)
  221     dE    -1.084659e-08     3.429876e-05                           (NR   MIcro)
  221     dE    -2.346831e-08     8.625695e-05                           (NR   MIcro)
  221     dE    -1.109773e-07     1.598327e-04                           (NR   MIcro)
  221     dE    -1.699294e-07     7.263309e-05                           (NR   MIcro)
  221     dE    -1.840515e-07     4.586772e-05                           (NR   MIcro)
  221     dE    -1.974709e-07     6.758188e-05                           (NR   MIcro)
  221     dE    -2.224422e-07     7.886127e-05                           (NR   MIcro)
  221     dE    -2.453521e-07     8.143809e-05                           (NR   MIcro)
  221     dE    -2.987000e-07     1.267296e-04                           (NR   MIcro)
  221     dE    -3.321225e-07     4.286542e-05                           (NR   MIcro)
  221     dE    -3.367355e-07     1.819133e-05                           (NR   MIcro)
  221     dE    -3.385412e-07     2.609633e-05                           (NR   MIcro)
  221     dE    -3.454737e-07     5.528491e-05                           (NR   MIcro)
  221     dE    -3.516772e-07     2.490548e-05                           (NR   MIcro)
  221     dE    -3.534276e-07     1.987833e-05                           (NR   MIcro)
  221     dE    -3.575333e-07     4.882802e-05                           (NR   MIcro)
  221     dE    -3.631681e-07     3.582174e-05                           (NR   MIcro)
  221     dE    -3.722043e-07     7.839463e-05                           (NR   MIcro)
  221     dE    -3.941678e-07     8.550462e-05                           (NR   MIcro)
  221     dE    -4.020246e-07     3.419960e-05                           (NR   MIcro)
  221     dE    -4.044291e-07     2.965830e-05                           (NR   MIcro)
  221     dE    -4.125202e-07     7.669720e-05                           (NR   MIcro)
  221     dE    -6.240885e-07     8.355733e-04                           (NR   MIcro)
  221     dE    -2.919671e-07     7.449919e-05                           (NR   MIcro)
  222       -295.077846359627     8.832075e-05                           (NR   MAcro)
  222     dE    -9.209494e-09     2.744265e-05                           (NR   MIcro)
  222     dE    -1.510065e-08     5.458007e-05                           (NR   MIcro)
  222     dE    -5.563133e-08     1.453771e-04                           (NR   MIcro)
  222     dE    -1.594276e-07     1.437985e-04                           (NR   MIcro)
  222     dE    -2.487937e-07     1.479946e-04                           (NR   MIcro)
  222     dE    -3.242195e-07     1.233394e-04                           (NR   MIcro)
  222     dE    -3.627288e-07     6.578122e-05                           (NR   MIcro)
  222     dE    -3.785378e-07     6.775266e-05                           (NR   MIcro)
  222     dE    -4.189419e-07     1.602556e-04                           (NR   MIcro)
  222     dE    -6.669904e-07     2.653330e-04                           (NR   MIcro)
  222     dE    -7.524599e-07     8.371727e-05                           (NR   MIcro)
  222     dE    -7.752985e-07     7.952968e-05                           (NR   MIcro)
  222     dE    -8.204296e-07     1.512701e-04                           (NR   MIcro)
  222     dE    -9.057759e-07     1.470551e-04                           (NR   MIcro)
  222     dE    -1.007830e-06     3.027356e-04                           (NR   MIcro)
  222     dE    -1.173318e-06     1.762504e-04                           (NR   MIcro)
  222     dE    -1.257513e-06     1.640918e-04                           (NR   MIcro)
  222     dE    -1.362974e-06     3.121665e-04                           (NR   MIcro)
  222     dE    -2.509027e-06     8.974170e-04                           (NR   MIcro)
  222     dE     1.617546e-05     5.497322e-03                           (NR   MIcro)
  222     dE     3.757858e-06     6.614595e-04                           (NR   MIcro)
  222     dE     1.606971e-06     9.320789e-04                           (NR   MIcro)
  222     dE     1.664355e-07     3.344594e-04                           (NR   MIcro)
  222     dE    -1.344549e-07     2.281708e-04                           (NR   MIcro)
  223       -295.077846037269     2.568851e-04                     0.066 (TRAH MAcro)   No
  223     dE    -1.167983e-07     1.321048e-04    -1.1680e-07      0.001 (TRAH MIcro)
  223     dE    -2.090103e-07     1.373995e-04    -2.0901e-07      0.002 (TRAH MIcro)
  223     dE    -2.381011e-07     5.349886e-05    -2.3810e-07      0.002 (TRAH MIcro)
  223     dE    -2.546938e-07     8.342256e-05    -2.5469e-07      0.002 (TRAH MIcro)
  223     dE    -3.668807e-07     2.636249e-04    -3.6686e-07      0.008 (TRAH MIcro)
  223     dE    -6.082968e-07     1.944350e-04    -6.0803e-07      0.021 (TRAH MIcro)
  223     dE    -7.055135e-07     1.389531e-04    -7.0503e-07      0.026 (TRAH MIcro)
  223     dE    -8.173087e-07     2.213219e-04    -8.1646e-07      0.032 (TRAH MIcro)
  223     dE    -1.247972e-06     5.124098e-04    -1.2440e-06      0.057 (TRAH MIcro)
  223     dE    -1.919308e-06     3.038003e-04    -1.2942e-04      0.066 (TRAH MIcro)
  223     dE    -2.228072e-06     2.674784e-04    -2.0670e-04      0.066 (TRAH MIcro)
  223     dE    -2.033816e-06     1.498427e-04    -3.1066e-04      0.054 (TRAH MIcro)
  223     dE    -2.161561e-06     1.260744e-04    -3.1881e-04      0.056 (TRAH MIcro)
  223     dE    -2.456704e-06     2.409929e-04    -3.3576e-04      0.061 (TRAH MIcro)
  223     dE    -2.990350e-06     2.691649e-04    -4.0469e-04      0.066 (TRAH MIcro)
  223     dE    -3.033231e-06     5.809779e-05    -4.1641e-04      0.066 (TRAH MIcro)
  223     dE    -3.039444e-06     4.186799e-05    -4.1811e-04      0.066 (TRAH MIcro)
  223     dE    -3.046705e-06     6.371463e-05    -4.2010e-04      0.066 (TRAH MIcro)
  223     dE    -3.058487e-06     7.476751e-05    -4.2479e-04      0.066 (TRAH MIcro)
  223     dE    -3.085175e-06     1.013394e-04    -4.3113e-04      0.066 (TRAH MIcro)
  223     dE    -3.131817e-06     1.074863e-04    -4.4566e-04      0.066 (TRAH MIcro)
  223     dE    -3.163206e-06     7.497122e-05    -4.5609e-04      0.066 (TRAH MIcro)
  223     dE    -3.170423e-06     2.320227e-05    -4.5855e-04      0.066 (TRAH MIcro)
  224       -295.077847044278     1.858531e-04                     0.066 (TRAH MAcro)   No
  224     dE    -4.056459e-08     4.292898e-05    -4.0565e-08      0.000 (TRAH MIcro)
  224     dE    -6.179860e-08     1.076954e-04    -6.1799e-08      0.001 (TRAH MIcro)
  224     dE    -1.893642e-07     1.873316e-04    -1.8935e-07      0.007 (TRAH MIcro)
  224     dE    -2.527149e-07     6.653463e-05    -2.5269e-07      0.010 (TRAH MIcro)
  224     dE    -2.666497e-07     4.969890e-05    -2.6662e-07      0.011 (TRAH MIcro)
  224     dE    -2.858412e-07     8.162324e-05    -2.8580e-07      0.012 (TRAH MIcro)
  224     dE    -3.388479e-07     1.340367e-04    -3.3877e-07      0.015 (TRAH MIcro)
  224     dE    -4.349893e-07     1.757653e-04    -4.3478e-07      0.022 (TRAH MIcro)
  224     dE    -9.491782e-07     5.731139e-04    -9.4558e-07      0.062 (TRAH MIcro)
  224     dE    -1.452251e-06     1.790487e-04    -2.1967e-04      0.055 (TRAH MIcro)
  224     dE    -1.620060e-06     7.204292e-05    -2.3049e-04      0.058 (TRAH MIcro)
  224     dE    -1.753838e-06     1.758372e-04    -2.3839e-04      0.061 (TRAH MIcro)
  224     dE    -2.176002e-06     2.846616e-04    -2.9895e-04      0.066 (TRAH MIcro)
  224     dE    -2.342000e-06     1.218658e-04    -3.4283e-04      0.066 (TRAH MIcro)
  224     dE    -2.342410e-06     8.503271e-05    -3.5698e-04      0.065 (TRAH MIcro)
  224     dE    -2.435509e-06     1.140849e-04    -3.6783e-04      0.066 (TRAH MIcro)
  224     dE    -2.464940e-06     7.767872e-05    -3.7584e-04      0.066 (TRAH MIcro)
  224     dE    -2.499795e-06     1.268891e-04    -3.8541e-04      0.066 (TRAH MIcro)
  224     dE    -2.554483e-06     1.140315e-04    -4.0062e-04      0.066 (TRAH MIcro)
  224     dE    -2.567686e-06     4.243014e-05    -4.0436e-04      0.066 (TRAH MIcro)
  224     dE    -2.574141e-06     6.854026e-05    -4.0620e-04      0.066 (TRAH MIcro)
  224     dE    -1.257723e-06     5.053413e-05    -5.3847e-04      0.037 (TRAH MIcro)
  224     dE    -1.292396e-06     4.017571e-05    -5.4174e-04      0.038 (TRAH MIcro)
  225       -295.077847759685     8.470288e-05                           (NR   MAcro)
  225     dE    -9.389395e-09     2.396463e-05                           (NR   MIcro)
  225     dE    -1.288123e-08     3.710881e-05                           (NR   MIcro)
  225     dE    -3.310591e-08     8.695438e-05                           (NR   MIcro)
  225     dE    -7.905577e-08     1.288171e-04                           (NR   MIcro)
  225     dE    -1.921050e-07     2.263846e-04                           (NR   MIcro)
  225     dE    -2.055194e-06     1.719405e-03                           (NR   MIcro)
  225     dE     1.662113e-06     5.000842e-04                           (NR   MIcro)
  225     dE     9.795132e-07     3.984352e-04                           (NR   MIcro)
  225     dE     3.616604e-07     3.046748e-04                           (NR   MIcro)
  225     dE     2.109851e-07     9.246119e-05                           (NR   MIcro)
  225     dE     1.918653e-07     4.797800e-05                           (NR   MIcro)
  225     dE     1.816076e-07     5.686147e-05                           (NR   MIcro)
  225     dE     1.639255e-07     6.892762e-05                           (NR   MIcro)
  225     dE     1.507586e-07     6.627140e-05                           (NR   MIcro)
  225     dE     1.343964e-07     6.507901e-05                           (NR   MIcro)
  225     dE     1.242696e-07     3.686584e-05                           (NR   MIcro)
  225     dE     1.218108e-07     2.470926e-05                           (NR   MIcro)
  225     dE     1.128587e-07     1.074525e-04                           (NR   MIcro)
  225     dE     9.395718e-08     5.345494e-05                           (NR   MIcro)
  225     dE     8.940848e-08     2.986277e-05                           (NR   MIcro)
  225     dE     8.811937e-08     1.916915e-05                           (NR   MIcro)
  225     dE     8.619552e-08     2.551897e-05                           (NR   MIcro)
  225     dE     8.340762e-08     3.325545e-05                           (NR   MIcro)
  225     dE     7.806508e-08     4.540564e-05                           (NR   MIcro)
  226       -295.077847570612     6.184176e-05                           (NR   MAcro)
  226     dE    -7.282566e-09     3.708236e-05                           (NR   MIcro)
  226     dE    -1.337928e-08     4.275364e-05                           (NR   MIcro)
  226     dE    -2.313885e-08     5.469586e-05                           (NR   MIcro)
  226     dE    -4.351523e-08     1.103660e-04                           (NR   MIcro)
  226     dE    -2.577826e-07     4.908219e-04                           (NR   MIcro)
  226     dE     7.113820e-07     5.391311e-04                           (NR   MIcro)
  226     dE     4.821299e-07     1.150357e-04                           (NR   MIcro)
  226     dE     4.464024e-07     1.162199e-04                           (NR   MIcro)
  226     dE     3.650498e-07     1.625310e-04                           (NR   MIcro)
  226     dE     2.954469e-07     9.517921e-05                           (NR   MIcro)
  226     dE     2.746972e-07     7.031432e-05                           (NR   MIcro)
  226     dE     2.606157e-07     5.606744e-05                           (NR   MIcro)
  226     dE     2.516737e-07     4.583143e-05                           (NR   MIcro)
  226     dE     2.415158e-07     9.103112e-05                           (NR   MIcro)
  226     dE     2.154972e-07     8.217820e-05                           (NR   MIcro)
  226     dE     2.034184e-07     4.452176e-05                           (NR   MIcro)
  226     dE     2.006052e-07     2.248184e-05                           (NR   MIcro)
  226     dE     1.951407e-07     8.012388e-05                           (NR   MIcro)
  226     dE     1.785936e-07     4.859376e-05                           (NR   MIcro)
  226     dE     1.740858e-07     2.721290e-05                           (NR   MIcro)
  226     dE     1.718428e-07     2.487416e-05                           (NR   MIcro)
  226     dE     1.704258e-07     1.204106e-05                           (NR   MIcro)
  226     dE     1.699571e-07     1.011689e-05                           (NR   MIcro)
  226     dE     1.691142e-07     2.120768e-05                           (NR   MIcro)
  227       -295.077847201456     6.553949e-05                           (NR   MAcro)
  227     dE    -6.313171e-09     2.507811e-05                           (NR   MIcro)
  227     dE    -1.326043e-08     6.571682e-05                           (NR   MIcro)
  227     dE    -1.153958e-07     2.182284e-04                           (NR   MIcro)
  227     dE    -3.577025e-07     3.119090e-04                           (NR   MIcro)
  227     dE    -1.145894e-06     6.731022e-04                           (NR   MIcro)
  227     dE     1.428204e-05     5.797970e-03                           (NR   MIcro)
  227     dE     3.072676e-06     4.491643e-04                           (NR   MIcro)
  227     dE     2.266453e-06     5.222603e-04                           (NR   MIcro)
  227     dE     1.096551e-06     4.572684e-04                           (NR   MIcro)
  227     dE     7.849250e-07     1.558464e-04                           (NR   MIcro)
  227     dE     7.420347e-07     7.124740e-05                           (NR   MIcro)
  227     dE     7.217323e-07     8.566153e-05                           (NR   MIcro)
  227     dE     6.867505e-07     1.154384e-04                           (NR   MIcro)
  227     dE     6.561677e-07     1.057541e-04                           (NR   MIcro)
  227     dE     6.146479e-07     1.053140e-04                           (NR   MIcro)
  227     dE     5.859759e-07     7.080703e-05                           (NR   MIcro)
  227     dE     5.777454e-07     4.360093e-05                           (NR   MIcro)
  227     dE     5.592139e-07     1.311869e-04                           (NR   MIcro)
  227     dE     5.096968e-07     1.108077e-04                           (NR   MIcro)
  227     dE     4.982223e-07     3.811051e-05                           (NR   MIcro)
  227     dE     4.956822e-07     3.012471e-05                           (NR   MIcro)
  227     dE     4.916357e-07     3.693878e-05                           (NR   MIcro)
  227     dE     4.849638e-07     5.687026e-05                           (NR   MIcro)
  227     dE     4.713558e-07     6.172937e-05                           (NR   MIcro)
  228       -295.077845997006     2.082309e-04                     0.066 (TRAH MAcro)   No
  228     dE    -4.902997e-08     4.629504e-05    -4.9030e-08      0.000 (TRAH MIcro)
  228     dE    -6.724410e-08     8.527387e-05    -6.7244e-08      0.001 (TRAH MIcro)
  228     dE    -9.788011e-08     7.424083e-05    -9.7880e-08      0.002 (TRAH MIcro)
  228     dE    -1.480856e-07     1.860075e-04    -1.4808e-07      0.005 (TRAH MIcro)
  228     dE    -3.578486e-07     2.791779e-04    -3.5773e-07      0.018 (TRAH MIcro)
  228     dE    -6.240867e-07     2.487151e-04    -6.2334e-07      0.035 (TRAH MIcro)
  228     dE    -7.016218e-07     9.609432e-05    -7.0054e-07      0.039 (TRAH MIcro)
  228     dE    -7.766244e-07     2.441592e-04    -7.7512e-07      0.044 (TRAH MIcro)
  228     dE    -1.378208e-06     4.855817e-04    -6.7020e-05      0.066 (TRAH MIcro)
  228     dE    -1.779158e-06     2.512675e-04    -1.6992e-04      0.065 (TRAH MIcro)
  228     dE    -1.602735e-06     1.435317e-04    -2.4275e-04      0.055 (TRAH MIcro)
  228     dE    -1.748656e-06     1.240493e-04    -2.5243e-04      0.057 (TRAH MIcro)
  228     dE    -1.851162e-06     1.104226e-04    -2.5873e-04      0.059 (TRAH MIcro)
  228     dE    -1.985304e-06     1.834551e-04    -2.6640e-04      0.062 (TRAH MIcro)
  228     dE    -2.250707e-06     1.934964e-04    -2.9096e-04      0.066 (TRAH MIcro)
  228     dE    -2.306421e-06     7.909542e-05    -3.0632e-04      0.066 (TRAH MIcro)
  228     dE    -2.328968e-06     9.510050e-05    -3.1260e-04      0.066 (TRAH MIcro)
  228     dE    -2.406959e-06     2.474212e-04    -3.3486e-04      0.066 (TRAH MIcro)
  228     dE    -2.553559e-06     1.732993e-04    -3.8457e-04      0.065 (TRAH MIcro)
  228     dE    -2.603989e-06     6.644782e-05    -3.9392e-04      0.066 (TRAH MIcro)
  228     dE    -2.621974e-06     9.132101e-05    -3.9952e-04      0.066 (TRAH MIcro)
  228     dE    -2.640269e-06     4.536041e-05    -4.0523e-04      0.066 (TRAH MIcro)
  228     dE    -2.659205e-06     8.302222e-05    -4.1113e-04      0.066 (TRAH MIcro)
  229       -295.077846490962     2.173288e-04                     0.044 (TRAH MAcro)   No
  229     dE    -5.713202e-08     5.805682e-05    -5.7132e-08      0.000 (TRAH MIcro)
  229     dE    -7.485512e-08     8.457516e-05    -7.4855e-08      0.001 (TRAH MIcro)
  229     dE    -1.382403e-07     1.270765e-04    -1.3824e-07      0.003 (TRAH MIcro)
  229     dE    -2.003792e-07     1.236816e-04    -2.0037e-07      0.006 (TRAH MIcro)
  229     dE    -2.630596e-07     1.204878e-04    -2.6304e-07      0.009 (TRAH MIcro)
  229     dE    -3.228836e-07     1.157757e-04    -3.2284e-07      0.012 (TRAH MIcro)
  229     dE    -3.490444e-07     5.428482e-05    -3.4898e-07      0.014 (TRAH MIcro)
  229     dE    -3.681524e-07     1.009539e-04    -3.6807e-07      0.015 (TRAH MIcro)
  229     dE    -5.081436e-07     3.061618e-04    -5.0786e-07      0.023 (TRAH MIcro)
  229     dE    -1.040805e-06     1.958359e-04    -1.4282e-04      0.044 (TRAH MIcro)
  229     dE    -1.085463e-06     9.562871e-05    -2.0090e-04      0.042 (TRAH MIcro)
  229     dE    -1.161978e-06     1.176465e-04    -2.1430e-04      0.044 (TRAH MIcro)
  229     dE    -1.216054e-06     9.608594e-05    -2.4665e-04      0.044 (TRAH MIcro)
  229     dE    -1.254982e-06     1.170787e-04    -2.7033e-04      0.044 (TRAH MIcro)
  229     dE    -1.305338e-06     1.022615e-04    -3.0332e-04      0.044 (TRAH MIcro)
  229     dE    -1.330551e-06     5.119453e-05    -3.1740e-04      0.044 (TRAH MIcro)
  229     dE    -1.338197e-06     4.815543e-05    -3.2224e-04      0.044 (TRAH MIcro)
  229     dE    -1.373388e-06     1.912789e-04    -3.4542e-04      0.044 (TRAH MIcro)
  229     dE    -9.743672e-07     5.642571e-05    -5.2723e-04      0.030 (TRAH MIcro)
  229     dE    -9.900014e-07     2.556904e-05    -5.2944e-04      0.030 (TRAH MIcro)
  229     dE    -9.961316e-07     3.070037e-05    -5.3027e-04      0.030 (TRAH MIcro)
  229     dE    -1.009046e-06     2.696026e-05    -5.3191e-04      0.031 (TRAH MIcro)
  229     dE    -1.023416e-06     3.844946e-05    -5.3367e-04      0.031 (TRAH MIcro)
  230       -295.077847141831     7.252923e-05                           (NR   MAcro)
  230     dE    -7.773209e-09     3.048136e-05                           (NR   MIcro)
  230     dE    -1.358104e-08     5.454215e-05                           (NR   MIcro)
  230     dE    -3.110733e-08     5.891980e-05                           (NR   MIcro)
  230     dE    -5.548912e-08     1.136685e-04                           (NR   MIcro)
  230     dE    -1.504559e-07     2.121637e-04                           (NR   MIcro)
  230     dE    -2.618648e-07     1.066574e-04                           (NR   MIcro)
  230     dE    -2.936293e-07     8.183945e-05                           (NR   MIcro)
  230     dE    -3.515908e-07     1.834899e-04                           (NR   MIcro)
  230     dE    -8.928516e-07     6.400379e-04                           (NR   MIcro)
  230     dE    -8.275537e-06     2.253441e-03                           (NR   MIcro)
  230     dE     3.073638e-05     5.249369e-03                           (NR   MIcro)
  230     dE     8.048368e-06     1.253925e-03                           (NR   MIcro)
  230     dE     4.367791e-06     7.167745e-04                           (NR   MIcro)
  230     dE     3.235146e-06     6.509031e-04                           (NR   MIcro)
  230     dE     2.259820e-06     4.787084e-04                           (NR   MIcro)
  230     dE     1.966759e-06     1.816269e-04                           (NR   MIcro)
  230     dE     1.901292e-06     1.177476e-04                           (NR   MIcro)
  230     dE     1.713936e-06     4.730000e-04                           (NR   MIcro)
  230     dE     1.405705e-06     1.708872e-04                           (NR   MIcro)
  230     dE     1.358915e-06     9.896865e-05                           (NR   MIcro)
  230     dE     1.331333e-06     1.022215e-04                           (NR   MIcro)
  230     dE     1.307654e-06     4.767700e-05                           (NR   MIcro)
  230     dE     1.294509e-06     8.498464e-05                           (NR   MIcro)
  230     dE     1.231465e-06     1.926288e-04                           (NR   MIcro)
  231       -295.077842629071     1.425490e-03                     0.044 (TRAH MAcro)   No
  231     dE    -1.740667e-06     9.652074e-05    -1.7407e-06      0.001 (TRAH MIcro)
  232       -295.077844369329     9.625890e-05                           (NR   MAcro)
  232     dE    -1.219868e-08     3.234847e-05                           (NR   MIcro)
  232     dE    -2.137607e-08     6.113511e-05                           (NR   MIcro)
  232     dE    -4.450023e-08     9.290205e-05                           (NR   MIcro)
  232     dE    -7.858249e-08     9.250296e-05                           (NR   MIcro)
  232     dE    -1.214324e-07     1.349762e-04                           (NR   MIcro)
  232     dE    -1.607849e-07     8.853500e-05                           (NR   MIcro)
  232     dE    -1.755120e-07     3.911497e-05                           (NR   MIcro)
  232     dE    -1.773181e-07     2.320704e-05                           (NR   MIcro)
  232     dE    -1.816782e-07     6.373305e-05                           (NR   MIcro)
  232     dE    -1.983012e-07     7.221476e-05                           (NR   MIcro)
  232     dE    -2.094227e-07     4.782795e-05                           (NR   MIcro)
  232     dE    -2.228456e-07     9.706734e-05                           (NR   MIcro)
  232     dE    -2.405522e-07     5.484861e-05                           (NR   MIcro)
  232     dE    -2.561176e-07     9.894442e-05                           (NR   MIcro)
  232     dE    -4.399459e-07     4.168240e-04                           (NR   MIcro)
  232     dE    -8.912263e-07     3.301220e-04                           (NR   MIcro)
  232     dE    -1.413884e-06     5.157460e-04                           (NR   MIcro)
  232     dE     4.599717e-06     4.279596e-03                           (NR   MIcro)
  232     dE     1.119914e-07     3.340149e-04                           (NR   MIcro)
  232     dE    -1.174313e-08     9.905555e-05                           (NR   MIcro)
  232     dE    -2.641629e-08     5.030330e-05                           (NR   MIcro)
  232     dE    -3.555534e-08     4.945291e-05                           (NR   MIcro)
  232     dE    -4.049938e-08     3.136595e-05                           (NR   MIcro)
  232     dE    -4.701209e-08     6.101320e-05                           (NR   MIcro)
  233       -295.077844310775     7.683516e-05                           (NR   MAcro)
  233     dE    -1.225266e-08     5.015405e-05                           (NR   MIcro)
  233     dE    -3.132695e-08     9.311311e-05                           (NR   MIcro)
  233     dE    -8.314032e-08     1.242678e-04                           (NR   MIcro)
  233     dE    -1.468867e-07     1.275976e-04                           (NR   MIcro)
  233     dE    -2.369413e-07     1.539520e-04                           (NR   MIcro)
  233     dE    -2.951391e-07     9.996757e-05                           (NR   MIcro)
  233     dE    -3.170553e-07     5.274302e-05                           (NR   MIcro)
  233     dE    -3.408380e-07     1.309024e-04                           (NR   MIcro)
  233     dE    -4.754722e-07     2.935191e-04                           (NR   MIcro)
  233     dE    -7.803570e-07     1.838409e-04                           (NR   MIcro)
  233     dE    -8.698556e-07     1.324301e-04                           (NR   MIcro)
  233     dE    -9.891459e-07     2.387610e-04                           (NR   MIcro)
  233     dE    -1.747069e-06     6.078537e-04                           (NR   MIcro)
  233     dE    -4.631792e-06     1.445119e-03                           (NR   MIcro)
  233     dE     1.944932e-06     1.064353e-03                           (NR   MIcro)
  233     dE     1.071279e-06     2.429615e-04                           (NR   MIcro)
  233     dE     8.704750e-07     2.557088e-04                           (NR   MIcro)
  233     dE     4.600768e-07     4.818332e-04                           (NR   MIcro)
  233     dE     2.559416e-07     1.121430e-04                           (NR   MIcro)
  233     dE     2.343465e-07     6.071260e-05                           (NR   MIcro)
  233     dE     2.225850e-07     6.835098e-05                           (NR   MIcro)
  233     dE     1.992231e-07     9.386863e-05                           (NR   MIcro)
  233     dE     1.736000e-07     1.086581e-04                           (NR   MIcro)
  233     dE     1.289554e-07     1.132363e-04                           (NR   MIcro)
  234       -295.077843727629     1.450602e-04                     0.053 (TRAH MAcro)   No
  234     dE    -3.673221e-08     6.943448e-05    -3.6732e-08      0.000 (TRAH MIcro)
  234     dE    -6.830142e-08     1.018325e-04    -6.8301e-08      0.001 (TRAH MIcro)
  234     dE    -1.622805e-07     1.770784e-04    -1.6228e-07      0.004 (TRAH MIcro)
  234     dE    -2.829205e-07     1.826583e-04    -2.8290e-07      0.009 (TRAH MIcro)
  234     dE    -5.187175e-07     3.070578e-04    -5.1852e-07      0.019 (TRAH MIcro)
  234     dE    -8.653086e-07     2.579200e-04    -8.6430e-07      0.034 (TRAH MIcro)
  234     dE    -1.005723e-06     1.105014e-04    -1.0041e-06      0.040 (TRAH MIcro)
  234     dE    -1.096559e-06     2.193318e-04    -1.0944e-06      0.044 (TRAH MIcro)
  234     dE    -1.590671e-06     4.618740e-04    -1.2304e-04      0.053 (TRAH MIcro)
  234     dE    -2.164833e-06     2.053718e-04    -3.6022e-04      0.053 (TRAH MIcro)
  234     dE    -2.241557e-06     1.084287e-04    -3.9477e-04      0.053 (TRAH MIcro)
  234     dE    -2.297202e-06     1.241544e-04    -4.1647e-04      0.053 (TRAH MIcro)
  234     dE    -2.347378e-06     8.880616e-05    -4.3801e-04      0.053 (TRAH MIcro)
  234     dE    -2.379800e-06     1.011913e-04    -4.5218e-04      0.053 (TRAH MIcro)
  234     dE    -2.461046e-06     1.587603e-04    -4.8893e-04      0.053 (TRAH MIcro)
  234     dE    -2.494806e-06     5.447464e-05    -5.0466e-04      0.053 (TRAH MIcro)
  234     dE    -2.503227e-06     4.251336e-05    -5.0861e-04      0.053 (TRAH MIcro)
  234     dE    -2.528783e-06     1.777909e-04    -5.2099e-04      0.053 (TRAH MIcro)
  234     dE    -2.559099e-06     6.150037e-05    -5.3728e-04      0.053 (TRAH MIcro)
  234     dE    -2.567585e-06     3.884739e-05    -5.4075e-04      0.053 (TRAH MIcro)
  234     dE    -2.570801e-06     3.657640e-05    -5.4249e-04      0.053 (TRAH MIcro)
  234     dE    -2.574365e-06     2.628199e-05    -5.4441e-04      0.053 (TRAH MIcro)
  234     dE    -2.577080e-06     3.696071e-05    -5.4589e-04      0.053 (TRAH MIcro)
  235       -295.077844840681     1.507888e-04                     0.053 (TRAH MAcro)   No
  235     dE    -2.591852e-08     3.681125e-05    -2.5919e-08      0.000 (TRAH MIcro)
  235     dE    -3.477193e-08     6.445482e-05    -3.4772e-08      0.001 (TRAH MIcro)
  235     dE    -7.732940e-08     1.050146e-04    -7.7329e-08      0.003 (TRAH MIcro)
  235     dE    -1.109536e-07     8.969286e-05    -1.1095e-07      0.005 (TRAH MIcro)
  235     dE    -1.453297e-07     9.129367e-05    -1.4532e-07      0.008 (TRAH MIcro)
  235     dE    -1.691279e-07     5.424989e-05    -1.6911e-07      0.010 (TRAH MIcro)
  235     dE    -1.766425e-07     3.345799e-05    -1.7662e-07      0.010 (TRAH MIcro)
  235     dE    -1.836235e-07     5.770470e-05    -1.8360e-07      0.011 (TRAH MIcro)
  235     dE    -2.211578e-07     1.288370e-04    -2.2111e-07      0.014 (TRAH MIcro)
  235     dE    -2.679258e-07     6.703845e-05    -2.6783e-07      0.019 (TRAH MIcro)
  235     dE    -2.762506e-07     3.227325e-05    -2.7614e-07      0.020 (TRAH MIcro)
  235     dE    -2.832987e-07     5.522255e-05    -2.8318e-07      0.020 (TRAH MIcro)
  235     dE    -3.024121e-07     7.551351e-05    -3.0226e-07      0.023 (TRAH MIcro)
  235     dE    -3.167784e-07     8.606525e-05    -3.1659e-07      0.024 (TRAH MIcro)
  235     dE    -3.396573e-07     7.235931e-05    -3.3941e-07      0.027 (TRAH MIcro)
  235     dE    -3.538566e-07     5.688766e-05    -3.5356e-07      0.029 (TRAH MIcro)
  235     dE    -3.660952e-07     7.715598e-05    -3.6575e-07      0.031 (TRAH MIcro)
  235     dE    -4.729235e-07     4.087218e-04    -4.7190e-07      0.047 (TRAH MIcro)
  235     dE    -6.513474e-07     1.626681e-04    -1.1448e-04      0.045 (TRAH MIcro)
  235     dE    -7.278924e-07     6.563472e-05    -1.1968e-04      0.050 (TRAH MIcro)
  235     dE    -7.612377e-07     7.861964e-05    -1.2176e-04      0.051 (TRAH MIcro)
  235     dE    -8.205776e-07     9.477217e-05    -1.3613e-04      0.053 (TRAH MIcro)
  235     dE    -8.568288e-07     1.132385e-04    -1.5212e-04      0.053 (TRAH MIcro)
  236       -295.077845285743     1.516010e-04                     0.053 (TRAH MAcro)   No
  236     dE    -3.425299e-08     6.898233e-05    -3.4253e-08      0.000 (TRAH MIcro)
  236     dE    -5.735539e-08     8.736579e-05    -5.7355e-08      0.001 (TRAH MIcro)
  236     dE    -7.717147e-08     5.151308e-05    -7.7171e-08      0.001 (TRAH MIcro)
  236     dE    -9.269848e-08     8.708886e-05    -9.2698e-08      0.002 (TRAH MIcro)
  236     dE    -1.621765e-07     1.388373e-04    -1.6217e-07      0.007 (TRAH MIcro)
  236     dE    -1.968835e-07     6.927059e-05    -1.9687e-07      0.009 (TRAH MIcro)
  236     dE    -2.070723e-07     3.456672e-05    -2.0705e-07      0.010 (TRAH MIcro)
  236     dE    -2.133446e-07     5.446222e-05    -2.1332e-07      0.010 (TRAH MIcro)
  236     dE    -2.299064e-07     7.465721e-05    -2.2987e-07      0.012 (TRAH MIcro)
  236     dE    -2.450406e-07     4.392627e-05    -2.4500e-07      0.013 (TRAH MIcro)
  236     dE    -2.563031e-07     5.474545e-05    -2.5625e-07      0.014 (TRAH MIcro)
  236     dE    -2.642391e-07     2.943409e-05    -2.6418e-07      0.015 (TRAH MIcro)
  236     dE    -2.673395e-07     2.756547e-05    -2.6728e-07      0.015 (TRAH MIcro)
  236     dE    -2.730650e-07     4.926970e-05    -2.7300e-07      0.016 (TRAH MIcro)
  236     dE    -2.869500e-07     4.917777e-05    -2.8686e-07      0.018 (TRAH MIcro)
  236     dE    -2.900438e-07     1.796644e-05    -2.8995e-07      0.018 (TRAH MIcro)
  236     dE    -2.914556e-07     2.361577e-05    -2.9136e-07      0.018 (TRAH MIcro)
  236     dE    -2.994445e-07     8.587239e-05    -2.9933e-07      0.019 (TRAH MIcro)
  236     dE    -3.178147e-07     6.365849e-05    -3.1765e-07      0.023 (TRAH MIcro)
  236     dE    -3.336938e-07     7.447994e-05    -3.3347e-07      0.026 (TRAH MIcro)
  236     dE    -3.524909e-07     8.501969e-05    -3.5218e-07      0.030 (TRAH MIcro)
  236     dE    -3.670816e-07     5.646639e-05    -3.6669e-07      0.033 (TRAH MIcro)
  236     dE    -3.844428e-07     1.295584e-04    -3.8392e-07      0.037 (TRAH MIcro)
  237       -295.077845704667     1.536124e-04                     0.063 (TRAH MAcro)   No
  237     dE    -2.575561e-08     6.698656e-05    -2.5756e-08      0.000 (TRAH MIcro)
  237     dE    -4.780478e-08     1.129593e-04    -4.7805e-08      0.001 (TRAH MIcro)
  237     dE    -9.894613e-08     1.353520e-04    -9.8945e-08      0.003 (TRAH MIcro)
  237     dE    -1.488738e-07     1.188787e-04    -1.4887e-07      0.006 (TRAH MIcro)
  237     dE    -2.074043e-07     1.422612e-04    -2.0739e-07      0.009 (TRAH MIcro)
  237     dE    -2.453932e-07     7.491389e-05    -2.4536e-07      0.011 (TRAH MIcro)
  237     dE    -2.554328e-07     4.048417e-05    -2.5540e-07      0.011 (TRAH MIcro)
  237     dE    -2.642868e-07     9.103700e-05    -2.6425e-07      0.012 (TRAH MIcro)
  237     dE    -3.141399e-07     1.398769e-04    -3.1407e-07      0.015 (TRAH MIcro)
  237     dE    -3.728187e-07     9.354455e-05    -3.7267e-07      0.020 (TRAH MIcro)
  237     dE    -3.868967e-07     5.385559e-05    -3.8672e-07      0.021 (TRAH MIcro)
  237     dE    -4.031812e-07     8.787955e-05    -4.0297e-07      0.023 (TRAH MIcro)
  237     dE    -4.424529e-07     1.032936e-04    -4.4214e-07      0.027 (TRAH MIcro)
  237     dE    -4.740672e-07     1.039351e-04    -4.7364e-07      0.030 (TRAH MIcro)
  237     dE    -5.212220e-07     1.211636e-04    -5.2059e-07      0.035 (TRAH MIcro)
  237     dE    -5.481670e-07     6.478621e-05    -5.4738e-07      0.038 (TRAH MIcro)
  237     dE    -5.656506e-07     7.797587e-05    -5.6476e-07      0.040 (TRAH MIcro)
  237     dE    -6.735943e-07     3.426965e-04    -6.7175e-07      0.052 (TRAH MIcro)
  237     dE    -1.112079e-06     1.826097e-04    -1.0556e-04      0.063 (TRAH MIcro)
  237     dE    -9.646106e-07     7.208523e-05    -1.5749e-04      0.050 (TRAH MIcro)
  237     dE    -1.034962e-06     1.016356e-04    -1.6158e-04      0.053 (TRAH MIcro)
  237     dE    -1.302196e-06     1.539326e-04    -1.7459e-04      0.062 (TRAH MIcro)
  237     dE    -1.438850e-06     2.013968e-04    -2.0430e-04      0.063 (TRAH MIcro)
 ---------------------------------
          TRAH Step control 
 ---------------------------------
  predicted energy change =    -1.438849821558e-06
  actual energy  change   =     6.598162372029e-08
  energy change ratio     = -0.045857
  old trust radius        = 0.063317
  new trust radius        = 0.042423
  reject step?            = YES
  238       -295.077845638685     1.536124e-04                     0.042 (TRAH MAcro)  Yes
  239       -295.077845638685     2.838751e-04                     0.042 (TRAH MAcro)   No
  239     dE    -1.161304e-07     1.208400e-04    -1.1613e-07      0.001 (TRAH MIcro)
  239     dE    -1.803778e-07     1.443101e-04    -1.8038e-07      0.001 (TRAH MIcro)
  239     dE    -2.350029e-07     8.273045e-05    -2.3500e-07      0.002 (TRAH MIcro)
  239     dE    -2.685004e-07     1.222024e-04    -2.6850e-07      0.003 (TRAH MIcro)
  239     dE    -4.388263e-07     2.271836e-04    -4.3878e-07      0.010 (TRAH MIcro)
  239     dE    -5.329792e-07     1.006557e-04    -5.3287e-07      0.014 (TRAH MIcro)
  239     dE    -5.624899e-07     7.361095e-05    -5.6235e-07      0.015 (TRAH MIcro)
  239     dE    -6.161148e-07     1.728572e-04    -6.1592e-07      0.018 (TRAH MIcro)
  239     dE    -7.947349e-07     2.732171e-04    -7.9414e-07      0.027 (TRAH MIcro)
  239     dE    -1.099401e-06     2.480866e-04    -2.5319e-05      0.043 (TRAH MIcro)
  239     dE    -1.321273e-06     2.089015e-04    -1.7154e-04      0.042 (TRAH MIcro)
  239     dE    -1.386032e-06     1.150475e-04    -2.6383e-04      0.040 (TRAH MIcro)
  239     dE    -1.462776e-06     8.690519e-05    -2.7076e-04      0.042 (TRAH MIcro)
  239     dE    -1.517417e-06     1.307329e-04    -3.0070e-04      0.042 (TRAH MIcro)
  239     dE    -1.594774e-06     1.129341e-04    -3.5391e-04      0.042 (TRAH MIcro)
  239     dE    -1.607875e-06     3.326819e-05    -3.6303e-04      0.042 (TRAH MIcro)
  239     dE    -1.613150e-06     4.810414e-05    -3.6677e-04      0.042 (TRAH MIcro)
  239     dE    -1.639002e-06     1.796338e-04    -3.9449e-04      0.042 (TRAH MIcro)
  239     dE    -1.706385e-06     9.702107e-05    -4.3968e-04      0.042 (TRAH MIcro)
  239     dE    -1.733606e-06     9.050458e-05    -4.6309e-04      0.042 (TRAH MIcro)
  239     dE    -1.130607e-06     2.407063e-05    -6.8600e-04      0.026 (TRAH MIcro)
  240       -295.077846480903     5.256517e-05                           (NR   MAcro)
  240     dE    -7.197627e-09     3.908321e-05                           (NR   MIcro)
  240     dE    -2.179557e-08     9.221452e-05                           (NR   MIcro)
  240     dE    -9.293913e-08     1.506951e-04                           (NR   MIcro)
  240     dE    -1.588352e-07     1.067614e-04                           (NR   MIcro)
  240     dE    -2.008016e-07     8.174689e-05                           (NR   MIcro)
  240     dE    -2.281666e-07     6.891953e-05                           (NR   MIcro)
  240     dE    -2.401717e-07     4.343614e-05                           (NR   MIcro)
  240     dE    -2.552294e-07     8.783118e-05                           (NR   MIcro)
  240     dE    -3.686730e-07     2.166870e-04                           (NR   MIcro)
  240     dE    -5.251066e-07     1.068252e-04                           (NR   MIcro)
  240     dE    -5.560581e-07     5.433751e-05                           (NR   MIcro)
  240     dE    -5.688740e-07     5.438500e-05                           (NR   MIcro)
  240     dE    -5.988770e-07     8.801480e-05                           (NR   MIcro)
  240     dE    -6.245281e-07     7.211946e-05                           (NR   MIcro)
  240     dE    -6.625995e-07     1.089792e-04                           (NR   MIcro)
  240     dE    -7.152786e-07     8.712397e-05                           (NR   MIcro)
  240     dE    -7.359774e-07     6.891933e-05                           (NR   MIcro)
  240     dE    -8.415613e-07     3.652591e-04                           (NR   MIcro)
  240     dE     1.191861e-06     1.221515e-03                           (NR   MIcro)
  240     dE     3.309514e-07     2.266298e-04                           (NR   MIcro)
  240     dE     2.098001e-07     2.207433e-04                           (NR   MIcro)
  240     dE     4.374261e-08     2.043211e-04                           (NR   MIcro)
  240     dE    -7.308596e-08     1.875350e-04                           (NR   MIcro)
  240     dE    -1.709132e-07     1.545229e-04                           (NR   MIcro)
  241       -295.077846469754     1.718921e-04                     0.042 (TRAH MAcro)   No
  241     dE    -4.627139e-08     7.244843e-05    -4.6271e-08      0.000 (TRAH MIcro)
  241     dE    -7.028069e-08     7.356116e-05    -7.0281e-08      0.001 (TRAH MIcro)
  241     dE    -9.224520e-08     7.611499e-05    -9.2245e-08      0.002 (TRAH MIcro)
  241     dE    -1.110221e-07     7.120141e-05    -1.1102e-07      0.002 (TRAH MIcro)
  241     dE    -1.768533e-07     2.389512e-04    -1.7685e-07      0.006 (TRAH MIcro)
  241     dE    -6.999299e-07     5.600284e-04    -6.9883e-07      0.040 (TRAH MIcro)
  241     dE    -1.045689e-06     1.744742e-04    -1.9665e-04      0.041 (TRAH MIcro)
  241     dE    -1.125092e-06     1.279456e-04    -2.1887e-04      0.042 (TRAH MIcro)
  241     dE    -1.245226e-06     2.451906e-04    -2.8883e-04      0.042 (TRAH MIcro)
  241     dE    -1.399570e-06     1.400335e-04    -3.8137e-04      0.042 (TRAH MIcro)
  241     dE    -1.400617e-06     8.824453e-05    -4.1321e-04      0.041 (TRAH MIcro)
  241     dE    -1.060558e-06     6.418746e-05    -5.5265e-04      0.031 (TRAH MIcro)
  241     dE    -1.080950e-06     3.649282e-05    -5.5684e-04      0.031 (TRAH MIcro)
  241     dE    -1.096504e-06     4.783105e-05    -5.5988e-04      0.032 (TRAH MIcro)
  241     dE    -1.131907e-06     6.841661e-05    -5.6627e-04      0.032 (TRAH MIcro)
  241     dE    -1.153891e-06     2.731712e-05    -5.6998e-04      0.033 (TRAH MIcro)
  241     dE    -1.157759e-06     1.408930e-05    -5.7061e-04      0.033 (TRAH MIcro)
  242       -295.077847245841     6.140705e-05                           (NR   MAcro)
  242     dE    -6.373186e-09     2.730391e-05                           (NR   MIcro)
  242     dE    -1.691214e-08     8.227674e-05                           (NR   MIcro)
  242     dE    -1.039269e-07     1.897113e-04                           (NR   MIcro)
  242     dE    -2.025398e-07     1.093967e-04                           (NR   MIcro)
  242     dE    -2.469954e-07     9.571111e-05                           (NR   MIcro)
  242     dE    -2.987221e-07     1.231076e-04                           (NR   MIcro)
  242     dE    -3.752853e-07     1.422116e-04                           (NR   MIcro)
  242     dE    -4.892827e-07     1.960779e-04                           (NR   MIcro)
  242     dE    -1.438784e-06     7.667952e-04                           (NR   MIcro)
  242     dE    -7.072272e-06     1.331327e-03                           (NR   MIcro)
  242     dE     3.823477e-05     8.403876e-03                           (NR   MIcro)
  242     dE     1.848259e-06     8.206573e-04                           (NR   MIcro)
  242     dE     1.019023e-06     2.393152e-04                           (NR   MIcro)
  242     dE     9.546473e-07     7.754155e-05                           (NR   MIcro)
  242     dE     9.329448e-07     7.060328e-05                           (NR   MIcro)
  242     dE     9.143876e-07     6.986954e-05                           (NR   MIcro)
  242     dE     9.024033e-07     5.965364e-05                           (NR   MIcro)
  242     dE     8.585501e-07     2.246161e-04                           (NR   MIcro)
  242     dE     7.025622e-07     2.113491e-04                           (NR   MIcro)
  242     dE     6.678458e-07     5.764644e-05                           (NR   MIcro)
  242     dE     6.602720e-07     5.302250e-05                           (NR   MIcro)
  242     dE     6.301820e-07     1.191655e-04                           (NR   MIcro)
  242     dE     5.808007e-07     1.069192e-04                           (NR   MIcro)
  242     dE     5.352786e-07     1.108867e-04                           (NR   MIcro)
  243       -295.077845411033     2.978662e-04                     0.042 (TRAH MAcro)   No
  243     dE    -9.893539e-08     7.282877e-05    -9.8935e-08      0.000 (TRAH MIcro)
  243     dE    -1.205859e-07     8.704284e-05    -1.2059e-07      0.001 (TRAH MIcro)
  243     dE    -1.747372e-07     9.387665e-05    -1.7474e-07      0.003 (TRAH MIcro)
  243     dE    -2.297192e-07     1.810858e-04    -2.2971e-07      0.005 (TRAH MIcro)
  243     dE    -4.768728e-07     3.789551e-04    -4.7674e-07      0.017 (TRAH MIcro)
  243     dE    -1.173114e-06     4.237789e-04    -9.2531e-05      0.042 (TRAH MIcro)
  243     dE    -1.338640e-06     1.004828e-04    -1.8839e-04      0.042 (TRAH MIcro)
  243     dE    -1.321899e-06     1.302245e-04    -2.5624e-04      0.039 (TRAH MIcro)
  243     dE    -1.568015e-06     2.852752e-04    -3.2550e-04      0.042 (TRAH MIcro)
  243     dE    -1.759745e-06     1.633492e-04    -4.4787e-04      0.042 (TRAH MIcro)
  243     dE    -1.820059e-06     1.121175e-04    -4.8793e-04      0.042 (TRAH MIcro)
  243     dE    -1.853375e-06     7.532875e-05    -5.1042e-04      0.042 (TRAH MIcro)
  243     dE    -1.865659e-06     4.698688e-05    -5.1875e-04      0.042 (TRAH MIcro)
  243     dE    -1.816201e-06     7.465103e-05    -5.3939e-04      0.041 (TRAH MIcro)
  243     dE    -1.365554e-06     6.858182e-05    -7.2321e-04      0.030 (TRAH MIcro)
  243     dE    -1.400975e-06     4.009858e-05    -7.2861e-04      0.031 (TRAH MIcro)
  243     dE    -1.408972e-06     1.874211e-05    -7.2973e-04      0.031 (TRAH MIcro)
  244       -295.077846386248     6.421281e-05                           (NR   MAcro)
  244     dE    -8.043632e-09     3.451686e-05                           (NR   MIcro)
  244     dE    -2.098505e-08     9.180142e-05                           (NR   MIcro)
  244     dE    -1.219877e-07     1.592505e-04                           (NR   MIcro)
  244     dE    -1.821099e-07     8.843934e-05                           (NR   MIcro)
  244     dE    -2.201687e-07     1.070852e-04                           (NR   MIcro)
  244     dE    -3.001047e-07     1.738100e-04                           (NR   MIcro)
  244     dE    -4.390776e-07     1.923338e-04                           (NR   MIcro)
  244     dE    -6.052148e-07     2.170757e-04                           (NR   MIcro)
  244     dE    -8.913112e-07     2.498696e-04                           (NR   MIcro)
  244     dE    -1.020569e-06     9.288924e-05                           (NR   MIcro)
  244     dE    -1.076273e-06     1.507427e-04                           (NR   MIcro)
  244     dE    -1.361495e-06     4.049599e-04                           (NR   MIcro)
  244     dE    -4.688443e-06     1.322956e-03                           (NR   MIcro)
  244     dE    -1.133021e-05     1.513341e-03                           (NR   MIcro)
  244     dE     1.112453e-04     2.015891e-02                           (NR   MIcro)
  244     dE     6.340655e-06     1.342159e-03                           (NR   MIcro)
  244     dE     3.108780e-06     7.732179e-04                           (NR   MIcro)
  244     dE     6.024575e-07     8.219949e-04                           (NR   MIcro)
  244     dE     8.572974e-08     1.925638e-04                           (NR   MIcro)
  244     dE     5.347035e-08     6.567574e-05                           (NR   MIcro)
  244     dE     3.748464e-08     1.114720e-04                           (NR   MIcro)
  244     dE    -4.085445e-08     1.447699e-04                           (NR   MIcro)
  244     dE    -1.096027e-07     1.125818e-04                           (NR   MIcro)
  244     dE    -1.315260e-07     5.688453e-05                           (NR   MIcro)
  245       -295.077846398536     9.926497e-05                           (NR   MAcro)
  245     dE    -1.989976e-08     5.942662e-05                           (NR   MIcro)
  245     dE    -3.994842e-08     9.548047e-05                           (NR   MIcro)
  245     dE    -8.659480e-08     9.472191e-05                           (NR   MIcro)
  245     dE    -1.819521e-07     2.310597e-04                           (NR   MIcro)
  245     dE    -4.934473e-07     3.551843e-04                           (NR   MIcro)
  245     dE    -1.002749e-06     3.021318e-04                           (NR   MIcro)
  245     dE    -1.219470e-06     1.795531e-04                           (NR   MIcro)
  245     dE    -1.620312e-06     5.692207e-04                           (NR   MIcro)
  245     dE     4.052651e-06     1.755176e-03                           (NR   MIcro)
  245     dE     1.908194e-06     2.867590e-04                           (NR   MIcro)
  245     dE     1.727924e-06     1.855149e-04                           (NR   MIcro)
  245     dE     1.648919e-06     1.158350e-04                           (NR   MIcro)
  245     dE     1.606518e-06     9.175099e-05                           (NR   MIcro)
  245     dE     1.568188e-06     2.021757e-04                           (NR   MIcro)
  245     dE     1.400258e-06     2.381006e-04                           (NR   MIcro)
  245     dE     1.242969e-06     1.922638e-04                           (NR   MIcro)
  245     dE     1.209105e-06     5.921171e-05                           (NR   MIcro)
  245     dE     1.181592e-06     1.561244e-04                           (NR   MIcro)
  245     dE     1.074178e-06     2.099063e-04                           (NR   MIcro)
  245     dE     9.542274e-07     1.766817e-04                           (NR   MIcro)
  245     dE     8.100929e-07     2.581078e-04                           (NR   MIcro)
  245     dE     5.663289e-07     1.673942e-04                           (NR   MIcro)
  245     dE     4.673782e-07     1.505399e-04                           (NR   MIcro)
  245     dE     2.926858e-07     3.006732e-04                           (NR   MIcro)
  246       -295.077844660546     3.668451e-04                     0.042 (TRAH MAcro)   No
  246     dE    -1.970801e-07     1.487660e-04    -1.9708e-07      0.001 (TRAH MIcro)
  246     dE    -2.924198e-07     1.810576e-04    -2.9242e-07      0.002 (TRAH MIcro)
  246     dE    -5.428667e-07     2.845168e-04    -5.4284e-07      0.006 (TRAH MIcro)
  246     dE    -7.262999e-07     1.927326e-04    -7.2622e-07      0.010 (TRAH MIcro)
  246     dE    -8.548125e-07     2.081691e-04    -8.5466e-07      0.013 (TRAH MIcro)
  246     dE    -1.019407e-06     2.257037e-04    -1.0191e-06      0.017 (TRAH MIcro)
  246     dE    -1.112244e-06     1.393102e-04    -1.1118e-06      0.020 (TRAH MIcro)
  246     dE    -1.323544e-06     4.668200e-04    -1.3227e-06      0.026 (TRAH MIcro)
  246     dE    -2.434145e-06     4.159582e-04    -4.5934e-04      0.041 (TRAH MIcro)
  246     dE    -2.741869e-06     1.649153e-04    -6.0033e-04      0.042 (TRAH MIcro)
  246     dE    -2.794140e-06     1.397171e-04    -6.3545e-04      0.042 (TRAH MIcro)
  246     dE    -2.888765e-06     1.789832e-04    -7.0012e-04      0.042 (TRAH MIcro)
  246     dE    -3.023152e-06     1.929861e-04    -7.9623e-04      0.042 (TRAH MIcro)
  246     dE    -3.077276e-06     1.134718e-04    -8.3639e-04      0.042 (TRAH MIcro)
  246     dE    -2.071455e-06     3.640832e-05    -1.2032e-03      0.028 (TRAH MIcro)
  247       -295.077846335845     6.577661e-05                           (NR   MAcro)
  247     dE    -1.424688e-08     6.224594e-05                           (NR   MIcro)
  247     dE    -5.228327e-08     1.666947e-04                           (NR   MIcro)
  247     dE    -4.348520e-07     2.956742e-04                           (NR   MIcro)
  247     dE    -7.855682e-07     3.065715e-04                           (NR   MIcro)
  247     dE    -1.486632e-06     5.131000e-04                           (NR   MIcro)
  247     dE    -3.340139e-06     8.328590e-04                           (NR   MIcro)
  247     dE    -1.230826e-05     2.969346e-03                           (NR   MIcro)
  247     dE     2.878014e-06     9.736002e-04                           (NR   MIcro)
  247     dE     1.641686e-06     2.618997e-04                           (NR   MIcro)
  247     dE     1.519561e-06     8.885840e-05                           (NR   MIcro)
  247     dE     1.441314e-06     1.792821e-04                           (NR   MIcro)
  247     dE     1.317731e-06     1.747715e-04                           (NR   MIcro)
  247     dE     1.220281e-06     1.144448e-04                           (NR   MIcro)
  247     dE     1.187263e-06     8.470566e-05                           (NR   MIcro)
  247     dE     1.165228e-06     6.900660e-05                           (NR   MIcro)
  247     dE     1.152487e-06     5.286138e-05                           (NR   MIcro)
  247     dE     1.136002e-06     8.939413e-05                           (NR   MIcro)
  247     dE     9.522408e-07     4.151861e-04                           (NR   MIcro)
  247     dE     8.218452e-07     8.995100e-05                           (NR   MIcro)
  247     dE     8.081198e-07     5.124226e-05                           (NR   MIcro)
  247     dE     8.031614e-07     4.773770e-05                           (NR   MIcro)
  247     dE     7.915138e-07     6.135815e-05                           (NR   MIcro)
  247     dE     7.775035e-07     8.866176e-05                           (NR   MIcro)
  247     dE     7.167980e-07     1.817506e-04                           (NR   MIcro)
  248       -295.077844199046     2.378861e-04                     0.051 (TRAH MAcro)   No
  248     dE    -8.435849e-08     1.001256e-04    -8.4358e-08      0.001 (TRAH MIcro)
  248     dE    -1.424652e-07     1.449970e-04    -1.4246e-07      0.001 (TRAH MIcro)
  248     dE    -3.067159e-07     2.323071e-04    -3.0671e-07      0.006 (TRAH MIcro)
  248     dE    -5.599492e-07     2.886277e-04    -5.5986e-07      0.013 (TRAH MIcro)
  248     dE    -1.145907e-06     4.682068e-04    -1.1449e-06      0.030 (TRAH MIcro)
  248     dE    -2.149297e-06     4.624149e-04    -1.3384e-04      0.051 (TRAH MIcro)
  248     dE    -2.550175e-06     1.673607e-04    -2.9670e-04      0.051 (TRAH MIcro)
  248     dE    -2.518217e-06     2.661075e-04    -4.4076e-04      0.046 (TRAH MIcro)
  248     dE    -3.361780e-06     4.689804e-04    -6.4668e-04      0.051 (TRAH MIcro)
  248     dE    -3.730648e-06     1.131731e-04    -8.1683e-04      0.051 (TRAH MIcro)
  248     dE    -3.755264e-06     5.266238e-05    -8.2844e-04      0.051 (TRAH MIcro)
  248     dE    -3.766873e-06     5.098787e-05    -8.3412e-04      0.051 (TRAH MIcro)
  248     dE    -3.781794e-06     5.351936e-05    -8.4116e-04      0.051 (TRAH MIcro)
  248     dE    -3.792628e-06     5.110816e-05    -8.4658e-04      0.051 (TRAH MIcro)
  248     dE    -3.819346e-06     9.885374e-05    -8.6063e-04      0.051 (TRAH MIcro)
  248     dE    -2.419235e-06     2.611166e-05    -1.1470e-03      0.034 (TRAH MIcro)
  248     dE    -2.423750e-06     1.170999e-05    -1.1476e-03      0.034 (TRAH MIcro)
  249       -295.077845931700     7.516875e-05                           (NR   MAcro)
  249     dE    -1.700104e-08     6.527300e-05                           (NR   MIcro)
  249     dE    -1.069374e-07     2.597117e-04                           (NR   MIcro)
  249     dE    -3.055228e-06     1.855739e-03                           (NR   MIcro)
  249     dE     6.116303e-06     9.093742e-04                           (NR   MIcro)
  249     dE     4.132051e-06     5.000844e-04                           (NR   MIcro)
  249     dE     2.955568e-06     5.409122e-04                           (NR   MIcro)
  249     dE     1.912017e-06     3.431877e-04                           (NR   MIcro)
  249     dE     1.603032e-06     2.275870e-04                           (NR   MIcro)
  249     dE     1.333188e-06     1.951331e-04                           (NR   MIcro)
  249     dE     1.268179e-06     6.459555e-05                           (NR   MIcro)
  249     dE     1.256336e-06     4.040551e-05                           (NR   MIcro)
  249     dE     1.229280e-06     1.251482e-04                           (NR   MIcro)
  249     dE     1.160783e-06     1.285435e-04                           (NR   MIcro)
  249     dE     1.125189e-06     8.641195e-05                           (NR   MIcro)
  249     dE     1.090898e-06     1.069191e-04                           (NR   MIcro)
  249     dE     1.046797e-06     1.066146e-04                           (NR   MIcro)
  249     dE     9.993266e-07     1.672490e-04                           (NR   MIcro)
  249     dE     8.716152e-07     2.509985e-04                           (NR   MIcro)
  249     dE     7.407608e-07     1.831840e-04                           (NR   MIcro)
  249     dE     7.072811e-07     6.986128e-05                           (NR   MIcro)
  249     dE     6.702109e-07     1.804182e-04                           (NR   MIcro)
  249     dE    -6.266303e-07     1.366175e-03                           (NR   MIcro)
  249     dE     8.369333e-06     1.570023e-03                           (NR   MIcro)
  249     dE     4.938403e-06     6.561458e-04                           (NR   MIcro)
  250       -295.077773286552     7.186531e-03                     0.051 (TRAH MAcro)   No
  250     dE    -4.455375e-05     5.126534e-04    -4.4552e-05      0.007 (TRAH MIcro)
  251       -295.077817864326     5.129281e-04                     0.061 (TRAH MAcro)   No
  251     dE    -6.468918e-07     3.616945e-04    -6.4689e-07      0.002 (TRAH MIcro)
  251     dE    -2.566118e-06     9.212573e-04    -2.5657e-06      0.013 (TRAH MIcro)
  251     dE    -5.631511e-06     7.462783e-04    -5.6251e-06      0.034 (TRAH MIcro)
  251     dE    -7.815374e-06     7.636745e-04    -7.7960e-06      0.050 (TRAH MIcro)
  251     dE    -1.050336e-05     6.595116e-04    -3.8222e-04      0.061 (TRAH MIcro)
  251     dE    -1.100294e-05     1.858612e-04    -5.3748e-04      0.061 (TRAH MIcro)
  251     dE    -1.113059e-05     2.030642e-04    -5.7796e-04      0.061 (TRAH MIcro)
  251     dE    -1.147857e-05     4.124297e-04    -7.0038e-04      0.061 (TRAH MIcro)
  251     dE    -1.196947e-05     3.193987e-04    -9.0715e-04      0.061 (TRAH MIcro)
  251     dE    -1.207794e-05     9.416459e-05    -9.5737e-04      0.061 (TRAH MIcro)
  251     dE    -1.210157e-05     8.017523e-05    -9.6871e-04      0.061 (TRAH MIcro)
  251     dE    -1.213289e-05     1.172493e-04    -9.8425e-04      0.061 (TRAH MIcro)
  251     dE    -1.216982e-05     9.646604e-05    -1.0036e-03      0.061 (TRAH MIcro)
  251     dE    -1.220433e-05     1.036659e-04    -1.0236e-03      0.061 (TRAH MIcro)
  251     dE    -1.224015e-05     8.623381e-05    -1.0463e-03      0.061 (TRAH MIcro)
  251     dE    -1.224908e-05     3.327613e-05    -1.0525e-03      0.061 (TRAH MIcro)
  252       -295.077830556951     2.091914e-04                     0.073 (TRAH MAcro)   No
  252     dE    -2.460572e-07     3.421041e-04    -2.4606e-07      0.002 (TRAH MIcro)
  252     dE    -1.554411e-06     8.397011e-04    -1.5538e-06      0.020 (TRAH MIcro)
  252     dE    -3.659673e-06     3.029540e-04    -3.6512e-06      0.048 (TRAH MIcro)
  252     dE    -3.841152e-06     1.466023e-04    -3.8313e-06      0.051 (TRAH MIcro)
  252     dE    -3.995191e-06     2.280405e-04    -3.9841e-06      0.053 (TRAH MIcro)
  252     dE    -4.423714e-06     3.543972e-04    -4.4082e-06      0.059 (TRAH MIcro)
  252     dE    -4.872395e-06     3.029995e-04    -4.8505e-06      0.067 (TRAH MIcro)
  252     dE    -5.371434e-06     3.562713e-04    -4.9351e-05      0.073 (TRAH MIcro)
  252     dE    -5.739817e-06     1.696904e-04    -1.4323e-04      0.073 (TRAH MIcro)
