12
Coordinates from ORCA-job input E -295.204222127700
  B       0.000000      0.000000      5.032779
  B       3.792664      0.000000      2.300775
  B      -1.896332      3.278404      2.300775
  B      -1.896332     -3.278404      2.300775
  B       2.314168      3.792664     -0.109816
  B      -2.314168      3.792664     -0.109816
  B       2.314168     -3.792664     -0.109816
  B      -2.314168     -3.792664     -0.109816
  B       3.599816      0.000000     -2.552548
  B      -3.599816      0.000000     -2.552548
  B       0.000000      3.149839     -3.195373
  B       0.000000     -3.149839     -3.195373
12
Coordinates from ORCA-job input E -295.220560248772
  B      -0.024226     -0.000177      4.980097
  B       3.800554     -0.000174      2.294245
  B      -1.907413      3.283445      2.241212
  B      -1.907550     -3.283909      2.241482
  B       2.322210      3.792783     -0.109317
  B      -2.300729      3.781936     -0.067788
  B       2.322611     -3.793155     -0.109489
  B      -2.300240     -3.781623     -0.067477
  B       3.600090      0.000158     -2.553029
  B      -3.598270      0.000292     -2.511543
  B      -0.003348      3.149998     -3.169744
  B      -0.003690     -3.149575     -3.168651
12
Coordinates from ORCA-job input E -295.237499854930
  B      -0.048165     -0.000336      4.927182
  B       3.808273     -0.000367      2.287900
  B      -1.918050      3.288847      2.181540
  B      -1.918307     -3.289745      2.182064
  B       2.329973      3.792923     -0.108585
  B      -2.287456      3.771106     -0.025796
  B       2.330774     -3.793681     -0.108954
  B      -2.286469     -3.770489     -0.025175
  B       3.600209      0.000317     -2.553368
  B      -3.596771      0.000580     -2.470702
  B      -0.006669      3.150172     -3.144148
  B      -0.007342     -3.149328     -3.141959
12
Coordinates from ORCA-job input E -295.263221334704
  B      -0.083696     -0.000533      4.848485
  B       3.818271     -0.000667      2.278691
  B      -1.932565      3.297336      2.091816
  B      -1.932959     -3.298791      2.092676
  B       2.340697      3.792927     -0.107437
  B      -2.267570      3.754587      0.037074
  B       2.342059     -3.794252     -0.108136
  B      -2.265873     -3.753576      0.038118
  B       3.600015      0.000550     -2.553704
  B      -3.594324      0.000986     -2.409589
  B      -0.011464      3.150433     -3.105893
  B      -0.012593     -3.148999     -3.102103
12
Coordinates from ORCA-job input E -295.288449605413
  B      -0.119716     -0.000634      4.761186
  B       3.828200     -0.001074      2.267758
  B      -1.946571      3.306741      1.995693
  B      -1.947082     -3.308803      1.997262
  B       2.348876      3.791710     -0.107011
  B      -2.246126      3.735934      0.102074
  B       2.350799     -3.793717     -0.108182
  B      -2.243759     -3.734684      0.103331
  B       3.598986      0.000876     -2.553176
  B      -3.590731      0.001435     -2.345051
  B      -0.015668      3.150336     -3.059787
  B      -0.017209     -3.148119     -3.054097
12
Coordinates from ORCA-job input E -295.306937213080
  B      -0.154598     -0.000717      4.669627
  B       3.833981     -0.001581      2.254385
  B      -1.957536      3.316367      1.897067
  B      -1.958160     -3.319022      1.899362
  B       2.350828      3.787883     -0.109320
  B      -2.222552      3.715911      0.164992
  B       2.353272     -3.790610     -0.111091
  B      -2.219653     -3.714564      0.166440
  B       3.596424      0.001327     -2.551733
  B      -3.584325      0.001873     -2.279084
  B      -0.017923      3.149760     -3.004333
  B      -0.019758     -3.146628     -2.996314
12
Coordinates from ORCA-job input E -295.329426862123
  B      -0.176170     -0.000636      4.595621
  B       3.820747     -0.002148      2.235669
  B      -1.954708      3.317420      1.823214
  B      -1.955519     -3.320541      1.826530
  B       2.328879      3.775118     -0.123067
  B      -2.193570      3.695806      0.197405
  B       2.331419     -3.778288     -0.125472
  B      -2.190604     -3.694783      0.198389
  B       3.583870      0.001985     -2.545355
  B      -3.565745      0.002144     -2.228522
  B      -0.013430      3.148237     -2.932465
  B      -0.015170     -3.144315     -2.921947
12
Coordinates from ORCA-job input E -295.339174573023
  B      -0.197939     -0.000833      4.535163
  B       3.828094     -0.002584      2.228213
  B      -1.961625      3.325902      1.759063
  B      -1.962487     -3.329419      1.762340
  B       2.334341      3.774450     -0.123225
  B      -2.179038      3.684372      0.233592
  B       2.337375     -3.778213     -0.126073
  B      -2.175590     -3.683118      0.235064
  B       3.580191      0.002310     -2.543197
  B      -3.564629      0.002470     -2.187498
  B      -0.018352      3.150107     -2.893058
  B      -0.020341     -3.145444     -2.880383
12
Coordinates from ORCA-job input E -295.341690107512
  B      -0.199102     -0.001045      4.519488
  B       3.822545     -0.002829      2.220209
  B      -1.957669      3.324544      1.746246
  B      -1.958738     -3.328449      1.749547
  B       2.327459      3.769251     -0.132950
  B      -2.169127      3.681901      0.221834
  B       2.330429     -3.773093     -0.135981
  B      -2.165824     -3.680843      0.223195
  B       3.570986      0.002732     -2.538122
  B      -3.558829      0.002596     -2.181334
  B      -0.020120      3.153605     -2.853454
  B      -0.022012     -3.148372     -2.838678
12
Coordinates from ORCA-job input E -295.344414504087
  B      -0.199998     -0.001324      4.505383
  B       3.817036     -0.003078      2.212375
  B      -1.953548      3.323220      1.734870
  B      -1.954828     -3.327524      1.737989
  B       2.320325      3.764343     -0.142782
  B      -2.159307      3.679920      0.208926
  B       2.323224     -3.768249     -0.145997
  B      -2.156102     -3.678979      0.210293
  B       3.561905      0.003142     -2.533312
  B      -3.553254      0.002715     -2.176108
  B      -0.021828      3.157185     -2.814343
  B      -0.023624     -3.151371     -2.797293
12
Coordinates from ORCA-job input E -295.348897878071
  B      -0.201831     -0.001534      4.484821
  B       3.808529     -0.003451      2.200930
  B      -1.947120      3.321038      1.717095
  B      -1.948639     -3.325868      1.720530
  B       2.308863      3.756851     -0.157373
  B      -2.143464      3.676113      0.190304
  B       2.311507     -3.760835     -0.160925
  B      -2.140349     -3.675510      0.191087
  B       3.547405      0.003697     -2.525877
  B      -3.544112      0.002878     -2.167795
  B      -0.024575      3.162551     -2.756477
  B      -0.026213     -3.155929     -2.736319
12
Coordinates from ORCA-job input E -295.356602690872
  B      -0.204954     -0.002575      4.456114
  B       3.795297     -0.004034      2.184433
  B      -1.936742      3.317145      1.692114
  B      -1.938655     -3.322758      1.693213
  B       2.289781      3.745404     -0.178995
  B      -2.118172      3.669793      0.161306
  B       2.292183     -3.749424     -0.182886
  B      -2.114451     -3.668522      0.163287
  B       3.524291      0.004337     -2.514397
  B      -3.529221      0.003050     -2.155173
  B      -0.028910      3.170186     -2.672365
  B      -0.030446     -3.162601     -2.646651
12
Coordinates from ORCA-job input E -295.370002889955
  B      -0.210302      0.000138      4.418237
  B       3.773509     -0.004549      2.160603
  B      -1.920940      3.310712      1.649092
  B      -1.923720     -3.317254      1.663606
  B       2.258090      3.727797     -0.210329
  B      -2.077185      3.655676      0.126652
  B       2.257322     -3.731219     -0.216372
  B      -2.075956     -3.659479      0.119787
  B       3.489744      0.005804     -2.497842
  B      -3.503307      0.002779     -2.135763
  B      -0.033877      3.180516     -2.551341
  B      -0.033378     -3.170922     -2.526331
12
Coordinates from ORCA-job input E -295.384489118317
  B      -0.217399     -0.017453      4.385873
  B       3.753571     -0.006231      2.138497
  B      -1.905052      3.305153      1.646529
  B      -1.909153     -3.314942      1.598779
  B       2.222639      3.713085     -0.243410
  B      -2.041386      3.657723      0.062248
  B       2.226817     -3.715912     -0.245623
  B      -2.030274     -3.639185      0.104040
  B       3.457641      0.005244     -2.484289
  B      -3.481211      0.002596     -2.117918
  B      -0.037143      3.189890     -2.450516
  B      -0.039048     -3.179969     -2.394211
12
Coordinates from ORCA-job input E -295.398178362670
  B      -0.222640     -0.019894      4.364850
  B       3.742263     -0.007381      2.122724
  B      -1.895700      3.304013      1.628502
  B      -1.899675     -3.314890      1.575429
  B       2.202351      3.704845     -0.265169
  B      -2.014692      3.655811      0.027985
  B       2.206855     -3.708261     -0.268472
  B      -2.002438     -3.635050      0.074229
  B       3.437763      0.005857     -2.477512
  B      -3.470205      0.002642     -2.109324
  B      -0.041040      3.196941     -2.369284
  B      -0.042842     -3.184634     -2.303959
12
Coordinates from ORCA-job input E -295.408948368955
  B      -0.227583     -0.019321      4.349471
  B       3.735414     -0.008149      2.112699
  B      -1.889146      3.303867      1.610199
  B      -1.892929     -3.315102      1.560600
  B       2.189439      3.699863     -0.278220
  B      -1.994769      3.652640      0.009584
  B       2.193103     -3.703702     -0.283054
  B      -1.982325     -3.632808      0.052852
  B       3.424291      0.006292     -2.473070
  B      -3.464160      0.002661     -2.101891
  B      -0.045107      3.201479     -2.313855
  B      -0.046229     -3.187718     -2.245316
12
Coordinates from ORCA-job input E -295.425941069098
  B      -0.235952     -0.021462      4.327027
  B       3.724836     -0.009622      2.098468
  B      -1.878653      3.303177      1.586957
  B      -1.882008     -3.315081      1.532019
  B       2.168611      3.692066     -0.297191
  B      -1.963631      3.648867     -0.021856
  B       2.172296     -3.696776     -0.303806
  B      -1.949147     -3.626163      0.025937
  B       3.403337      0.006640     -2.466138
  B      -3.455270      0.002546     -2.089426
  B      -0.051882      3.207887     -2.234643
  B      -0.052536     -3.192079     -2.157348
12
Coordinates from ORCA-job input E -295.452943365041
  B      -0.249340     -0.026688      4.298234
  B       3.706560     -0.012001      2.078542
  B      -1.862715      3.301040      1.558792
  B      -1.865855     -3.314202      1.489338
  B       2.134648      3.679371     -0.324630
  B      -1.916094      3.643218     -0.069700
  B       2.138433     -3.684934     -0.334077
  B      -1.898498     -3.613525     -0.006903
  B       3.373298      0.007244     -2.456358
  B      -3.440140      0.001800     -2.069733
  B      -0.060600      3.216230     -2.126974
  B      -0.059697     -3.197554     -2.036531
12
Coordinates from ORCA-job input E -295.484045981890
  B      -0.264083     -0.030038      4.274206
  B       3.687041     -0.014769      2.060868
  B      -1.845283      3.297849      1.529804
  B      -1.847998     -3.311363      1.450950
  B       2.099480      3.666178     -0.349161
  B      -1.864459      3.635079     -0.116092
  B       2.102355     -3.672862     -0.362981
  B      -1.843205     -3.599222     -0.041688
  B       3.342834      0.007701     -2.446261
  B      -3.426562      0.000751     -2.049186
  B      -0.071781      3.223988     -2.025342
  B      -0.068340     -3.203292     -1.925118
12
Coordinates from ORCA-job input E -295.509614601515
  B      -0.275785     -0.028657      4.259406
  B       3.674322     -0.017095      2.050781
  B      -1.832051      3.295500      1.503816
  B      -1.833399     -3.307512      1.427908
  B       2.076498      3.657454     -0.362943
  B      -1.825490      3.626593     -0.144051
  B       2.077847     -3.666030     -0.380936
  B      -1.799166     -3.588484     -0.072461
  B       3.320166      0.007271     -2.438459
  B      -3.420804      0.000247     -2.033819
  B      -0.083370      3.229529     -1.956534
  B      -0.078770     -3.208816     -1.852708
12
Coordinates from ORCA-job input E -295.528432317375
  B      -0.285078     -0.025831      4.248905
  B       3.665842     -0.018663      2.044476
  B      -1.823046      3.294273      1.482018
  B      -1.823517     -3.304775      1.413758
  B       2.061704      3.651880     -0.371187
  B      -1.798266      3.619461     -0.158584
  B       2.061207     -3.661839     -0.392442
  B      -1.767830     -3.581375     -0.094103
  B       3.304801      0.006859     -2.433283
  B      -3.417724     -0.000074     -2.021535
  B      -0.091733      3.233477     -1.910786
  B      -0.086359     -3.213394     -1.807237
12
Coordinates from ORCA-job input E -295.557328810264
  B      -0.299816     -0.025188      4.233099
  B       3.652534     -0.021250      2.035296
  B      -1.809625      3.291838      1.454847
  B      -1.808195     -3.300254      1.385382
  B       2.038117      3.642877     -0.383845
  B      -1.756810      3.610105     -0.184703
  B       2.035976     -3.655101     -0.408704
  B      -1.719306     -3.567789     -0.120326
  B       3.281854      0.005977     -2.425493
  B      -3.412948     -0.000707     -2.000993
  B      -0.103949      3.239292     -1.846214
  B      -0.097832     -3.219798     -1.738346
12
Coordinates from ORCA-job input E -295.601291817061
  B      -0.322521     -0.027493      4.212585
  B       3.629911     -0.024909      2.021466
  B      -1.790714      3.287306      1.422588
  B      -1.787691     -3.293901      1.342865
  B       2.000332      3.628483     -0.403349
  B      -1.695502      3.597510     -0.225292
  B       1.995378     -3.642703     -0.433256
  B      -1.650229     -3.546878     -0.148717
  B       3.250889      0.005599     -2.415508
  B      -3.402544     -0.002329     -1.968621
  B      -0.118329      3.247693     -1.759619
  B      -0.108981     -3.228379     -1.645144
12
Coordinates from ORCA-job input E -295.650212438029
  B      -0.347040     -0.028467      4.195023
  B       3.605465     -0.028882      2.008498
  B      -1.771168      3.282082      1.390183
  B      -1.766686     -3.285981      1.303612
  B       1.960733      3.613491     -0.421405
  B      -1.631211      3.583965     -0.264255
  B       1.953061     -3.630454     -0.456971
  B      -1.577181     -3.525476     -0.177888
  B       3.219508      0.005113     -2.405914
  B      -3.391901     -0.003975     -1.934047
  B      -0.133216      3.256728     -1.677676
  B      -0.120365     -3.238145     -1.559161
12
Coordinates from ORCA-job input E -295.688153030206
  B      -0.365317     -0.025900      4.183258
  B       3.589015     -0.031933      2.000882
  B      -1.756602      3.278535      1.362682
  B      -1.750130     -3.278528      1.278453
  B       1.933975      3.603459     -0.431594
  B      -1.585136      3.573266     -0.286750
  B       1.925280     -3.624259     -0.470933
  B      -1.521100     -3.510580     -0.204271
  B       3.195566      0.003602     -2.398685
  B      -3.386666     -0.004607     -1.908241
  B      -0.145961      3.263451     -1.622055
  B      -0.132924     -3.246506     -1.502745
12
Coordinates from ORCA-job input E -295.714310718017
  B      -0.378465     -0.022967      4.174050
  B       3.578183     -0.033712      1.995900
  B      -1.746073      3.276128      1.340078
  B      -1.739101     -3.273658      1.262230
  B       1.916434      3.597301     -0.437475
  B      -1.553243      3.565174     -0.298910
  B       1.906778     -3.620433     -0.479632
  B      -1.483224     -3.501509     -0.222215
  B       3.178925      0.002853     -2.393807
  B      -3.383429     -0.005058     -1.889225
  B      -0.155176      3.268229     -1.584116
  B      -0.141608     -3.252347     -1.466879
12
Coordinates from ORCA-job input E -295.763161113007
  B      -0.399945     -0.012279      4.153670
  B       3.565038     -0.034910      1.987179
  B      -1.729734      3.273010      1.286564
  B      -1.727297     -3.267763      1.243768
  B       1.893325      3.590015     -0.446177
  B      -1.506115      3.548448     -0.303696
  B       1.879989     -3.614287     -0.496136
  B      -1.431834     -3.492508     -0.251343
  B       3.155427      0.003261     -2.385981
  B      -3.379907     -0.006515     -1.856861
  B      -0.168370      3.274863     -1.515966
  B      -0.150578     -3.261336     -1.415020
12
Coordinates from ORCA-job input E -295.817267095293
  B      -0.439081     -0.002790      4.127705
  B       3.533158     -0.037878      1.966337
  B      -1.699372      3.264438      1.209966
  B      -1.733906     -3.272983      1.238638
  B       1.848429      3.579564     -0.464412
  B      -1.423387      3.523528     -0.318035
  B       1.824575     -3.597346     -0.534374
  B      -1.368023     -3.486638     -0.262079
  B       3.125567      0.021295     -2.383221
  B      -3.357525     -0.011269     -1.809340
  B      -0.180911      3.288770     -1.413694
  B      -0.129526     -3.268690     -1.357491
12
Coordinates from ORCA-job input E -295.855425833535
  B      -0.481117      0.000938      4.112750
  B       3.483706     -0.036543      1.933895
  B      -1.699474      3.269014      1.188410
  B      -1.736655     -3.275516      1.224527
  B       1.777779      3.560606     -0.509857
  B      -1.363239      3.514472     -0.305131
  B       1.749362     -3.575921     -0.574491
  B      -1.299627     -3.479380     -0.264085
  B       3.108583      0.019565     -2.389460
  B      -3.309553     -0.012716     -1.768248
  B      -0.139866      3.296668     -1.349288
  B      -0.089899     -3.281187     -1.299020
12
Coordinates from ORCA-job input E -295.882907351089
  B      -0.508161      0.000462      4.107515
  B       3.447242     -0.036069      1.909903
  B      -1.701783      3.272204      1.183556
  B      -1.744169     -3.279926      1.220902
  B       1.728215      3.547238     -0.540694
  B      -1.324640      3.510818     -0.299885
  B       1.693650     -3.558093     -0.605417
  B      -1.263679     -3.477382     -0.254888
  B       3.102643      0.020969     -2.396904
  B      -3.271913     -0.014713     -1.744065
  B      -0.107786      3.302631     -1.313398
  B      -0.049620     -3.288138     -1.266625
12
Coordinates from ORCA-job input E -295.902629430209
  B      -0.525593      0.000633      4.104124
  B       3.422851     -0.036665      1.893476
  B      -1.704752      3.275638      1.181196
  B      -1.749545     -3.283893      1.220044
  B       1.696341      3.538381     -0.560906
  B      -1.304095      3.509671     -0.291956
  B       1.652529     -3.545882     -0.625573
  B      -1.239164     -3.476587     -0.247803
  B       3.099942      0.021536     -2.403064
  B      -3.245391     -0.016412     -1.729374
  B      -0.083205      3.306005     -1.293456
  B      -0.019918     -3.292426     -1.246708
12
Coordinates from ORCA-job input E -295.931451988705
  B      -0.550403      0.001027      4.099949
  B       3.387005     -0.036805      1.869534
  B      -1.709302      3.280759      1.180344
  B      -1.755473     -3.287957      1.216669
  B       1.641145      3.522771     -0.592401
  B      -1.270751      3.507467     -0.280675
  B       1.595728     -3.530025     -0.651374
  B      -1.201288     -3.473751     -0.240124
  B       3.094235      0.021345     -2.411553
  B      -3.206638     -0.016838     -1.708931
  B      -0.043734      3.310048     -1.263762
  B       0.019476     -3.298042     -1.217676
12
Coordinates from ORCA-job input E -295.959642392580
  B      -0.584063     -0.004955      4.094844
  B       3.335264     -0.033017      1.835944
  B      -1.721079      3.289858      1.198529
  B      -1.759572     -3.295246      1.199758
  B       1.544822      3.497050     -0.640866
  B      -1.213928      3.507364     -0.271892
  B       1.538372     -3.514236     -0.673535
  B      -1.155534     -3.467929     -0.223420
  B       3.085451      0.019208     -2.425236
  B      -3.149843     -0.010137     -1.680686
  B       0.020752      3.316197     -1.232036
  B       0.059358     -3.304157     -1.181404
12
Coordinates from ORCA-job input E -295.957994611435
  B      -0.611356      0.008461      4.063299
  B       3.299913     -0.020829      1.800833
  B      -1.715517      3.292086      1.146702
  B      -1.785298     -3.304310      1.211000
  B       1.449521      3.470246     -0.670060
  B      -1.156831      3.483526     -0.227872
  B       1.541391     -3.502307     -0.688963
  B      -1.133374     -3.464030     -0.220809
  B       3.073290      0.024402     -2.425558
  B      -3.112734      0.001379     -1.640077
  B       0.077708      3.312860     -1.175144
  B       0.073286     -3.301486     -1.173351
12
Coordinates from ORCA-job input E -295.960344215182
  B      -0.607643     -0.013141      4.064209
  B       3.287320     -0.023129      1.800358
  B      -1.716142      3.279732      1.184869
  B      -1.766311     -3.296178      1.178789
  B       1.453806      3.466025     -0.657137
  B      -1.097572      3.476770     -0.296960
  B       1.524126     -3.489469     -0.680197
  B      -1.113033     -3.445310     -0.208980
  B       3.046374      0.027224     -2.410341
  B      -3.107002     -0.001320     -1.636842
  B       0.032762      3.312189     -1.182030
  B       0.063316     -3.293392     -1.155740
12
Coordinates from ORCA-job input E -295.966327166193
  B      -0.600229     -0.006434      4.053412
  B       3.296618     -0.029158      1.799435
  B      -1.723773      3.284572      1.175335
  B      -1.777880     -3.296003      1.187258
  B       1.496691      3.467821     -0.649665
  B      -1.147219      3.477182     -0.267113
  B       1.525492     -3.485588     -0.682077
  B      -1.116119     -3.443391     -0.210466
  B       3.056280      0.023885     -2.407001
  B      -3.111655     -0.007078     -1.635755
  B       0.033518      3.303142     -1.201055
  B       0.068276     -3.288950     -1.162309
12
Coordinates from ORCA-job input E -295.966875923915
  B      -0.598415     -0.003596      4.036066
  B       3.284263     -0.026119      1.786441
  B      -1.731366      3.285400      1.173943
  B      -1.783049     -3.292871      1.182620
  B       1.475056      3.449721     -0.657699
  B      -1.144417      3.467304     -0.248079
  B       1.536002     -3.476912     -0.676776
  B      -1.109476     -3.432090     -0.209929
  B       3.051859      0.019485     -2.397592
  B      -3.095921     -0.001201     -1.623720
  B       0.053571      3.290157     -1.201438
  B       0.061892     -3.279280     -1.163837
12
Coordinates from ORCA-job input E -295.968104477584
  B      -0.600353     -0.001578      4.019367
  B       3.273330     -0.027309      1.770981
  B      -1.737115      3.283710      1.162672
  B      -1.803119     -3.292647      1.192981
  B       1.483316      3.439597     -0.652013
  B      -1.132953      3.453169     -0.241350
  B       1.535416     -3.462374     -0.686663
  B      -1.108284     -3.423232     -0.198612
  B       3.046992      0.024619     -2.389164
  B      -3.081683     -0.005557     -1.608774
  B       0.046924      3.281269     -1.199084
  B       0.077528     -3.269668     -1.170341
12
Coordinates from ORCA-job input E -295.969015648437
  B      -0.596743     -0.006693      4.009987
  B       3.268099     -0.028063      1.764443
  B      -1.745710      3.281899      1.174467
  B      -1.808366     -3.292325      1.187571
  B       1.493796      3.434784     -0.650504
  B      -1.127873      3.447607     -0.247567
  B       1.537177     -3.453962     -0.683384
  B      -1.102103     -3.414765     -0.192827
  B       3.040434      0.024986     -2.379566
  B      -3.073978     -0.006584     -1.603091
  B       0.041588      3.276790     -1.209770
  B       0.073678     -3.263675     -1.169757
12
Coordinates from ORCA-job input E -295.970316061982
  B      -0.595388     -0.007345      3.986635
  B       3.253919     -0.028089      1.746547
  B      -1.757366      3.282056      1.174503
  B      -1.821731     -3.291039      1.184281
  B       1.493540      3.419431     -0.650778
  B      -1.116987      3.433855     -0.238380
  B       1.537727     -3.438521     -0.683899
  B      -1.089908     -3.400465     -0.184156
  B       3.030826      0.024646     -2.364529
  B      -3.054558     -0.007015     -1.585548
  B       0.043910      3.265936     -1.214321
  B       0.076018     -3.253450     -1.170356
12
Coordinates from ORCA-job input E -295.972218965823
  B      -0.591606     -0.008503      3.953364
  B       3.233258     -0.027758      1.719701
  B      -1.773294      3.279426      1.174308
  B      -1.841492     -3.287129      1.181009
  B       1.494649      3.395763     -0.649624
  B      -1.101033      3.412080     -0.226909
  B       1.541724     -3.414245     -0.684339
  B      -1.076423     -3.378870     -0.171300
  B       3.017952      0.025069     -2.340220
  B      -3.027778     -0.007791     -1.560721
  B       0.045108      3.248714     -1.221687
  B       0.078937     -3.236755     -1.173580
12
Coordinates from ORCA-job input E -295.975091964880
  B      -0.584476     -0.010065      3.904773
  B       3.200615     -0.027307      1.678143
  B      -1.794327      3.271895      1.173434
  B      -1.866587     -3.277177      1.174640
  B       1.496151      3.358212     -0.646602
  B      -1.078409      3.378192     -0.210900
  B       1.544807     -3.375483     -0.683758
  B      -1.056731     -3.345209     -0.153939
  B       2.999330      0.025262     -2.301223
  B      -2.989332     -0.009214     -1.524473
  B       0.045871      3.221237     -1.232622
  B       0.083089     -3.210343     -1.177473
12
Coordinates from ORCA-job input E -295.979188041135
  B      -0.571937     -0.011699      3.839779
  B       3.154821     -0.026282      1.620147
  B      -1.817567      3.257319      1.170615
  B      -1.894628     -3.259053      1.165243
  B       1.495997      3.304220     -0.640406
  B      -1.049441      3.330570     -0.190646
  B       1.548528     -3.320298     -0.680682
  B      -1.033280     -3.298387     -0.132868
  B       2.975124      0.025370     -2.243557
  B      -2.940241     -0.010864     -1.477504
  B       0.045712      3.182209     -1.246836
  B       0.086912     -3.173107     -1.183284
12
Coordinates from ORCA-job input E -295.983856763526
  B      -0.552405     -0.013643      3.772916
  B       3.107345     -0.025097      1.558963
  B      -1.833989      3.237687      1.165738
  B      -1.916107     -3.235660      1.153547
  B       1.490944      3.245490     -0.632232
  B      -1.024056      3.281064     -0.174109
  B       1.548333     -3.260178     -0.676005
  B      -1.012550     -3.249245     -0.115698
  B       2.949632      0.024926     -2.176294
  B      -2.891543     -0.012580     -1.434205
  B       0.045253      3.139737     -1.257643
  B       0.089142     -3.132500     -1.184978
12
Coordinates from ORCA-job input E -295.989519519796
  B      -0.526650     -0.016058      3.702991
  B       3.059507     -0.023417      1.492115
  B      -1.845674      3.214270      1.159492
  B      -1.936207     -3.209432      1.143083
  B       1.483933      3.183147     -0.621430
  B      -1.001593      3.230187     -0.160349
  B       1.550778     -3.195803     -0.669743
  B      -0.997221     -3.199277     -0.099752
  B       2.923841      0.025051     -2.098460
  B      -2.844331     -0.014270     -1.394545
  B       0.043999      3.094876     -1.266678
  B       0.089618     -3.089273     -1.186724
12
Coordinates from ORCA-job input E -295.994487104048
  B      -0.502940     -0.018015      3.651200
  B       3.026968     -0.021729      1.439027
  B      -1.850385      3.197631      1.153804
  B      -1.946957     -3.191448      1.134564
  B       1.474729      3.139404     -0.612694
  B      -0.988601      3.197452     -0.152658
  B       1.550156     -3.149968     -0.663059
  B      -0.988586     -3.167071     -0.091541
  B       2.905031      0.024109     -2.034224
  B      -2.812856     -0.015117     -1.371063
  B       0.044562      3.064552     -1.269208
  B       0.088878     -3.059798     -1.184150
12
Coordinates from ORCA-job input E -295.998328092806
  B      -0.485191     -0.019387      3.615686
  B       3.007453     -0.020157      1.400205
  B      -1.853006      3.188211      1.150188
  B      -1.954424     -3.181947      1.130023
  B       1.467478      3.112338     -0.606378
  B      -0.981375      3.178896     -0.147721
  B       1.551464     -3.121207     -0.657141
  B      -0.985479     -3.149262     -0.086584
  B       2.893152      0.023141     -1.987191
  B      -2.793581     -0.015257     -1.358148
  B       0.045702      3.047349     -1.270139
  B       0.087807     -3.042718     -1.182802
12
Coordinates from ORCA-job input E -296.002609207135
  B      -0.467363     -0.021136      3.579677
  B       2.988407     -0.018965      1.358822
  B      -1.855749      3.179898      1.147527
  B      -1.962145     -3.173784      1.125535
  B       1.462133      3.086801     -0.599055
  B      -0.974810      3.162046     -0.143260
  B       1.551670     -3.093112     -0.650570
  B      -0.982019     -3.132978     -0.081520
  B       2.881334      0.021828     -1.938884
  B      -2.775257     -0.015727     -1.346610
  B       0.045958      3.032016     -1.271418
  B       0.087841     -3.026887     -1.180245
12
Coordinates from ORCA-job input E -296.010114417401
  B      -0.442042     -0.024210      3.525936
  B       2.959411     -0.017954      1.293569
  B      -1.860337      3.167684      1.144591
  B      -1.974296     -3.161792      1.119084
  B       1.458089      3.049220     -0.586383
  B      -0.965435      3.137140     -0.137025
  B       1.552297     -3.050899     -0.640137
  B      -0.976486     -3.108549     -0.072670
  B       2.864340      0.019943     -1.867254
  B      -2.749929     -0.016953     -1.330710
  B       0.044991      3.009581     -1.273602
  B       0.089399     -3.003212     -1.175398
12
Coordinates from ORCA-job input E -296.022348855439
  B      -0.411164     -0.029176      3.457295
  B       2.915393     -0.017922      1.209535
  B      -1.865871      3.146041      1.141548
  B      -1.989870     -3.140441      1.111111
  B       1.455836      2.991343     -0.568221
  B      -0.951200      3.097249     -0.128595
  B       1.554735     -2.985666     -0.625946
  B      -0.967001     -3.068812     -0.059006
  B       2.841086      0.017671     -1.780659
  B      -2.719365     -0.018892     -1.311072
  B       0.044173      2.973186     -1.277422
  B       0.093247     -2.964580     -1.168567
12
Coordinates from ORCA-job input E -296.036578836270
  B      -0.382199     -0.034013      3.390352
  B       2.870974     -0.018893      1.118637
  B      -1.869921      3.125866      1.137543
  B      -2.002099     -3.121152      1.103871
  B       1.451422      2.937503     -0.548285
  B      -0.938230      3.062106     -0.120330
  B       1.557133     -2.924023     -0.607402
  B      -0.958920     -3.033796     -0.046261
  B       2.819477      0.015744     -1.697313
  B      -2.692484     -0.020121     -1.296882
  B       0.047104      2.940394     -1.275551
  B       0.097743     -2.929615     -1.158379
12
Coordinates from ORCA-job input E -296.048971756161
  B      -0.360524     -0.037041      3.336639
  B       2.840902     -0.019685      1.038611
  B      -1.873487      3.117120      1.134334
  B      -2.010650     -3.113811      1.099353
  B       1.445123      2.906685     -0.533223
  B      -0.930988      3.045470     -0.113325
  B       1.558774     -2.887153     -0.589901
  B      -0.955669     -3.017594     -0.037884
  B       2.804868      0.013957     -1.628293
  B      -2.672416     -0.020177     -1.289078
  B       0.052660      2.924544     -1.269161
  B       0.101407     -2.912315     -1.148072
12
Coordinates from ORCA-job input E -296.058829831081
  B      -0.346367     -0.042151      3.302150
  B       2.818659     -0.016433      0.984821
  B      -1.865884      3.116773      1.136754
  B      -2.018408     -3.116850      1.096464
  B       1.429297      2.889568     -0.532916
  B      -0.922154      3.040253     -0.106536
  B       1.557518     -2.862004     -0.577772
  B      -0.952130     -3.013060     -0.038066
  B       2.796191      0.012691     -1.570467
  B      -2.657005     -0.019232     -1.282341
  B       0.056691      2.923823     -1.271112
  B       0.103593     -2.913377     -1.140979
12
Coordinates from ORCA-job input E -296.069058031513
  B      -0.331902     -0.046414      3.267041
  B       2.796523     -0.015843      0.930808
  B      -1.860281      3.117144      1.137567
  B      -2.019328     -3.119615      1.091648
  B       1.418316      2.872993     -0.528041
  B      -0.914488      3.035633     -0.101272
  B       1.552028     -2.836586     -0.567227
  B      -0.949207     -3.009099     -0.035356
  B       2.786423      0.011093     -1.512036
  B      -2.642243     -0.018928     -1.275957
  B       0.058770      2.924871     -1.273965
  B       0.105388     -2.915249     -1.133211
12
Coordinates from ORCA-job input E -296.084631342705
  B      -0.313206     -0.052754      3.213535
  B       2.764609     -0.016815      0.852168
  B      -1.856226      3.118314      1.138956
  B      -2.027349     -3.123798      1.086978
  B       1.407431      2.847650     -0.518488
  B      -0.902777      3.027634     -0.093220
  B       1.545692     -2.796546     -0.554376
  B      -0.940075     -3.001874     -0.028549
  B       2.770887      0.008995     -1.430969
  B      -2.619846     -0.019309     -1.264941
  B       0.061405      2.925511     -1.278987
  B       0.109455     -2.917009     -1.122108
12
Coordinates from ORCA-job input E -296.105181654220
  B      -0.294096     -0.061652      3.139560
  B       2.718517     -0.020414      0.760033
  B      -1.854971      3.118642      1.140769
  B      -2.038659     -3.126433      1.079086
  B       1.395186      2.804622     -0.505953
  B      -0.881507      3.011711     -0.077547
  B       1.538996     -2.729206     -0.541298
  B      -0.923011     -2.987041     -0.011308
  B       2.745333      0.005190     -1.337464
  B      -2.586156     -0.020088     -1.247012
  B       0.065763      2.919725     -1.289435
  B       0.114606     -2.915055     -1.109431
12
Coordinates from ORCA-job input E -296.121727756744
  B      -0.276312     -0.068172      3.083148
  B       2.682269     -0.023423      0.686117
  B      -1.845287      3.118874      1.136688
  B      -2.037783     -3.129855      1.073198
  B       1.380287      2.776253     -0.493921
  B      -0.864997      3.001297     -0.069653
  B       1.531547     -2.674675     -0.530301
  B      -0.917680     -2.981011      0.000795
  B       2.724770      0.002082     -1.258103
  B      -2.563764     -0.021278     -1.236376
  B       0.069635      2.918515     -1.291233
  B       0.117315     -2.918607     -1.100359
12
Coordinates from ORCA-job input E -296.133174570733
  B      -0.261898     -0.074430      3.048712
  B       2.657129     -0.025123      0.642912
  B      -1.829801      3.117591      1.132824
  B      -2.038728     -3.134003      1.076157
  B       1.363591      2.756948     -0.485494
  B      -0.851242      2.993069     -0.071201
  B       1.529375     -2.629021     -0.524340
  B      -0.922358     -2.981113      0.006240
  B       2.712261      0.001473     -1.204350
  B      -2.552150     -0.023014     -1.231328
  B       0.072335      2.918808     -1.291141
  B       0.121486     -2.921185     -1.098989
12
Coordinates from ORCA-job input E -296.154652851907
  B      -0.238193     -0.086524      2.999368
  B       2.618050     -0.029323      0.587177
  B      -1.802934      3.111650      1.128617
  B      -2.040541     -3.138597      1.082193
  B       1.339533      2.725495     -0.472257
  B      -0.827940      2.977549     -0.077289
  B       1.528748     -2.552200     -0.515341
  B      -0.933078     -2.980502      0.011613
  B       2.691746      0.000673     -1.126971
  B      -2.537128     -0.025845     -1.224006
  B       0.072748      2.917743     -1.296407
  B       0.128988     -2.920120     -1.096696
12
Coordinates from ORCA-job input E -296.175276900161
  B      -0.202582     -0.103079      2.932729
  B       2.572720     -0.043539      0.509198
  B      -1.773287      3.101471      1.127324
  B      -2.045123     -3.142426      1.084338
  B       1.312041      2.681603     -0.453713
  B      -0.807185      2.959559     -0.082901
  B       1.521277     -2.445704     -0.503532
  B      -0.939981     -2.972508      0.013755
  B       2.665692     -0.012562     -1.024554
  B      -2.520752     -0.028542     -1.217678
  B       0.071197      2.914265     -1.307891
  B       0.145982     -2.908539     -1.077078
12
Coordinates from ORCA-job input E -296.196715324349
  B      -0.172204     -0.119452      2.920610
  B       2.533605     -0.059552      0.539546
  B      -1.730366      3.062425      1.133091
  B      -2.044838     -3.117726      1.115397
  B       1.263171      2.595290     -0.447256
  B      -0.764870      2.911200     -0.104359
  B       1.529341     -2.297979     -0.510566
  B      -0.983121     -2.948043      0.003175
  B       2.656802     -0.027406     -0.986885
  B      -2.517158     -0.032498     -1.218268
  B       0.051994      2.879640     -1.342541
  B       0.177644     -2.845899     -1.101944
12
Coordinates from ORCA-job input E -296.215533831624
  B      -0.157489     -0.136945      2.906786
  B       2.506870     -0.077161      0.565325
  B      -1.710099      3.036601      1.145222
  B      -2.053394     -3.102563      1.117429
  B       1.251450      2.535572     -0.452862
  B      -0.751206      2.887641     -0.102397
  B       1.537972     -2.197577     -0.503577
  B      -0.981327     -2.923497     -0.003859
  B       2.640089     -0.044331     -0.983832
  B      -2.513606     -0.030744     -1.216672
  B       0.040032      2.852502     -1.377260
  B       0.190707     -2.799500     -1.094304
12
Coordinates from ORCA-job input E -296.228939965601
  B      -0.143260     -0.149170      2.894969
  B       2.482994     -0.092221      0.579758
  B      -1.694323      3.021532      1.152660
  B      -2.037438     -3.093472      1.102629
  B       1.237766      2.501267     -0.463217
  B      -0.743392      2.875882     -0.096377
  B       1.533187     -2.135135     -0.487546
  B      -0.972024     -2.906686     -0.014505
  B       2.621797     -0.060809     -0.978726
  B      -2.510927     -0.026216     -1.217785
  B       0.036871      2.835547     -1.398535
  B       0.188750     -2.770518     -1.073325
12
Coordinates from ORCA-job input E -296.248374931855
  B      -0.119641     -0.170218      2.872883
  B       2.443864     -0.114684      0.593098
  B      -1.668192      2.997188      1.163097
  B      -2.029047     -3.080249      1.092611
  B       1.212029      2.445643     -0.476371
  B      -0.728554      2.854327     -0.095376
  B       1.526467     -2.043055     -0.467483
  B      -0.952930     -2.875626     -0.032268
  B       2.593744     -0.083999     -0.962561
  B      -2.505048     -0.020510     -1.218651
  B       0.030872      2.809465     -1.424079
  B       0.196436     -2.718283     -1.044902
12
Coordinates from ORCA-job input E -296.277408194478
  B      -0.083870     -0.200946      2.835971
  B       2.378979     -0.144187      0.612222
  B      -1.626286      2.961395      1.173106
  B      -2.003992     -3.058534      1.075406
  B       1.166775      2.364353     -0.495855
  B      -0.699502      2.820218     -0.090007
  B       1.518124     -1.912472     -0.438687
  B      -0.939666     -2.833060     -0.047905
  B       2.548975     -0.113735     -0.933547
  B      -2.492521     -0.011354     -1.221034
  B       0.023018      2.772986     -1.458816
  B       0.209965     -2.644663     -1.010855
12
Coordinates from ORCA-job input E -296.310027536786
  B      -0.045019     -0.234733      2.792020
  B       2.318057     -0.170404      0.628014
  B      -1.589170      2.922915      1.183774
  B      -1.999420     -3.035189      1.067522
  B       1.128585      2.277974     -0.511423
  B      -0.673090      2.781132     -0.089803
  B       1.525466     -1.786730     -0.409654
  B      -0.933075     -2.784168     -0.062451
  B       2.508631     -0.137998     -0.904289
  B      -2.481070     -0.004743     -1.220065
  B       0.010475      2.733085     -1.490856
  B       0.229630     -2.561141     -0.982789
12
Coordinates from ORCA-job input E -296.336966530044
  B      -0.017416     -0.257651      2.753424
  B       2.280671     -0.189129      0.631769
  B      -1.570803      2.898620      1.189877
  B      -2.006376     -3.018783      1.063307
  B       1.109423      2.220210     -0.520704
  B      -0.661697      2.753652     -0.087442
  B       1.546204     -1.702991     -0.388185
  B      -0.940351     -2.747903     -0.067773
  B       2.487128     -0.153735     -0.886368
  B      -2.476208     -0.004801     -1.217223
  B       0.002912      2.702804     -1.506488
  B       0.246513     -2.500295     -0.964194
12
Coordinates from ORCA-job input E -296.353471586277
  B       0.002709     -0.274253      2.719487
  B       2.254114     -0.201558      0.633484
  B      -1.560414      2.884573      1.192430
  B      -2.010460     -3.013426      1.060428
  B       1.099956      2.188293     -0.524204
  B      -0.654810      2.736177     -0.085535
  B       1.564512     -1.649784     -0.372817
  B      -0.953796     -2.725624     -0.065661
  B       2.473463     -0.162809     -0.877284
  B      -2.474646     -0.005696     -1.216276
  B       0.000505      2.682339     -1.514414
  B       0.258868     -2.458231     -0.949638
12
Coordinates from ORCA-job input E -296.376701565474
  B       0.045082     -0.306242      2.640913
  B       2.215032     -0.213535      0.635671
  B      -1.544863      2.861430      1.190358
  B      -2.020551     -3.008788      1.054164
  B       1.086390      2.144619     -0.522476
  B      -0.642684      2.706570     -0.089844
  B       1.586781     -1.574979     -0.347185
  B      -0.987505     -2.692982     -0.053872
  B       2.461081     -0.163198     -0.861222
  B      -2.473628     -0.010929     -1.213112
  B      -0.001126      2.651456     -1.515098
  B       0.275990     -2.393422     -0.918298
12
Coordinates from ORCA-job input E -296.403874430287
  B       0.097274     -0.351433      2.525562
  B       2.155396     -0.226541      0.639935
  B      -1.528098      2.824680      1.196713
  B      -2.035429     -2.997831      1.049621
  B       1.071937      2.073263     -0.525595
  B      -0.623494      2.663989     -0.089797
  B       1.595722     -1.477644     -0.311848
  B      -0.999059     -2.633524     -0.053933
  B       2.437245     -0.160516     -0.839958
  B      -2.459707     -0.018497     -1.202831
  B      -0.000868      2.603973     -1.525885
  B       0.289082     -2.299916     -0.861985
12
Coordinates from ORCA-job input E -296.431444970721
  B       0.148895     -0.394929      2.383727
  B       2.111862     -0.210304      0.651885
  B      -1.514448      2.783065      1.196456
  B      -2.055123     -2.991560      1.045863
  B       1.064366      2.015720     -0.520419
  B      -0.597645      2.613857     -0.089176
  B       1.595206     -1.402397     -0.284872
  B      -1.047800     -2.589784     -0.036130
  B       2.435160     -0.124102     -0.824685
  B      -2.445632     -0.033499     -1.188211
  B       0.007955      2.555178     -1.525348
  B       0.297203     -2.221246     -0.809091
12
Coordinates from ORCA-job input E -296.452258963721
  B       0.199606     -0.421026      2.270192
  B       2.066981     -0.199163      0.672656
  B      -1.494449      2.755365      1.194868
  B      -2.052859     -2.986791      1.037967
  B       1.049384      1.976012     -0.515456
  B      -0.575879      2.579617     -0.091355
  B       1.577057     -1.358110     -0.262933
  B      -1.075738     -2.561136     -0.025625
  B       2.425161     -0.098167     -0.804955
  B      -2.433382     -0.042253     -1.178802
  B       0.013533      2.525024     -1.525158
  B       0.300586     -2.169373     -0.771397
12
Coordinates from ORCA-job input E -296.468989264111
  B       0.236908     -0.427337      2.198375
  B       2.034807     -0.187177      0.695250
  B      -1.480439      2.745127      1.189275
  B      -2.039219     -2.984874      1.032240
  B       1.039187      1.956309     -0.508739
  B      -0.564534      2.565401     -0.094793
  B       1.537637     -1.357104     -0.255585
  B      -1.072681     -2.543946     -0.025921
  B       2.414300     -0.079916     -0.790862
  B      -2.419920     -0.047740     -1.171916
  B       0.018616      2.513428     -1.518148
  B       0.295338     -2.152171     -0.749177
12
Coordinates from ORCA-job input E -296.495782989820
  B       0.284325     -0.436266      2.093734
  B       1.990046     -0.165522      0.713572
  B      -1.457474      2.722217      1.188768
  B      -2.045765     -2.981706      1.048227
  B       1.030732      1.921968     -0.497016
  B      -0.543490      2.531474     -0.088542
  B       1.496261     -1.333785     -0.238462
  B      -1.052188     -2.511390     -0.048600
  B       2.398631     -0.045277     -0.760185
  B      -2.404822     -0.058820     -1.164098
  B       0.026044      2.490667     -1.524226
  B       0.277699     -2.133560     -0.723171
12
Coordinates from ORCA-job input E -296.528799614166
  B       0.337352     -0.442283      1.956038
  B       1.943590     -0.123574      0.741144
  B      -1.430201      2.694886      1.189994
  B      -2.051575     -2.973758      1.056604
  B       1.028009      1.862047     -0.478036
  B      -0.522799      2.484205     -0.079338
  B       1.461398     -1.296049     -0.228214
  B      -1.069220     -2.480063     -0.052310
  B       2.384289      0.010443     -0.721594
  B      -2.383143     -0.076466     -1.148176
  B       0.038708      2.453802     -1.529907
  B       0.263592     -2.113189     -0.706206
12
Coordinates from ORCA-job input E -296.566538765035
  B       0.386211     -0.443952      1.824811
  B       1.892432     -0.071689      0.777630
  B      -1.392361      2.664092      1.195412
  B      -2.057785     -2.960198      1.072253
  B       1.030148      1.788469     -0.449582
  B      -0.503719      2.429617     -0.068357
  B       1.444090     -1.246231     -0.222068
  B      -1.098284     -2.450793     -0.060778
  B       2.365139      0.079009     -0.681423
  B      -2.363468     -0.095807     -1.131162
  B       0.052439      2.408280     -1.548407
  B       0.245159     -2.100797     -0.708328
12
Coordinates from ORCA-job input E -296.592608684915
  B       0.430272     -0.439402      1.735630
  B       1.842030     -0.044921      0.804794
  B      -1.365386      2.642705      1.196776
  B      -2.049495     -2.946830      1.077018
  B       1.029294      1.734292     -0.421136
  B      -0.487992      2.392870     -0.070036
  B       1.431885     -1.210150     -0.218711
  B      -1.118128     -2.426958     -0.064209
  B       2.340349      0.117775     -0.656297
  B      -2.351284     -0.110349     -1.121254
  B       0.062347      2.375387     -1.554359
  B       0.236107     -2.084417     -0.708216
12
Coordinates from ORCA-job input E -296.609700983470
  B       0.447558     -0.434705      1.689225
  B       1.820190     -0.019579      0.818898
  B      -1.350788      2.628260      1.197444
  B      -2.049279     -2.940901      1.078655
  B       1.036736      1.693798     -0.398355
  B      -0.475338      2.368518     -0.073059
  B       1.431620     -1.181568     -0.221330
  B      -1.136880     -2.414097     -0.065455
  B       2.323635      0.146028     -0.646928
  B      -2.343792     -0.123432     -1.112859
  B       0.068828      2.351843     -1.556196
  B       0.227510     -2.074165     -0.710040
12
Coordinates from ORCA-job input E -296.636005276514
  B       0.472369     -0.426430      1.624539
  B       1.791346      0.018373      0.837305
  B      -1.330004      2.607527      1.195656
  B      -2.048804     -2.934371      1.078273
  B       1.050416      1.631445     -0.361685
  B      -0.455806      2.333836     -0.080394
  B       1.429123     -1.137105     -0.227220
  B      -1.163602     -2.395742     -0.066208
  B       2.294414      0.187199     -0.635433
  B      -2.332171     -0.144006     -1.100260
  B       0.079188      2.315142     -1.554022
  B       0.213532     -2.055871     -0.710550
12
Coordinates from ORCA-job input E -296.666790523709
  B       0.511690     -0.414685      1.521451
  B       1.751043      0.076201      0.862210
  B      -1.300417      2.577216      1.192988
  B      -2.050230     -2.924922      1.078947
  B       1.067880      1.540038     -0.306357
  B      -0.427835      2.280131     -0.087445
  B       1.414591     -1.074606     -0.237306
  B      -1.198416     -2.365374     -0.066803
  B       2.248758      0.249822     -0.616860
  B      -2.310099     -0.174990     -1.083039
  B       0.098676      2.256668     -1.550139
  B       0.194359     -2.025498     -0.707646
12
Coordinates from ORCA-job input E -296.694899685011
  B       0.461550     -0.452458      1.439728
  B       1.752346      0.141842      0.849849
  B      -1.284671      2.539390      1.189514
  B      -2.080253     -2.916278      1.082298
  B       1.104125      1.468550     -0.255216
  B      -0.398154      2.223144     -0.095929
  B       1.431536     -1.005060     -0.248472
  B      -1.243594     -2.328334     -0.047656
  B       2.247977      0.329924     -0.630062
  B      -2.279786     -0.211102     -1.053995
  B       0.105619      2.200564     -1.539131
  B       0.183305     -1.990182     -0.690927
12
Coordinates from ORCA-job input E -296.719340381459
  B       0.412552     -0.498060      1.346729
  B       1.717646      0.178062      0.838742
  B      -1.259522      2.494471      1.175445
  B      -2.094969     -2.897944      1.086555
  B       1.115628      1.422370     -0.220146
  B      -0.387598      2.188879     -0.086337
  B       1.417382     -0.955663     -0.267077
  B      -1.238707     -2.252632     -0.043800
  B       2.236303      0.365768     -0.646726
  B      -2.219596     -0.265447     -1.014076
  B       0.125655      2.157287     -1.525942
  B       0.175227     -1.937092     -0.643365
12
Coordinates from ORCA-job input E -296.742184336671
  B       0.379520     -0.562131      1.256787
  B       1.710094      0.219635      0.857092
  B      -1.242152      2.454100      1.164836
  B      -2.132692     -2.900603      1.071644
  B       1.109168      1.419281     -0.206731
  B      -0.364835      2.165338     -0.080930
  B       1.427891     -0.909537     -0.277710
  B      -1.263640     -2.189218     -0.031340
  B       2.226883      0.380452     -0.678422
  B      -2.158765     -0.328226     -0.966105
  B       0.138565      2.126867     -1.523453
  B       0.169962     -1.875958     -0.585669
12
Coordinates from ORCA-job input E -296.773619226656
  B       0.365760     -0.644495      1.142544
  B       1.694125      0.242018      0.867946
  B      -1.232088      2.418260      1.153580
  B      -2.167048     -2.903913      1.049358
  B       1.100608      1.423208     -0.206939
  B      -0.354175      2.166290     -0.074640
  B       1.417060     -0.885749     -0.270401
  B      -1.277220     -2.125997     -0.004518
  B       2.215530      0.406930     -0.704237
  B      -2.093103     -0.389315     -0.915172
  B       0.164306      2.117174     -1.524499
  B       0.166246     -1.824409     -0.513022
12
Coordinates from ORCA-job input E -296.790573255786
  B       0.347900     -0.718364      1.050830
  B       1.664008      0.247531      0.871149
  B      -1.228666      2.395616      1.150834
  B      -2.178092     -2.889923      1.044834
  B       1.088602      1.425963     -0.202405
  B      -0.350546      2.170856     -0.077036
  B       1.405832     -0.879135     -0.264996
  B      -1.271154     -2.081669      0.020259
  B       2.216829      0.426006     -0.714353
  B      -2.053953     -0.416438     -0.881663
  B       0.182631      2.112969     -1.527536
  B       0.176607     -1.793414     -0.469916
12
Coordinates from ORCA-job input E -296.807536781916
  B       0.274682     -0.919881      0.824930
  B       1.550395      0.197493      0.896915
  B      -1.280683      2.376604      1.166679
  B      -2.158687     -2.785300      1.047085
  B       1.049056      1.443531     -0.173244
  B      -0.395241      2.244107     -0.098463
  B       1.401670     -0.922089     -0.299876
  B      -1.210424     -1.950253      0.110210
  B       2.242079      0.440539     -0.721514
  B      -1.933124     -0.466289     -0.771749
  B       0.232697      2.129528     -1.557596
  B       0.227580     -1.787990     -0.423376
12
Coordinates from ORCA-job input E -296.831678398520
  B       0.264628     -0.886268      0.858336
  B       1.521415      0.206165      0.914767
  B      -1.270268      2.397490      1.162339
  B      -2.147721     -2.756703      1.039400
  B       1.031352      1.449891     -0.157259
  B      -0.394749      2.248705     -0.098052
  B       1.414212     -0.950870     -0.334327
  B      -1.202409     -1.913951      0.102861
  B       2.216002      0.453317     -0.709397
  B      -1.890635     -0.498685     -0.733306
  B       0.234448      2.127579     -1.557409
  B       0.223725     -1.876671     -0.487952
12
Coordinates from ORCA-job input E -296.847739356110
  B       0.221408     -0.919524      0.865632
  B       1.455074      0.151749      0.911027
  B      -1.247240      2.432354      1.130188
  B      -2.134262     -2.760799      1.045332
  B       1.016542      1.447428     -0.113567
  B      -0.386891      2.290210     -0.145413
  B       1.432973     -0.939373     -0.381042
  B      -1.167843     -1.911525      0.158461
  B       2.166004      0.481979     -0.693584
  B      -1.851317     -0.487388     -0.697193
  B       0.249142      2.120045     -1.532526
  B       0.246409     -1.905155     -0.547315
12
Coordinates from ORCA-job input E -296.857836248741
  B       0.146080     -0.961589      0.835425
  B       1.342330      0.113258      0.870821
  B      -1.223142      2.452477      1.129037
  B      -2.114157     -2.743672      1.068472
  B       0.975711      1.475082     -0.096710
  B      -0.366665      2.331003     -0.136244
  B       1.433986     -0.944639     -0.408399
  B      -1.109829     -1.893646      0.209721
  B       2.132559      0.519670     -0.668951
  B      -1.788195     -0.504021     -0.662659
  B       0.302680      2.130203     -1.548963
  B       0.268643     -1.974126     -0.591550
12
Coordinates from ORCA-job input E -296.867188001130
  B       0.152495     -0.966358      0.805411
  B       1.276455      0.102390      0.853583
  B      -1.173695      2.492955      1.112520
  B      -2.098888     -2.761963      1.092403
  B       0.963072      1.489177     -0.020865
  B      -0.384040      2.430053     -0.183967
  B       1.429270     -0.953792     -0.435900
  B      -1.095780     -1.925924      0.238189
  B       2.089905      0.516276     -0.660953
  B      -1.777634     -0.542978     -0.663746
  B       0.342602      2.136952     -1.513121
  B       0.276237     -2.016788     -0.623556
12
Coordinates from ORCA-job input E -296.880258240200
  B       0.163415     -0.985289      0.767851
  B       1.232590      0.102701      0.840766
  B      -1.111834      2.505965      1.102076
  B      -2.113855     -2.797547      1.122290
  B       0.950850      1.565763      0.045278
  B      -0.352636      2.495749     -0.229358
  B       1.422380     -0.935292     -0.452114
  B      -1.116507     -1.980402      0.253924
  B       2.032937      0.562354     -0.657046
  B      -1.777895     -0.612955     -0.658491
  B       0.402277      2.114500     -1.491054
  B       0.268280     -2.035546     -0.644123
12
Coordinates from ORCA-job input E -296.896129116553
  B       0.178905     -1.012940      0.711289
  B       1.205793      0.122806      0.827367
  B      -1.065041      2.485742      1.097630
  B      -2.134106     -2.831667      1.154055
  B       0.942909      1.673309      0.099777
  B      -0.306509      2.549472     -0.274090
  B       1.396311     -0.919789     -0.461599
  B      -1.142158     -2.039373      0.271905
  B       1.970353      0.609065     -0.653273
  B      -1.770668     -0.677687     -0.654208
  B       0.473928      2.087068     -1.467521
  B       0.250284     -2.046007     -0.651331
12
Coordinates from ORCA-job input E -296.911577906716
  B       0.192534     -1.027054      0.662072
  B       1.179909      0.143053      0.807904
  B      -1.002297      2.460399      1.097199
  B      -2.177406     -2.879622      1.188319
  B       0.937408      1.744808      0.140075
  B      -0.280104      2.588588     -0.317999
  B       1.388504     -0.884193     -0.468522
  B      -1.188886     -2.069369      0.269319
  B       1.919812      0.664057     -0.644254
  B      -1.746695     -0.764344     -0.628244
  B       0.540503      2.059320     -1.450031
  B       0.236720     -2.035643     -0.655838
12
Coordinates from ORCA-job input E -296.929578757751
  B       0.197295     -1.038988      0.620968
  B       1.155360      0.160256      0.780321
  B      -0.958515      2.432010      1.091241
  B      -2.229330     -2.942197      1.244336
  B       0.940429      1.784748      0.170965
  B      -0.278541      2.630141     -0.363593
  B       1.387141     -0.840054     -0.484823
  B      -1.231607     -2.074784      0.263784
  B       1.886239      0.709081     -0.629350
  B      -1.712035     -0.836180     -0.596862
  B       0.617110      2.030760     -1.420062
  B       0.226453     -2.014793     -0.676925
12
Coordinates from ORCA-job input E -296.950490431689
  B       0.197923     -1.049871      0.587191
  B       1.101129      0.172646      0.753327
  B      -0.874202      2.431020      1.041840
  B      -2.252190     -3.001613      1.309419
  B       0.910949      1.813120      0.244874
  B      -0.264964      2.676328     -0.416067
  B       1.375926     -0.793659     -0.515073
  B      -1.249494     -2.115065      0.279063
  B       1.831673      0.760232     -0.614492
  B      -1.686253     -0.881831     -0.587472
  B       0.699799      2.010765     -1.363024
  B       0.209704     -2.022071     -0.719585
12
Coordinates from ORCA-job input E -296.975623790955
  B       0.169408     -1.060960      0.587260
  B       1.063064      0.195525      0.756451
  B      -0.814159      2.443961      0.955869
  B      -2.244784     -3.037497      1.367720
  B       0.883354      1.793360      0.341977
  B      -0.265218      2.698382     -0.468455
  B       1.345024     -0.752481     -0.573864
  B      -1.227570     -2.137533      0.294578
  B       1.798561      0.780159     -0.612722
  B      -1.638631     -0.901586     -0.578845
  B       0.761469      1.993647     -1.283931
  B       0.169483     -2.014977     -0.786037
12
Coordinates from ORCA-job input E -296.993542217513
  B       0.151948     -1.074056      0.551279
  B       1.024719      0.204676      0.752674
  B      -0.753934      2.439388      0.908924
  B      -2.238419     -3.069711      1.404311
  B       0.835129      1.817479      0.421900
  B      -0.229003      2.730527     -0.528678
  B       1.287907     -0.723565     -0.610453
  B      -1.208169     -2.184605      0.325400
  B       1.745476      0.819266     -0.611680
  B      -1.563616     -0.938072     -0.569662
  B       0.835904      1.965888     -1.226497
  B       0.112056     -1.987215     -0.817518
12
Coordinates from ORCA-job input E -297.015217509592
  B       0.108296     -1.098648      0.596907
  B       1.009310      0.201579      0.786062
  B      -0.763755      2.469856      0.881234
  B      -2.202617     -3.063875      1.391872
  B       0.821121      1.808564      0.463705
  B      -0.231699      2.797102     -0.548582
  B       1.213830     -0.768311     -0.653616
  B      -1.146216     -2.236944      0.356489
  B       1.754969      0.793354     -0.625599
  B      -1.490974     -0.929427     -0.579251
  B       0.869224      1.993847     -1.228920
  B       0.058510     -1.967097     -0.840301
12
Coordinates from ORCA-job input E -297.032994432757
  B       0.094970     -1.115254      0.638821
  B       0.985664      0.205938      0.822932
  B      -0.730527      2.475950      0.876385
  B      -2.143797     -3.007489      1.333175
  B       0.796584      1.815054      0.489715
  B      -0.217912      2.826532     -0.569813
  B       1.119834     -0.792526     -0.676270
  B      -1.105048     -2.268987      0.370222
  B       1.724015      0.786283     -0.636278
  B      -1.432071     -0.986928     -0.577773
  B       0.897385      1.995806     -1.234222
  B       0.010901     -1.934380     -0.836893
12
Coordinates from ORCA-job input E -297.043234777866
  B       0.098159     -1.155261      0.683725
  B       0.978996      0.196256      0.838288
  B      -0.760183      2.503442      0.891092
  B      -2.112035     -2.977533      1.322300
  B       0.784785      1.772872      0.444694
  B      -0.202824      2.856699     -0.546076
  B       1.064980     -0.767158     -0.680819
  B      -1.092959     -2.308754      0.392741
  B       1.704306      0.777595     -0.645441
  B      -1.401501     -1.024983     -0.620279
  B       0.957683      2.020550     -1.256798
  B      -0.019407     -1.893724     -0.823426
12
Coordinates from ORCA-job input E -297.048883723583
  B       0.106142     -1.224184      0.716484
  B       0.945866      0.177349      0.849805
  B      -0.665897      2.508007      0.882493
  B      -2.089140     -2.940319      1.362341
  B       0.705221      1.761082      0.416957
  B      -0.203043      2.885037     -0.542406
  B       1.052385     -0.746795     -0.675006
  B      -1.091508     -2.321009      0.386541
  B       1.680732      0.782684     -0.613486
  B      -1.430243     -1.065381     -0.671222
  B       0.985568      2.085179     -1.265748
  B       0.003917     -1.901650     -0.846752
12
Coordinates from ORCA-job input E -297.056039256875
  B       0.127193     -1.259997      0.715203
  B       0.960860      0.143273      0.822315
  B      -0.725687      2.579012      0.883134
  B      -2.088465     -2.882889      1.394284
  B       0.688636      1.704185      0.415118
  B      -0.181821      2.874812     -0.533291
  B       1.028015     -0.747178     -0.686743
  B      -1.043298     -2.266998      0.397330
  B       1.656674      0.766361     -0.606433
  B      -1.420929     -1.103613     -0.707657
  B       0.989285      2.090278     -1.216630
  B       0.009536     -1.897246     -0.876631
12
Coordinates from ORCA-job input E -297.061517307881
  B       0.185442     -1.261699      0.739371
  B       0.972634      0.156726      0.797086
  B      -0.740766      2.648942      0.904742
  B      -2.116449     -2.883096      1.406065
  B       0.677266      1.703897      0.428798
  B      -0.153447      2.938612     -0.529748
  B       1.025128     -0.756690     -0.695299
  B      -1.064049     -2.328225      0.395394
  B       1.643525      0.782120     -0.626262
  B      -1.445370     -1.164569     -0.747608
  B       1.003659      2.096177     -1.202873
  B       0.012428     -1.932194     -0.869665
12
Coordinates from ORCA-job input E -297.067911228600
  B       0.192937     -1.294361      0.692788
  B       0.957253      0.131006      0.782587
  B      -0.703240      2.718275      0.901148
  B      -2.109160     -2.856968      1.411847
  B       0.637046      1.719603      0.438626
  B      -0.119063      2.992312     -0.518426
  B       1.006668     -0.757900     -0.687082
  B      -1.057284     -2.359573      0.413789
  B       1.601350      0.788194     -0.623855
  B      -1.444775     -1.256140     -0.773377
  B       1.019617      2.142321     -1.186926
  B       0.018652     -1.966768     -0.851119
12
Coordinates from ORCA-job input E -297.071268679502
  B       0.207104     -1.328776      0.707666
  B       0.946938      0.116713      0.776927
  B      -0.686760      2.761628      0.904755
  B      -2.111660     -2.808346      1.407511
  B       0.594430      1.709788      0.444434
  B      -0.100418      3.020324     -0.507447
  B       1.003847     -0.765701     -0.698711
  B      -1.029396     -2.360264      0.422042
  B       1.574767      0.781166     -0.631129
  B      -1.458526     -1.299217     -0.788612
  B       1.019602      2.166692     -1.176144
  B       0.040072     -1.994007     -0.861293
12
Coordinates from ORCA-job input E -297.074904742080
  B       0.228825     -1.357338      0.689088
  B       0.925227      0.127846      0.750522
  B      -0.654304      2.815533      0.920803
  B      -2.148024     -2.770810      1.429461
  B       0.534797      1.698843      0.441423
  B      -0.064941      3.057500     -0.493133
  B       0.989123     -0.750528     -0.709373
  B      -1.002591     -2.398821      0.431574
  B       1.543851      0.788596     -0.641474
  B      -1.456396     -1.394433     -0.806762
  B       1.049826      2.206611     -1.153361
  B       0.054606     -2.022998     -0.858768
12
Coordinates from ORCA-job input E -297.080377459417
  B       0.245152     -1.371820      0.702933
  B       0.910358      0.118135      0.738358
  B      -0.635542      2.892162      0.943375
  B      -2.170591     -2.740437      1.386614
  B       0.516153      1.703104      0.428353
  B      -0.028883      3.122219     -0.472751
  B       0.974000     -0.772695     -0.719746
  B      -0.969599     -2.447351      0.456099
  B       1.504058      0.795755     -0.666841
  B      -1.470203     -1.477039     -0.810500
  B       1.052778      2.239223     -1.144939
  B       0.072319     -2.061255     -0.840955
12
Coordinates from ORCA-job input E -297.087377066167
  B       0.261769     -1.357510      0.725008
  B       0.888195      0.127321      0.734524
  B      -0.611923      2.924389      0.969414
  B      -2.195478     -2.698952      1.292574
  B       0.508753      1.722076      0.416072
  B       0.006139      3.173054     -0.448828
  B       0.951765     -0.786942     -0.731513
  B      -0.915534     -2.504599      0.491773
  B       1.460340      0.794685     -0.704354
  B      -1.489482     -1.554785     -0.783272
  B       1.054561      2.249349     -1.147167
  B       0.080895     -2.088085     -0.814229
12
Coordinates from ORCA-job input E -297.093115867114
  B       0.264983     -1.336619      0.738838
  B       0.871884      0.139534      0.734937
  B      -0.594616      2.934235      0.988320
  B      -2.211460     -2.673700      1.215267
  B       0.512611      1.736742      0.400537
  B       0.024561      3.191971     -0.429717
  B       0.937740     -0.790316     -0.736329
  B      -0.873345     -2.545488      0.515491
  B       1.435758      0.792501     -0.730139
  B      -1.504190     -1.602080     -0.752171
  B       1.056067      2.252519     -1.154113
  B       0.080008     -2.099300     -0.790921
12
Coordinates from ORCA-job input E -297.102239991102
  B       0.271053     -1.317117      0.756689
  B       0.847310      0.152521      0.733253
  B      -0.568838      2.955635      1.009113
  B      -2.224991     -2.639066      1.106777
  B       0.509494      1.752979      0.387807
  B       0.060660      3.231392     -0.410039
  B       0.916509     -0.799134     -0.743963
  B      -0.814970     -2.602273      0.556982
  B       1.394982      0.790689     -0.762701
  B      -1.529865     -1.672451     -0.711481
  B       1.057900      2.261861     -1.158658
  B       0.080758     -2.115035     -0.763779
12
Coordinates from ORCA-job input E -297.112827877589
  B       0.277429     -1.306696      0.773958
  B       0.824075      0.163247      0.732750
  B      -0.545567      2.977708      1.024737
  B      -2.222714     -2.601158      0.995284
  B       0.503982      1.763868      0.378338
  B       0.096714      3.266201     -0.392391
  B       0.894253     -0.803759     -0.750907
  B      -0.762292     -2.650501      0.603179
  B       1.353983      0.790111     -0.790832
  B      -1.556409     -1.743626     -0.671269
  B       1.062505      2.271410     -1.162523
  B       0.074043     -2.126805     -0.740325
12
Coordinates from ORCA-job input E -297.121274658361
  B       0.281877     -1.305345      0.783715
  B       0.810447      0.168193      0.733097
  B      -0.530827      2.987237      1.034871
  B      -2.214321     -2.564445      0.913878
  B       0.498672      1.769276      0.372277
  B       0.116834      3.281796     -0.382182
  B       0.879955     -0.805931     -0.755100
  B      -0.724485     -2.673606      0.638051
  B       1.328115      0.790547     -0.806117
  B      -1.578082     -1.793530     -0.641541
  B       1.065050      2.275825     -1.164480
  B       0.066765     -2.130016     -0.726466
12
Coordinates from ORCA-job input E -297.129035786271
  B       0.271842     -1.339091      0.785043
  B       0.805133      0.169616      0.735011
  B      -0.522213      2.973685      1.029091
  B      -2.217481     -2.530392      0.884399
  B       0.493229      1.762505      0.372413
  B       0.119100      3.267210     -0.382027
  B       0.885789     -0.788842     -0.758278
  B      -0.692108     -2.664083      0.659280
  B       1.325476      0.796032     -0.808306
  B      -1.591941     -1.816449     -0.626374
  B       1.062823      2.288249     -1.163965
  B       0.060351     -2.118441     -0.726286
12
Coordinates from ORCA-job input E -297.135297183391
  B       0.265462     -1.338579      0.784682
  B       0.792346      0.175258      0.724204
  B      -0.507580      2.995932      1.034334
  B      -2.226226     -2.506661      0.819107
  B       0.497345      1.753210      0.367223
  B       0.130162      3.285859     -0.373137
  B       0.884496     -0.779464     -0.758729
  B      -0.655144     -2.703691      0.692075
  B       1.316400      0.788558     -0.815964
  B      -1.598385     -1.866549     -0.593004
  B       1.062458      2.310501     -1.166780
  B       0.038665     -2.114375     -0.714012
12
Coordinates from ORCA-job input E -297.139884877475
  B       0.281937     -1.375346      0.761317
  B       0.780448      0.177425      0.692009
  B      -0.492262      3.040644      1.029762
  B      -2.283000     -2.542590      0.832480
  B       0.480300      1.763047      0.372422
  B       0.156368      3.315231     -0.364397
  B       0.913921     -0.780533     -0.764520
  B      -0.649147     -2.695029      0.725083
  B       1.309065      0.800412     -0.816547
  B      -1.599294     -1.955237     -0.597477
  B       1.077511      2.341424     -1.152956
  B       0.024152     -2.089449     -0.717177
12
Coordinates from ORCA-job input E -297.142896492701
  B       0.315253     -1.392621      0.801512
  B       0.774596      0.174065      0.689918
  B      -0.487275      3.061681      1.029473
  B      -2.276762     -2.549241      0.772945
  B       0.482920      1.780241      0.376802
  B       0.173458      3.329640     -0.354209
  B       0.892308     -0.788081     -0.785718
  B      -0.628039     -2.657866      0.774547
  B       1.291166      0.812134     -0.824461
  B      -1.598959     -2.051403     -0.596996
  B       1.100668      2.340387     -1.148256
  B      -0.039334     -2.058936     -0.735558
12
Coordinates from ORCA-job input E -297.145909855311
  B       0.355040     -1.381815      0.783440
  B       0.752571      0.193943      0.673109
  B      -0.476466      3.096590      1.047358
  B      -2.299382     -2.601720      0.778876
  B       0.469961      1.797580      0.366436
  B       0.208934      3.351657     -0.342794
  B       0.912053     -0.762457     -0.783866
  B      -0.669605     -2.660861      0.776359
  B       1.284438      0.826560     -0.830208
  B      -1.641287     -2.139507     -0.590011
  B       1.123200      2.337660     -1.150239
  B      -0.019457     -2.057631     -0.728460
12
Coordinates from ORCA-job input E -297.147704938419
  B       0.341110     -1.360406      0.799801
  B       0.751227      0.199281      0.667513
  B      -0.456267      3.126284      1.037307
  B      -2.326912     -2.711171      0.815324
  B       0.498943      1.796451      0.365825
  B       0.236199      3.390194     -0.344649
  B       0.890576     -0.730653     -0.784084
  B      -0.698563     -2.653697      0.766934
  B       1.288910      0.822273     -0.828773
  B      -1.614711     -2.206048     -0.613705
  B       1.138238      2.380265     -1.150788
  B      -0.048750     -2.052773     -0.730705
12
Coordinates from ORCA-job input E -297.152853844618
  B       0.326890     -1.338294      0.782803
  B       0.742445      0.201919      0.662197
  B      -0.436219      3.110985      1.041565
  B      -2.336473     -2.740137      0.800078
  B       0.498253      1.814603      0.364313
  B       0.251542      3.376941     -0.340165
  B       0.874282     -0.740688     -0.785056
  B      -0.667501     -2.600770      0.795841
  B       1.286822      0.836734     -0.827330
  B      -1.633370     -2.285162     -0.624036
  B       1.155525      2.385406     -1.143245
  B      -0.062195     -2.021537     -0.726966
12
Coordinates from ORCA-job input E -297.155978787208
  B       0.339322     -1.334785      0.800446
  B       0.736189      0.218040      0.664406
  B      -0.418882      3.124428      1.040948
  B      -2.330213     -2.784365      0.767703
  B       0.503878      1.828046      0.366341
  B       0.276320      3.386330     -0.334415
  B       0.852003     -0.725348     -0.792332
  B      -0.675972     -2.579283      0.811020
  B       1.279095      0.850646     -0.837496
  B      -1.644171     -2.368090     -0.618786
  B       1.176467      2.396111     -1.144982
  B      -0.094036     -2.011729     -0.722852
12
Coordinates from ORCA-job input E -297.159820089863
  B       0.328764     -1.307827      0.806077
  B       0.726583      0.234552      0.660456
  B      -0.390264      3.145987      1.044734
  B      -2.330358     -2.885561      0.759350
  B       0.513472      1.843756      0.361607
  B       0.316976      3.411790     -0.330351
  B       0.820014     -0.693630     -0.798035
  B      -0.694919     -2.547808      0.825112
  B       1.276389      0.866811     -0.844089
  B      -1.645840     -2.495289     -0.623836
  B       1.216466      2.411093     -1.142587
  B      -0.137283     -1.983873     -0.718439
12
Coordinates from ORCA-job input E -297.163509482945
  B       0.302672     -1.276004      0.813892
  B       0.721021      0.262424      0.659478
  B      -0.352232      3.180970      1.047577
  B      -2.325870     -3.011331      0.755221
  B       0.527314      1.866809      0.360784
  B       0.361159      3.441141     -0.329008
  B       0.776646     -0.672737     -0.804363
  B      -0.722672     -2.526335      0.831332
  B       1.271863      0.881137     -0.854229
  B      -1.637393     -2.618037     -0.629993
  B       1.258698      2.435371     -1.138323
  B      -0.181206     -1.963407     -0.712368
12
Coordinates from ORCA-job input E -297.166953394919
  B       0.244155     -1.246890      0.813719
  B       0.711801      0.278634      0.661601
  B      -0.299529      3.225816      1.042803
  B      -2.299769     -3.134642      0.752639
  B       0.534174      1.880793      0.364984
  B       0.414003      3.482224     -0.337008
  B       0.715079     -0.633827     -0.804410
  B      -0.736326     -2.511414      0.836805
  B       1.265855      0.895033     -0.857060
  B      -1.615110     -2.732315     -0.639016
  B       1.293091      2.441788     -1.126862
  B      -0.227422     -1.945200     -0.708195
12
Coordinates from ORCA-job input E -297.170096150496
  B       0.184550     -1.212288      0.818617
  B       0.702694      0.304186      0.665424
  B      -0.245804      3.283200      1.049348
  B      -2.271654     -3.262476      0.736431
  B       0.551511      1.917526      0.366213
  B       0.463615      3.516211     -0.337334
  B       0.652219     -0.614488     -0.806296
  B      -0.761503     -2.506307      0.837623
  B       1.250419      0.900612     -0.868505
  B      -1.590733     -2.838753     -0.639210
  B       1.327656      2.452307     -1.123632
  B      -0.262971     -1.939728     -0.698680
12
Coordinates from ORCA-job input E -297.172097467431
  B       0.138546     -1.186520      0.813282
  B       0.689001      0.326563      0.666490
  B      -0.196885      3.334790      1.048135
  B      -2.238635     -3.342090      0.728355
  B       0.553759      1.933376      0.375311
  B       0.504753      3.537625     -0.335508
  B       0.600768     -0.602396     -0.803466
  B      -0.779662     -2.501757      0.837388
  B       1.233504      0.903214     -0.874485
  B      -1.563484     -2.907797     -0.645147
  B       1.343599      2.448229     -1.116144
  B      -0.285263     -1.943237     -0.694212
12
Coordinates from ORCA-job input E -297.173352302783
  B       0.104729     -1.173537      0.811538
  B       0.673712      0.337121      0.665621
  B      -0.164687      3.369878      1.051355
  B      -2.216918     -3.396165      0.719333
  B       0.557988      1.948098      0.375390
  B       0.536313      3.554283     -0.333109
  B       0.568792     -0.591629     -0.801741
  B      -0.790971     -2.500299      0.840025
  B       1.217191      0.903980     -0.878455
  B      -1.542305     -2.953697     -0.645334
  B       1.354760      2.445494     -1.113823
  B      -0.298603     -1.943528     -0.690801
12
Coordinates from ORCA-job input E -297.175168595086
  B       0.058660     -1.155197      0.806873
  B       0.640729      0.354297      0.661143
  B      -0.113694      3.415144      1.053609
  B      -2.183866     -3.473370      0.707944
  B       0.561627      1.970042      0.376549
  B       0.592195      3.583369     -0.328170
  B       0.521139     -0.578848     -0.798715
  B      -0.811681     -2.499712      0.846966
  B       1.187129      0.909557     -0.883910
  B      -1.505527     -3.021483     -0.646163
  B       1.369749      2.444812     -1.109637
  B      -0.316459     -1.948609     -0.686489
12
Coordinates from ORCA-job input E -297.177617019230
  B      -0.028883     -1.125742      0.794881
  B       0.579175      0.388936      0.652430
  B      -0.037935      3.476124      1.068290
  B      -2.122625     -3.581765      0.697305
  B       0.564993      1.995682      0.371132
  B       0.671157      3.599261     -0.312337
  B       0.455628     -0.556683     -0.796539
  B      -0.843341     -2.491026      0.855324
  B       1.142412      0.913666     -0.895053
  B      -1.440372     -3.109204     -0.642040
  B       1.398443      2.437186     -1.110903
  B      -0.338652     -1.946435     -0.682491
12
Coordinates from ORCA-job input E -297.179796627249
  B      -0.074997     -1.105353      0.787688
  B       0.517788      0.405507      0.642956
  B       0.034583      3.543349      1.073972
  B      -2.080961     -3.663405      0.686285
  B       0.556762      2.020101      0.372905
  B       0.759630      3.647442     -0.303380
  B       0.403569     -0.552246     -0.795440
  B      -0.877796     -2.495661      0.862652
  B       1.091436      0.926099     -0.901056
  B      -1.388361     -3.198473     -0.641510
  B       1.408777      2.441104     -1.104499
  B      -0.350429     -1.968464     -0.680574
12
Coordinates from ORCA-job input E -297.181488758683
  B      -0.245891     -1.064287      0.760637
  B       0.305444      0.467969      0.612140
  B       0.264555      3.670942      1.064708
  B      -1.936122     -3.888771      0.670042
  B       0.538143      2.111633      0.384265
  B       1.023592      3.736734     -0.268599
  B       0.255164     -0.545596     -0.791971
  B      -0.985009     -2.504513      0.868317
  B       0.931624      0.978316     -0.919598
  B      -1.192371     -3.384744     -0.627041
  B       1.421600      2.446081     -1.080878
  B      -0.380728     -2.023764     -0.672022
12
Coordinates from ORCA-job input E -297.181150987659
  B      -0.264232     -1.050597      0.761185
  B       0.310550      0.499452      0.601060
  B       0.239585      3.685115      1.112614
  B      -1.920653     -3.879608      0.670794
  B       0.529369      2.072530      0.371341
  B       1.000914      3.695246     -0.249792
  B       0.269109     -0.532470     -0.796732
  B      -0.961056     -2.457529      0.881247
  B       0.947599      0.948396     -0.932085
  B      -1.212473     -3.426706     -0.624910
  B       1.445110      2.417104     -1.107389
  B      -0.383823     -1.970932     -0.687333
12
Coordinates from ORCA-job input E -297.183060206428
  B      -0.305413     -1.050872      0.740972
  B       0.283108      0.491521      0.581173
  B       0.251706      3.671916      1.153546
  B      -1.884386     -3.859240      0.676192
  B       0.530114      2.063173      0.346004
  B       1.010239      3.657276     -0.251125
  B       0.270415     -0.522724     -0.795976
  B      -1.002904     -2.490783      0.863705
  B       0.956476      0.963376     -0.937250
  B      -1.168193     -3.361778     -0.590082
  B       1.433401      2.415079     -1.123920
  B      -0.374563     -1.976945     -0.663239
12
Coordinates from ORCA-job input E -297.185413845416
  B      -0.339049     -1.036283      0.735844
  B       0.247521      0.492829      0.571466
  B       0.303704      3.694030      1.128839
  B      -1.880178     -3.908555      0.695338
  B       0.543278      2.102510      0.332406
  B       1.036287      3.690424     -0.211073
  B       0.257855     -0.526658     -0.804245
  B      -1.015577     -2.486894      0.868249
  B       0.933086      0.967964     -0.935694
  B      -1.137962     -3.412394     -0.599126
  B       1.433426      2.432511     -1.107090
  B      -0.382391     -2.009485     -0.674913
12
Coordinates from ORCA-job input E -297.186950574784
  B      -0.363515     -1.014131      0.729697
  B       0.229990      0.518148      0.565182
  B       0.309166      3.673565      1.147284
  B      -1.862309     -3.933056      0.689002
  B       0.540301      2.096456      0.332704
  B       1.063190      3.693023     -0.214702
  B       0.249650     -0.537111     -0.803536
  B      -1.018963     -2.470359      0.866349
  B       0.928056      0.967402     -0.939898
  B      -1.125224     -3.429682     -0.584082
  B       1.434787      2.432780     -1.114158
  B      -0.385129     -1.997036     -0.673843
12
Coordinates from ORCA-job input E -297.187433098348
  B      -0.386127     -1.014547      0.724262
  B       0.210066      0.521866      0.557961
  B       0.320726      3.668923      1.154673
  B      -1.839483     -3.909238      0.696839
  B       0.537455      2.089047      0.330607
  B       1.075016      3.682843     -0.202148
  B       0.248953     -0.535377     -0.807587
  B      -1.029022     -2.464646      0.863322
  B       0.919413      0.967317     -0.944980
  B      -1.108211     -3.438930     -0.580077
  B       1.430200      2.428164     -1.117563
  B      -0.378986     -1.995422     -0.675308
12
Coordinates from ORCA-job input E -297.188053832803
  B      -0.427834     -1.003707      0.709676
  B       0.173528      0.533454      0.543231
  B       0.350743      3.677438      1.168948
  B      -1.817520     -3.942818      0.706741
  B       0.538502      2.094290      0.323418
  B       1.107555      3.680903     -0.187383
  B       0.238954     -0.529611     -0.812978
  B      -1.048425     -2.462658      0.854961
  B       0.908516      0.978428     -0.951623
  B      -1.072116     -3.454574     -0.561081
  B       1.429703      2.428260     -1.120469
  B      -0.381607     -1.999405     -0.673440
12
Coordinates from ORCA-job input E -297.188284573371
  B      -0.456929     -0.987111      0.695743
  B       0.145027      0.545401      0.527599
  B       0.374158      3.660114      1.174576
  B      -1.799701     -3.957698      0.722247
  B       0.535981      2.095115      0.315482
  B       1.128375      3.670861     -0.174736
  B       0.239872     -0.532578     -0.810363
  B      -1.062395     -2.455178      0.849067
  B       0.891918      0.979149     -0.952817
  B      -1.048598     -3.461861     -0.554741
  B       1.430214      2.445944     -1.119927
  B      -0.377923     -2.002159     -0.672131
12
Coordinates from ORCA-job input E -297.172610497378
  B      -0.648990     -0.933267      0.642835
  B      -0.084955      0.646544      0.457923
  B       0.564309      3.767194      1.282770
  B      -1.686739     -3.984313      0.693247
  B       0.523982      2.133916      0.295453
  B       1.352379      3.732858     -0.085789
  B       0.208434     -0.610520     -0.815614
  B      -1.147904     -2.441666      0.836658
  B       0.756946      0.945270     -1.004267
  B      -0.855142     -3.546665     -0.502568
  B       1.323028      2.375663     -1.151638
  B      -0.305350     -2.085014     -0.649009
12
Coordinates from ORCA-job input E -297.181939911610
  B      -0.646969     -0.932595      0.641210
  B      -0.082448      0.638210      0.458810
  B       0.562265      3.738493      1.268823
  B      -1.696400     -3.997877      0.708382
  B       0.520556      2.124576      0.296403
  B       1.336800      3.699705     -0.088616
  B       0.218648     -0.581528     -0.816403
  B      -1.150913     -2.442552      0.833500
  B       0.771415      0.976009     -1.004616
  B      -0.863971     -3.561111     -0.495400
  B       1.333369      2.402829     -1.153545
  B      -0.302352     -2.064161     -0.648547
12
Coordinates from ORCA-job input E -297.186423240229
  B      -0.645335     -0.933476      0.639720
  B      -0.080987      0.630809      0.458348
  B       0.557131      3.710688      1.259519
  B      -1.700359     -4.000306      0.718509
  B       0.517799      2.115306      0.295512
  B       1.327009      3.672344     -0.093829
  B       0.223462     -0.564379     -0.814464
  B      -1.150258     -2.437673      0.830656
  B       0.774839      0.987161     -1.002418
  B      -0.863953     -3.550354     -0.493056
  B       1.341466      2.422908     -1.152422
  B      -0.300813     -2.053028     -0.646075
12
Coordinates from ORCA-job input E -297.189144073860
  B      -0.636502     -0.934391      0.634664
  B      -0.069471      0.616885      0.458462
  B       0.547538      3.672766      1.244977
  B      -1.705444     -4.005376      0.727521
  B       0.515811      2.106549      0.295159
  B       1.305525      3.638372     -0.103654
  B       0.230212     -0.543708     -0.807649
  B      -1.146930     -2.431112      0.820755
  B       0.783947      1.004622     -0.996412
  B      -0.873510     -3.536863     -0.484540
  B       1.351969      2.444892     -1.149481
  B      -0.303144     -2.032637     -0.639802
12
Coordinates from ORCA-job input E -297.187447475614
  B      -0.610062     -0.959089      0.636357
  B      -0.015498      0.589704      0.478535
  B       0.519323      3.656971      1.257696
  B      -1.727340     -4.003692      0.746940
  B       0.513033      2.107775      0.309163
  B       1.241708      3.661621     -0.117343
  B       0.206957     -0.524568     -0.821731
  B      -1.138218     -2.416955      0.798210
  B       0.798492      1.004826     -1.011714
  B      -0.907299     -3.528253     -0.484181
  B       1.419278      2.457590     -1.165895
  B      -0.300373     -2.045930     -0.626038
12
Coordinates from ORCA-job input E -297.182240489553
  B      -0.552632     -0.927425      0.670799
  B       0.075763      0.587813      0.520289
  B       0.472286      3.621199      1.182135
  B      -1.753331     -4.018488      0.725005
  B       0.520739      2.112044      0.313132
  B       1.196939      3.636997     -0.164136
  B       0.257870     -0.521346     -0.814346
  B      -1.139252     -2.448351      0.839467
  B       0.847588      0.991748     -0.964673
  B      -0.955341     -3.478546     -0.526314
  B       1.347322      2.402313     -1.115250
  B      -0.317950     -1.957958     -0.666107
12
Coordinates from ORCA-job input E -297.188492350621
  B      -0.568428     -0.938585      0.655348
  B       0.056961      0.584086      0.499565
  B       0.487713      3.660426      1.219169
  B      -1.737372     -3.999339      0.731541
  B       0.525131      2.111436      0.298408
  B       1.207247      3.668885     -0.149992
  B       0.242917     -0.542094     -0.814806
  B      -1.140417     -2.442218      0.827363
  B       0.845653      1.000546     -0.970054
  B      -0.954311     -3.527545     -0.514340
  B       1.371077      2.440158     -1.123009
  B      -0.336171     -2.015757     -0.659194
12
Coordinates from ORCA-job input E -297.189564189235
  B      -0.567802     -0.953299      0.632054
  B       0.059351      0.570803      0.472810
  B       0.470222      3.635427      1.240594
  B      -1.740410     -3.979726      0.757093
  B       0.514041      2.094480      0.308133
  B       1.197028      3.669565     -0.121096
  B       0.249468     -0.546596     -0.826715
  B      -1.137369     -2.417076      0.830046
  B       0.851529      0.988955     -0.991610
  B      -0.951660     -3.495749     -0.485406
  B       1.384942      2.447914     -1.141151
  B      -0.329341     -2.014697     -0.674753
12
Coordinates from ORCA-job input E -297.189746885847
  B      -0.563338     -0.953660      0.617624
  B       0.056618      0.574110      0.464231
  B       0.477449      3.651972      1.251274
  B      -1.738991     -3.964045      0.756842
  B       0.514057      2.105228      0.310833
  B       1.197489      3.660826     -0.124724
  B       0.245369     -0.547781     -0.822393
  B      -1.138108     -2.407563      0.841600
  B       0.842804      0.998147     -0.978321
  B      -0.948101     -3.518384     -0.504787
  B       1.386664      2.450319     -1.144458
  B      -0.331912     -2.049170     -0.667721
12
Coordinates from ORCA-job input E -297.190080733384
  B      -0.567870     -0.963133      0.623741
  B       0.042872      0.571650      0.475938
  B       0.493587      3.671955      1.235916
  B      -1.738824     -3.986626      0.748318
  B       0.513609      2.113552      0.316397
  B       1.211130      3.674202     -0.136499
  B       0.237426     -0.543938     -0.814124
  B      -1.143934     -2.428862      0.838033
  B       0.843783      1.005165     -0.972689
  B      -0.948457     -3.532553     -0.499010
  B       1.387323      2.456299     -1.139542
  B      -0.330646     -2.037711     -0.676480
12
Coordinates from ORCA-job input E -297.190219387155
  B      -0.564205     -0.956355      0.630225
  B       0.046348      0.575318      0.456867
  B       0.486322      3.650351      1.243190
  B      -1.741961     -3.981948      0.750583
  B       0.511477      2.105080      0.313186
  B       1.203903      3.666291     -0.124882
  B       0.246213     -0.546114     -0.822350
  B      -1.144297     -2.420109      0.839499
  B       0.847012      0.999465     -0.986960
  B      -0.946369     -3.516237     -0.494499
  B       1.382402      2.453082     -1.139316
  B      -0.326844     -2.028825     -0.665543
12
Coordinates from ORCA-job input E -297.190286643154
  B      -0.565602     -0.958419      0.624823
  B       0.032188      0.579692      0.462613
  B       0.494953      3.655823      1.243163
  B      -1.736948     -3.978831      0.752871
  B       0.510757      2.105456      0.313041
  B       1.209462      3.666902     -0.127496
  B       0.240582     -0.546586     -0.817754
  B      -1.143893     -2.416811      0.835259
  B       0.840080      0.998296     -0.976410
  B      -0.941018     -3.517133     -0.493220
  B       1.382378      2.448604     -1.139853
  B      -0.322939     -2.036993     -0.677037
12
Coordinates from ORCA-job input E -297.190337447109
  B      -0.565319     -0.962725      0.626314
  B       0.024476      0.581215      0.460308
  B       0.497674      3.655764      1.243818
  B      -1.737941     -3.985581      0.751413
  B       0.513039      2.113190      0.312629
  B       1.215480      3.670305     -0.128940
  B       0.242329     -0.546090     -0.816827
  B      -1.148184     -2.422341      0.837016
  B       0.838683      1.003577     -0.978263
  B      -0.940136     -3.525231     -0.497609
  B       1.384874      2.455932     -1.142701
  B      -0.324975     -2.038016     -0.667157
12
Coordinates from ORCA-job input E -297.190368532173
  B      -0.564204     -0.960321      0.624527
  B       0.020202      0.581328      0.448738
  B       0.503126      3.659779      1.249006
  B      -1.736709     -3.982891      0.750259
  B       0.508449      2.108645      0.315619
  B       1.215209      3.664943     -0.125492
  B       0.244119     -0.547130     -0.821011
  B      -1.150294     -2.418257      0.837211
  B       0.840555      1.003579     -0.981192
  B      -0.938356     -3.525438     -0.489512
  B       1.379024      2.453130     -1.140346
  B      -0.321121     -2.037366     -0.667807
12
Coordinates from ORCA-job input E -297.190387355538
  B      -0.571056     -0.954336      0.630642
  B       0.010140      0.587369      0.449484
  B       0.507686      3.652856      1.247046
  B      -1.732847     -3.987294      0.750140
  B       0.509625      2.106872      0.311406
  B       1.220659      3.663448     -0.122235
  B       0.240833     -0.545047     -0.812656
  B      -1.152401     -2.419965      0.834269
  B       0.833402      1.000964     -0.985571
  B      -0.929973     -3.521601     -0.491825
  B       1.381282      2.451923     -1.142752
  B      -0.317350     -2.035189     -0.667948
12
Coordinates from ORCA-job input E -297.190423709181
  B      -0.568905     -0.960763      0.622093
  B       0.004924      0.588950      0.451433
  B       0.509547      3.650465      1.249729
  B      -1.732715     -3.986178      0.755323
  B       0.510183      2.109485      0.310951
  B       1.221203      3.666750     -0.122400
  B       0.245350     -0.547329     -0.818588
  B      -1.154625     -2.416415      0.833175
  B       0.834833      1.003373     -0.980626
  B      -0.931855     -3.524320     -0.490445
  B       1.379314      2.454431     -1.143803
  B      -0.317256     -2.038449     -0.666842
12
Coordinates from ORCA-job input E -297.190430228816
  B      -0.575227     -0.958034      0.621485
  B      -0.000642      0.587341      0.443370
  B       0.514091      3.659212      1.252944
  B      -1.728384     -3.987920      0.753236
  B       0.509678      2.113066      0.315516
  B       1.230268      3.663798     -0.122348
  B       0.242732     -0.546872     -0.819130
  B      -1.157660     -2.418761      0.833726
  B       0.828092      1.005716     -0.981670
  B      -0.925524     -3.530225     -0.487211
  B       1.379710      2.453983     -1.143360
  B      -0.317133     -2.041305     -0.666558
12
Coordinates from ORCA-job input E -297.190465730724
  B      -0.574233     -0.955330      0.625652
  B      -0.000341      0.590210      0.445038
  B       0.516663      3.652753      1.252259
  B      -1.727963     -3.989485      0.751364
  B       0.508592      2.109029      0.311766
  B       1.225839      3.662445     -0.121524
  B       0.244177     -0.545681     -0.812231
  B      -1.160591     -2.416913      0.830727
  B       0.832439      1.004726     -0.985501
  B      -0.926292     -3.527562     -0.488807
  B       1.376213      2.453917     -1.145395
  B      -0.314503     -2.038110     -0.663349
12
Coordinates from ORCA-job input E -297.190477480898
  B      -0.578828     -0.955348      0.619022
  B      -0.007515      0.592261      0.441718
  B       0.518857      3.649865      1.254298
  B      -1.724373     -3.990181      0.757946
  B       0.509597      2.108787      0.312371
  B       1.229624      3.663122     -0.117611
  B       0.245059     -0.547272     -0.818632
  B      -1.162957     -2.414234      0.831260
  B       0.828208      1.003683     -0.985131
  B      -0.921770     -3.526332     -0.484755
  B       1.377463      2.454301     -1.143733
  B      -0.313366     -2.038653     -0.666753
12
Coordinates from ORCA-job input E -297.190502953257
  B      -0.581658     -0.954662      0.619290
  B      -0.007941      0.591711      0.441613
  B       0.521830      3.651554      1.256127
  B      -1.721594     -3.991649      0.757102
  B       0.509373      2.110241      0.312380
  B       1.231083      3.662723     -0.118985
  B       0.243981     -0.546283     -0.816760
  B      -1.166781     -2.413972      0.828768
  B       0.828536      1.005232     -0.984207
  B      -0.920094     -3.529776     -0.485036
  B       1.376519      2.454820     -1.145897
  B      -0.313254     -2.039937     -0.664395
12
Coordinates from ORCA-job input E -297.190513548617
  B      -0.582767     -0.953959      0.619368
  B      -0.010126      0.593372      0.440498
  B       0.523348      3.649926      1.256241
  B      -1.719102     -3.992161      0.755891
  B       0.510900      2.110292      0.312659
  B       1.232422      3.661740     -0.118813
  B       0.245888     -0.547160     -0.813455
  B      -1.170419     -2.413697      0.828234
  B       0.827168      1.005800     -0.986508
  B      -0.918539     -3.529130     -0.484350
  B       1.374045      2.454619     -1.145994
  B      -0.312818     -2.039643     -0.663772
12
Coordinates from ORCA-job input E -297.190530012022
  B      -0.590657     -0.951104      0.616633
  B      -0.014703      0.594795      0.438559
  B       0.529668      3.649556      1.258507
  B      -1.713518     -3.995827      0.758606
  B       0.509746      2.109487      0.312506
  B       1.235321      3.661234     -0.117169
  B       0.243548     -0.546146     -0.816105
  B      -1.175616     -2.411989      0.825862
  B       0.826474      1.006004     -0.986597
  B      -0.912956     -3.531392     -0.481939
  B       1.374165      2.455195     -1.146309
  B      -0.311471     -2.039813     -0.662556
12
Coordinates from ORCA-job input E -297.190538674832
  B      -0.592157     -0.951014      0.614389
  B      -0.015597      0.594557      0.437559
  B       0.530366      3.648508      1.259554
  B      -1.710349     -3.996203      0.761865
  B       0.511158      2.109955      0.313294
  B       1.235792      3.661465     -0.117101
  B       0.244286     -0.546442     -0.815153
  B      -1.179006     -2.410232      0.823325
  B       0.825525      1.005781     -0.985411
  B      -0.911741     -3.531572     -0.481395
  B       1.373682      2.454815     -1.146878
  B      -0.311960     -2.039620     -0.664049
12
Coordinates from ORCA-job input E -297.190367398395
  B      -0.614499     -0.952331      0.607797
  B      -0.036049      0.602781      0.443974
  B       0.549331      3.654642      1.261609
  B      -1.698355     -3.998790      0.758549
  B       0.511158      2.115370      0.312644
  B       1.249555      3.663098     -0.122216
  B       0.241280     -0.548469     -0.818096
  B      -1.183104     -2.417408      0.818576
  B       0.815121      1.008905     -0.976929
  B      -0.897316     -3.534827     -0.482999
  B       1.372177      2.450402     -1.149058
  B      -0.309301     -2.043372     -0.653853
12
Coordinates from ORCA-job input E -297.190531982980
  B      -0.610351     -0.945810      0.611950
  B      -0.028420      0.600982      0.434814
  B       0.542083      3.645600      1.262994
  B      -1.696890     -4.004230      0.757101
  B       0.514624      2.110014      0.311849
  B       1.242874      3.658516     -0.115358
  B       0.238466     -0.544745     -0.813674
  B      -1.189790     -2.409603      0.824264
  B       0.822312      1.006400     -0.989189
  B      -0.897436     -3.533049     -0.477126
  B       1.373726      2.454609     -1.149414
  B      -0.311196     -2.038685     -0.658213
12
Coordinates from ORCA-job input E -297.190464507727
  B      -0.597281     -0.946606      0.597237
  B      -0.018765      0.592630      0.424784
  B       0.532633      3.643227      1.268068
  B      -1.706482     -3.992187      0.783209
  B       0.510320      2.106236      0.318911
  B       1.236022      3.659465     -0.108522
  B       0.248752     -0.547687     -0.825344
  B      -1.183381     -2.401766      0.817206
  B       0.826844      1.009087     -0.989518
  B      -0.909641     -3.538477     -0.470630
  B       1.371565      2.459412     -1.142880
  B      -0.310586     -2.043335     -0.672521
12
Coordinates from ORCA-job input E -297.190550337341
  B      -0.599570     -0.948228      0.612192
  B      -0.019311      0.596036      0.436121
  B       0.536227      3.647621      1.260842
  B      -1.701840     -4.000607      0.762606
  B       0.512253      2.109720      0.313110
  B       1.238608      3.662129     -0.117271
  B       0.242899     -0.546098     -0.815321
  B      -1.187054     -2.408965      0.821527
  B       0.824222      1.005787     -0.985782
  B      -0.906148     -3.533031     -0.479615
  B       1.373090      2.454869     -1.145865
  B      -0.313376     -2.039233     -0.662543
12
Coordinates from ORCA-job input E -297.190543775261
  B      -0.609094     -0.946861      0.612030
  B      -0.025936      0.599712      0.438349
  B       0.539851      3.647403      1.261580
  B      -1.698501     -4.001142      0.762688
  B       0.516487      2.110194      0.316237
  B       1.239749      3.658161     -0.117818
  B       0.239126     -0.544604     -0.814328
  B      -1.187050     -2.409597      0.818259
  B       0.823908      1.006367     -0.985229
  B      -0.900244     -3.534167     -0.478886
  B       1.373098      2.452917     -1.150449
  B      -0.311392     -2.038383     -0.662434
12
Coordinates from ORCA-job input E -297.190554318063
  B      -0.611237     -0.947413      0.607855
  B      -0.029533      0.599797      0.436374
  B       0.544987      3.649733      1.261648
  B      -1.692219     -4.004746      0.764237
  B       0.513012      2.110916      0.315172
  B       1.246443      3.659826     -0.117180
  B       0.239162     -0.545168     -0.814571
  B      -1.193984     -2.408553      0.817921
  B       0.820199      1.007535     -0.985347
  B      -0.896050     -3.536096     -0.477402
  B       1.372970      2.453907     -1.146711
  B      -0.313750     -2.039738     -0.661998
12
Coordinates from ORCA-job input E -297.190521245988
  B      -0.605847     -0.943522      0.606107
  B      -0.019909      0.595835      0.429097
  B       0.537202      3.645253      1.264981
  B      -1.695481     -4.003633      0.767518
  B       0.517011      2.106188      0.313447
  B       1.235401      3.662628     -0.114691
  B       0.245900     -0.546778     -0.816816
  B      -1.191038     -2.406546      0.821100
  B       0.826153      1.004023     -0.986712
  B      -0.906349     -3.532416     -0.475598
  B       1.372499      2.455966     -1.145049
  B      -0.315542     -2.036998     -0.663383
12
Coordinates from ORCA-job input E -297.190557597125
  B      -0.608132     -0.946001      0.605258
  B      -0.024611      0.597342      0.432617
  B       0.539330      3.645865      1.264252
  B      -1.694354     -4.001219      0.770406
  B       0.513761      2.108826      0.315916
  B       1.241876      3.659411     -0.113619
  B       0.240294     -0.545238     -0.819080
  B      -1.191978     -2.405450      0.817655
  B       0.823897      1.006917     -0.987476
  B      -0.899587     -3.536030     -0.474551
  B       1.373878      2.455223     -1.146115
  B      -0.314373     -2.039646     -0.665263
12
Coordinates from ORCA-job input E -297.190542004964
  B      -0.614211     -0.946086      0.614810
  B      -0.028926      0.601308      0.441646
  B       0.545711      3.652858      1.257370
  B      -1.689880     -4.008991      0.757720
  B       0.516755      2.111178      0.315448
  B       1.244834      3.660118     -0.122481
  B       0.237961     -0.544432     -0.808917
  B      -1.193758     -2.412601      0.816931
  B       0.821005      1.005631     -0.981217
  B      -0.896634     -3.533847     -0.482482
  B       1.372751      2.450916     -1.148896
  B      -0.315610     -2.036052     -0.659931
12
Coordinates from ORCA-job input E -297.190561171932
  B      -0.610541     -0.946122      0.606666
  B      -0.026767      0.598990      0.434245
  B       0.540587      3.647373      1.262618
  B      -1.693169     -4.003492      0.766667
  B       0.517835      2.108787      0.316667
  B       1.240421      3.660524     -0.116684
  B       0.240697     -0.545504     -0.815385
  B      -1.191504     -2.407576      0.818916
  B       0.824286      1.006182     -0.985957
  B      -0.900112     -3.534976     -0.477010
  B       1.373534      2.454659     -1.146876
  B      -0.315266     -2.038846     -0.663865
12
Coordinates from ORCA-job input E -297.190561213319
  B      -0.609788     -0.945494      0.606672
  B      -0.024619      0.597606      0.434309
  B       0.539842      3.648130      1.262507
  B      -1.692167     -4.003120      0.768896
  B       0.515870      2.108356      0.316935
  B       1.241243      3.659871     -0.116037
  B       0.240780     -0.545372     -0.817302
  B      -1.192663     -2.406899      0.816970
  B       0.824427      1.006303     -0.985218
  B      -0.900243     -3.535330     -0.476410
  B       1.373360      2.454193     -1.146338
  B      -0.316041     -2.038244     -0.664984
12
Coordinates from ORCA-job input E -297.190561916472
  B      -0.613077     -0.944463      0.606919
  B      -0.025733      0.598460      0.435131
  B       0.540958      3.647044      1.261989
  B      -1.689969     -4.004556      0.767741
  B       0.519653      2.108029      0.318695
  B       1.239968      3.660389     -0.117643
  B       0.240172     -0.544853     -0.815685
  B      -1.194747     -2.406466      0.816407
  B       0.824894      1.005477     -0.984728
  B      -0.898779     -3.534966     -0.476901
  B       1.372591      2.453765     -1.147582
  B      -0.315932     -2.037860     -0.664343
12
Coordinates from ORCA-job input E -297.190561337487
  B      -0.612122     -0.945628      0.603627
  B      -0.027153      0.598416      0.432021
  B       0.540098      3.647249      1.264062
  B      -1.690416     -4.003103      0.771352
  B       0.519179      2.107559      0.317908
  B       1.240071      3.660447     -0.115335
  B       0.241225     -0.545902     -0.817409
  B      -1.193195     -2.406001      0.817331
  B       0.825747      1.006373     -0.986140
  B      -0.900167     -3.535954     -0.475557
  B       1.373551      2.455589     -1.146145
  B      -0.316818     -2.039044     -0.665716
12
Coordinates from ORCA-job input E -297.190563237615
  B      -0.612415     -0.945235      0.606443
  B      -0.026385      0.598667      0.434765
  B       0.540440      3.648476      1.262017
  B      -1.689711     -4.004845      0.768128
  B       0.519448      2.107460      0.317554
  B       1.240356      3.660459     -0.116988
  B       0.240743     -0.545481     -0.815462
  B      -1.193924     -2.407268      0.817237
  B       0.825426      1.005886     -0.984776
  B      -0.899843     -3.534981     -0.477216
  B       1.373239      2.454483     -1.147086
  B      -0.317375     -2.037622     -0.664617
12
Coordinates from ORCA-job input E -297.190563343565
  B      -0.611294     -0.945237      0.606955
  B      -0.025084      0.598177      0.435222
  B       0.538890      3.648128      1.261398
  B      -1.690114     -4.004319      0.768312
  B       0.519400      2.107946      0.318162
  B       1.240337      3.660430     -0.117108
  B       0.239965     -0.545001     -0.816505
  B      -1.193316     -2.406956      0.817226
  B       0.825503      1.005554     -0.984731
  B      -0.900199     -3.534922     -0.477202
  B       1.373721      2.453947     -1.146533
  B      -0.317809     -2.037746     -0.665196
12
Coordinates from ORCA-job input E -297.190563583259
  B      -0.612031     -0.945377      0.605817
  B      -0.026179      0.598329      0.434483
  B       0.539341      3.648716      1.261980
  B      -1.689122     -4.004388      0.769683
  B       0.519734      2.107672      0.318340
  B       1.240552      3.660233     -0.116806
  B       0.240305     -0.545279     -0.816549
  B      -1.193651     -2.406831      0.816742
  B       0.825714      1.005730     -0.984661
  B      -0.900175     -3.535277     -0.476940
  B       1.373720      2.454222     -1.146353
  B      -0.318207     -2.037750     -0.665735
12
Coordinates from ORCA-job input E -297.190563799393
  B      -0.611888     -0.945389      0.606503
  B      -0.025692      0.598340      0.435226
  B       0.538882      3.648983      1.261299
  B      -1.688908     -4.004813      0.768845
  B       0.520106      2.107550      0.318274
  B       1.240389      3.660392     -0.117192
  B       0.240108     -0.545202     -0.816114
  B      -1.193627     -2.407162      0.817069
  B       0.825933      1.005556     -0.984408
  B      -0.900437     -3.534908     -0.477489
  B       1.373898      2.454046     -1.146477
  B      -0.318765     -2.037392     -0.665536
12
Coordinates from ORCA-job input E -297.190563797260
  B      -0.612185     -0.945084      0.606253
  B      -0.025856      0.598398      0.434579
  B       0.538673      3.648419      1.261554
  B      -1.688552     -4.004794      0.769205
  B       0.519855      2.107391      0.318092
  B       1.240751      3.660150     -0.116461
  B       0.239745     -0.545080     -0.816458
  B      -1.193647     -2.406914      0.817249
  B       0.825922      1.005621     -0.984894
  B      -0.900126     -3.534906     -0.477077
  B       1.374256      2.454117     -1.146499
  B      -0.318835     -2.037317     -0.665542
12
Coordinates from ORCA-job input E -297.190563892734
  B      -0.612430     -0.945067      0.606186
  B      -0.026106      0.598472      0.434616
  B       0.538494      3.648709      1.261437
  B      -1.687909     -4.005021      0.769517
  B       0.520112      2.107426      0.318184
  B       1.240905      3.660057     -0.116519
  B       0.239548     -0.545003     -0.816566
  B      -1.193658     -2.406965      0.817138
  B       0.826033      1.005519     -0.984728
  B      -0.900202     -3.534916     -0.477170
  B       1.374537      2.453951     -1.146272
  B      -0.319323     -2.037162     -0.665822
12
Coordinates from ORCA-job input E -297.190563887802
  B      -0.612316     -0.945153      0.605863
  B      -0.026175      0.598438      0.434636
  B       0.538157      3.648930      1.261292
  B      -1.687721     -4.004913      0.770070
  B       0.520049      2.107478      0.318358
  B       1.241033      3.660071     -0.116507
  B       0.239535     -0.545016     -0.816825
  B      -1.193217     -2.407047      0.817082
  B       0.826075      1.005600     -0.984577
  B      -0.900615     -3.535014     -0.477261
  B       1.374864      2.453843     -1.145921
  B      -0.319669     -2.037217     -0.666209
12
Coordinates from ORCA-job input E -297.190563946708
  B      -0.612802     -0.944964      0.605954
  B      -0.026530      0.598623      0.434581
  B       0.538053      3.648925      1.261162
  B      -1.686849     -4.005324      0.770068
  B       0.520037      2.107471      0.318134
  B       1.241491      3.659899     -0.116299
  B       0.239081     -0.544855     -0.816810
  B      -1.193332     -2.407113      0.817214
  B       0.826036      1.005533     -0.984654
  B      -0.900407     -3.534901     -0.477315
  B       1.375360      2.453647     -1.145819
  B      -0.320139     -2.036941     -0.666217
12
Coordinates from ORCA-job input E -297.190563960221
  B      -0.613204     -0.944844      0.605762
  B      -0.026970      0.598732      0.434333
  B       0.538483      3.648773      1.261385
  B      -1.686633     -4.005362      0.770258
  B       0.519716      2.107603      0.318075
  B       1.241861      3.659715     -0.116120
  B       0.238940     -0.544776     -0.816869
  B      -1.193485     -2.407008      0.817071
  B       0.825739      1.005608     -0.984798
  B      -0.900008     -3.535032     -0.477096
  B       1.375409      2.453593     -1.145803
  B      -0.319849     -2.037001     -0.666198
12
Coordinates from ORCA-job input E -297.190563930528
  B      -0.613793     -0.944563      0.605487
  B      -0.027560      0.598958      0.433794
  B       0.538730      3.648372      1.261590
  B      -1.686040     -4.005562      0.770447
  B       0.519390      2.107643      0.317849
  B       1.242427      3.659541     -0.115660
  B       0.238740     -0.544739     -0.817010
  B      -1.193604     -2.406933      0.817270
  B       0.825439      1.005756     -0.985133
  B      -0.899672     -3.535062     -0.476852
  B       1.375756      2.453583     -1.145702
  B      -0.319813     -2.036994     -0.666080
12
Coordinates from ORCA-job input E -297.190563943236
  B      -0.613799     -0.944700      0.605492
  B      -0.027750      0.599003      0.434154
  B       0.538886      3.648776      1.261336
  B      -1.686030     -4.005623      0.770438
  B       0.519372      2.107781      0.318040
  B       1.242579      3.659561     -0.115984
  B       0.238743     -0.544714     -0.816799
  B      -1.193425     -2.407110      0.817049
  B       0.825289      1.005775     -0.984789
  B      -0.899753     -3.535143     -0.477089
  B       1.375716      2.453408     -1.145648
  B      -0.319829     -2.037012     -0.666201
12
Coordinates from ORCA-job input E -297.190563964973
  B      -0.612970     -0.944930      0.605851
  B      -0.026803      0.598697      0.434459
  B       0.538154      3.648894      1.261197
  B      -1.686596     -4.005384      0.770240
  B       0.519718      2.107576      0.318008
  B       1.241762      3.659819     -0.116191
  B       0.239023     -0.544824     -0.816833
  B      -1.193199     -2.407150      0.817259
  B       0.825880      1.005592     -0.984699
  B      -0.900467     -3.534894     -0.477354
  B       1.375606      2.453548     -1.145680
  B      -0.320107     -2.036944     -0.666256
12
Coordinates from ORCA-job input E -297.190563911462
  B      -0.612245     -0.945053      0.606243
  B      -0.025967      0.598469      0.434625
  B       0.537546      3.648731      1.261050
  B      -1.687205     -4.005176      0.769857
  B       0.520072      2.107388      0.318019
  B       1.241038      3.660039     -0.116318
  B       0.239467     -0.545001     -0.816679
  B      -1.193089     -2.407130      0.817551
  B       0.826296      1.005493     -0.984726
  B      -0.901100     -3.534614     -0.477579
  B       1.375334      2.453759     -1.145888
  B      -0.320148     -2.036905     -0.666154
12
Coordinates from ORCA-job input E -297.190563924600
  B      -0.612067     -0.945204      0.606183
  B      -0.025968      0.598400      0.434841
  B       0.537659      3.648963      1.260955
  B      -1.687481     -4.005015      0.769983
  B       0.520066      2.107505      0.318317
  B       1.241009      3.660028     -0.116559
  B       0.239631     -0.545022     -0.816570
  B      -1.192987     -2.407125      0.817241
  B       0.826199      1.005523     -0.984492
  B      -0.901195     -3.534741     -0.477652
  B       1.375080      2.453709     -1.145923
  B      -0.319943     -2.037022     -0.666324
12
Coordinates from ORCA-job input E -297.190563968448
  B      -0.613456     -0.944767      0.605651
  B      -0.027381      0.598867      0.434111
  B       0.538612      3.648700      1.261386
  B      -1.686248     -4.005508      0.770369
  B       0.519444      2.107685      0.317993
  B       1.242267      3.659619     -0.115947
  B       0.238913     -0.544769     -0.816837
  B      -1.193444     -2.407032      0.817168
  B       0.825527      1.005698     -0.984868
  B      -0.900031     -3.535003     -0.477129
  B       1.375617      2.453524     -1.145731
  B      -0.319821     -2.037014     -0.666166
12
Coordinates from ORCA-job input E -297.190563882555
  B      -0.612930     -0.944817      0.606047
  B      -0.026650      0.598714      0.434236
  B       0.537999      3.648547      1.261245
  B      -1.686598     -4.005460      0.769952
  B       0.519802      2.107455      0.317852
  B       1.241638      3.659848     -0.116003
  B       0.239173     -0.544897     -0.816751
  B      -1.193345     -2.407084      0.817580
  B       0.825979      1.005574     -0.984941
  B      -0.900576     -3.534684     -0.477353
  B       1.375559      2.453699     -1.145857
  B      -0.320050     -2.036895     -0.666006
12
Coordinates from ORCA-job input E -297.190563964326
  B      -0.612637     -0.945032      0.606048
  B      -0.026474      0.598600      0.434636
  B       0.537934      3.648952      1.261057
  B      -1.686889     -4.005314      0.770061
  B       0.519863      2.107545      0.318102
  B       1.241467      3.659911     -0.116358
  B       0.239279     -0.544904     -0.816685
  B      -1.193096     -2.407188      0.817320
  B       0.826031      1.005548     -0.984610
  B      -0.900835     -3.534769     -0.477547
  B       1.375427      2.453600     -1.145786
  B      -0.320070     -2.036948     -0.666237
12
Coordinates from ORCA-job input E -297.190563966818
  B      -0.613183     -0.944866      0.605721
  B      -0.027124      0.598770      0.434285
  B       0.538404      3.648803      1.261272
  B      -1.686461     -4.005407      0.770359
  B       0.519585      2.107660      0.318093
  B       1.242050      3.659691     -0.116079
  B       0.239066     -0.544822     -0.816788
  B      -1.193328     -2.407048      0.817134
  B       0.825654      1.005669     -0.984754
  B      -0.900290     -3.534977     -0.477248
  B       1.375504      2.453545     -1.145745
  B      -0.319877     -2.037019     -0.666251
12
Coordinates from ORCA-job input E -297.190563931933
  B      -0.614065     -0.944555      0.605385
  B      -0.028016      0.599072      0.433761
  B       0.538976      3.648541      1.261559
  B      -1.685674     -4.005713      0.770601
  B       0.519226      2.107754      0.317886
  B       1.242859      3.659420     -0.115636
  B       0.238628     -0.544674     -0.816944
  B      -1.193663     -2.406950      0.817106
  B       0.825219      1.005791     -0.985038
  B      -0.899523     -3.535140     -0.476880
  B       1.375821      2.453459     -1.145660
  B      -0.319788     -2.037005     -0.666140
12
Coordinates from ORCA-job input E -297.190563937988
  B      -0.613861     -0.944682      0.605374
  B      -0.027852      0.598996      0.434009
  B       0.538794      3.648805      1.261414
  B      -1.685796     -4.005646      0.770716
  B       0.519315      2.107771      0.318005
  B       1.242717      3.659486     -0.115832
  B       0.238659     -0.544676     -0.816970
  B      -1.193432     -2.407046      0.817012
  B       0.825338      1.005761     -0.984831
  B      -0.899778     -3.535166     -0.477025
  B       1.375843      2.453397     -1.145550
  B      -0.319947     -2.037000     -0.666321
12
Coordinates from ORCA-job input E -297.190563933972
  B      -0.612658     -0.945052      0.605942
  B      -0.026510      0.598598      0.434694
  B       0.537847      3.649076      1.261011
  B      -1.686759     -4.005329      0.770252
  B       0.519869      2.107559      0.318110
  B       1.241551      3.659895     -0.116355
  B       0.239215     -0.544889     -0.816775
  B      -1.193007     -2.407215      0.817248
  B       0.826053      1.005557     -0.984537
  B      -0.900878     -3.534829     -0.477561
  B       1.375531      2.453549     -1.145657
  B      -0.320254     -2.036921     -0.666372
12
Coordinates from ORCA-job input E -297.190563685936
  B      -0.610997     -0.945436      0.606934
  B      -0.024587      0.598082      0.435351
  B       0.536579      3.649012      1.260594
  B      -1.688191     -4.004915      0.769237
  B       0.520664      2.107150      0.318096
  B       1.239821      3.660492     -0.116898
  B       0.240061     -0.545220     -0.816379
  B      -1.192676     -2.407350      0.817865
  B       0.827049      1.005254     -0.984408
  B      -0.902281     -3.534186     -0.478217
  B       1.374988      2.453915     -1.146057
  B      -0.320432     -2.036798     -0.666120
12
Coordinates from ORCA-job input E -297.190563888021
  B      -0.611628     -0.945363      0.606417
  B      -0.025562      0.598267      0.435066
  B       0.537425      3.649080      1.260831
  B      -1.687896     -4.004887      0.769771
  B       0.520207      2.107447      0.318398
  B       1.240582      3.660190     -0.116814
  B       0.239821     -0.545070     -0.816442
  B      -1.192822     -2.407216      0.817327
  B       0.826424      1.005432     -0.984352
  B      -0.901593     -3.534592     -0.477887
  B       1.374937      2.453743     -1.146006
  B      -0.319895     -2.037031     -0.666308
12
Coordinates from ORCA-job input E -297.190563460292
  B      -0.616346     -0.943886      0.604245
  B      -0.030571      0.599805      0.432540
  B       0.540733      3.648156      1.262259
  B      -1.683846     -4.006296      0.771565
  B       0.518206      2.108189      0.317774
  B       1.245091      3.658597     -0.114688
  B       0.237604     -0.544280     -0.817357
  B      -1.194352     -2.406628      0.816581
  B       0.823845      1.006195     -0.985513
  B      -0.897509     -3.535822     -0.475878
  B       1.376404      2.453129     -1.145397
  B      -0.319261     -2.037158     -0.666132
12
Coordinates from ORCA-job input E -297.190561803529
  B      -0.614200     -0.944034      0.606155
  B      -0.027435      0.599204      0.433022
  B       0.538457      3.647317      1.261810
  B      -1.685361     -4.006199      0.769349
  B       0.519574      2.107198      0.316887
  B       1.242437      3.659591     -0.114873
  B       0.238692     -0.544830     -0.816807
  B      -1.194346     -2.406816      0.818438
  B       0.825655      1.005640     -0.986008
  B      -0.899449     -3.534396     -0.476755
  B       1.376021      2.453945     -1.146125
  B      -0.320044     -2.036619     -0.665092
12
Coordinates from ORCA-job input E -297.190563909991
  B      -0.611965     -0.945257      0.606305
  B      -0.025757      0.598356      0.435032
  B       0.537428      3.649138      1.260831
  B      -1.687355     -4.005113      0.769935
  B       0.520098      2.107456      0.318198
  B       1.240905      3.660103     -0.116631
  B       0.239627     -0.545020     -0.816569
  B      -1.192906     -2.407242      0.817351
  B       0.826381      1.005449     -0.984423
  B      -0.901469     -3.534611     -0.477854
  B       1.375225      2.453667     -1.145841
  B      -0.320210     -2.036926     -0.666334
12
Coordinates from ORCA-job input E -297.190563827434
  B      -0.613960     -0.944697      0.605238
  B      -0.028116      0.599022      0.433945
  B       0.539032      3.648862      1.261463
  B      -1.685770     -4.005576      0.770892
  B       0.519196      2.107874      0.318183
  B       1.242918      3.659370     -0.115838
  B       0.238708     -0.544662     -0.816937
  B      -1.193488     -2.406976      0.816799
  B       0.825145      1.005818     -0.984792
  B      -0.899653     -3.535282     -0.476962
  B       1.375711      2.453352     -1.145579
  B      -0.319724     -2.037105     -0.666413
12
Coordinates from ORCA-job input E -297.190563969100
  B      -0.613452     -0.944742      0.605699
  B      -0.027335      0.598872      0.434125
  B       0.538461      3.648692      1.261322
  B      -1.686132     -4.005565      0.770357
  B       0.519541      2.107633      0.317963
  B       1.242258      3.659628     -0.115913
  B       0.238944     -0.544784     -0.816813
  B      -1.193439     -2.407043      0.817238
  B       0.825598      1.005675     -0.984870
  B      -0.900148     -3.534937     -0.477198
  B       1.375651      2.453531     -1.145737
  B      -0.319947     -2.036960     -0.666173
12
Coordinates from ORCA-job input E -297.190563949551
  B      -0.612484     -0.945031      0.606121
  B      -0.026304      0.598567      0.434582
  B       0.537771      3.648839      1.261076
  B      -1.686952     -4.005290      0.770004
  B       0.519943      2.107477      0.318037
  B       1.241348      3.659949     -0.116291
  B       0.239413     -0.544969     -0.816668
  B      -1.193161     -2.407151      0.817420
  B       0.826145      1.005536     -0.984695
  B      -0.900959     -3.534692     -0.477559
  B       1.375353      2.453697     -1.145841
  B      -0.320113     -2.036932     -0.666186
12
Coordinates from ORCA-job input E -297.190563869625
  B      -0.611977     -0.945302      0.606159
  B      -0.025950      0.598375      0.434972
  B       0.537622      3.649185      1.260897
  B      -1.687494     -4.005027      0.770085
  B       0.520040      2.107550      0.318352
  B       1.240996      3.660061     -0.116681
  B       0.239655     -0.545027     -0.816597
  B      -1.192868     -2.407210      0.817168
  B       0.826265      1.005509     -0.984365
  B      -0.901357     -3.534755     -0.477756
  B       1.375100      2.453670     -1.145824
  B      -0.320032     -2.037028     -0.666411
12
Coordinates from ORCA-job input E -297.190563974146
  B      -0.612975     -0.944923      0.605892
  B      -0.026893      0.598715      0.434400
  B       0.538230      3.648831      1.261181
  B      -1.686625     -4.005395      0.770184
  B       0.519715      2.107603      0.318093
  B       1.241822      3.659781     -0.116186
  B       0.239179     -0.544863     -0.816704
  B      -1.193256     -2.407098      0.817232
  B       0.825800      1.005614     -0.984703
  B      -0.900520     -3.534863     -0.477386
  B       1.375438      2.453580     -1.145806
  B      -0.319916     -2.036982     -0.666196
12
Coordinates from ORCA-job input E -297.190563943301
  B      -0.613425     -0.944710      0.605751
  B      -0.027232      0.598874      0.434073
  B       0.538352      3.648607      1.261341
  B      -1.686138     -4.005597      0.770265
  B       0.519609      2.107572      0.317874
  B       1.242165      3.659665     -0.115862
  B       0.238931     -0.544799     -0.816845
  B      -1.193451     -2.407060      0.817392
  B       0.825691      1.005660     -0.984959
  B      -0.900184     -3.534871     -0.477192
  B       1.375706      2.453583     -1.145734
  B      -0.320023     -2.036922     -0.666103
12
Coordinates from ORCA-job input E -297.190563942832
  B      -0.614048     -0.944591      0.605298
  B      -0.027968      0.599051      0.433848
  B       0.538811      3.648706      1.261483
  B      -1.685609     -4.005706      0.770769
  B       0.519300      2.107750      0.317966
  B       1.242825      3.659424     -0.115695
  B       0.238572     -0.544651     -0.817045
  B      -1.193498     -2.407023      0.817108
  B       0.825307      1.005785     -0.984961
  B      -0.899686     -3.535157     -0.476947
  B       1.375948      2.453409     -1.145523
  B      -0.319956     -2.036997     -0.666302
12
Coordinates from ORCA-job input E -297.190563970059
  B      -0.613011     -0.944884      0.605894
  B      -0.026861      0.598726      0.434358
  B       0.538148      3.648780      1.261186
  B      -1.686545     -4.005433      0.770176
  B       0.519753      2.107563      0.318007
  B       1.241826      3.659798     -0.116115
  B       0.239105     -0.544858     -0.816757
  B      -1.193259     -2.407105      0.817309
  B       0.825843      1.005607     -0.984752
  B      -0.900499     -3.534845     -0.477361
  B       1.375532      2.453593     -1.145769
  B      -0.320031     -2.036942     -0.666176
12
Coordinates from ORCA-job input E -297.190563827541
  B      -0.610984     -0.945554      0.606808
  B      -0.024849      0.598072      0.435439
  B       0.537100      3.649154      1.260690
  B      -1.688511     -4.004727      0.769339
  B       0.520451      2.107348      0.318357
  B       1.239946      3.660398     -0.117086
  B       0.240257     -0.545234     -0.816230
  B      -1.192751     -2.407257      0.817423
  B       0.826741      1.005332     -0.984252
  B      -0.902074     -3.534399     -0.478141
  B       1.374576      2.453874     -1.146187
  B      -0.319901     -2.037007     -0.666160
12
Coordinates from ORCA-job input E -297.190563962091
  B      -0.612637     -0.945037      0.605995
  B      -0.026547      0.598601      0.434584
  B       0.538033      3.648917      1.261110
  B      -1.686940     -4.005261      0.770118
  B       0.519822      2.107573      0.318151
  B       1.241520      3.659873     -0.116336
  B       0.239346     -0.544919     -0.816665
  B      -1.193157     -2.407127      0.817234
  B       0.825955      1.005579     -0.984624
  B      -0.900777     -3.534817     -0.477498
  B       1.375313      2.453620     -1.145828
  B      -0.319932     -2.037000     -0.666240
