12
Coordinates from ORCA-job input E -297.190563962091
  B          -0.61263685632806     -0.94503716038017      0.60599493332344
  B          -0.02654654509607      0.59860050009880      0.43458421226230
  B           0.53803301386192      3.64891663813558      1.26110959376817
  B          -1.68693959089150     -4.00526092887305      0.77011766562040
  B           0.51982233564072      2.10757278640736      0.31815050466059
  B           1.24151962424211      3.65987277280238     -0.11633634787474
  B           0.23934591051642     -0.54491913931003     -0.81666469603733
  B          -1.19315706447623     -2.40712732480164      0.81723429463814
  B           0.82595479018813      1.00557945980723     -0.98462409286956
  B          -0.90077690232259     -3.53481739514135     -0.47749751293468
  B           1.37531279186763      2.45362011420973     -1.14582829788982
  B          -0.31993150720248     -2.03700032295486     -0.66624027666690
