12
Optimized coordinates extracted from calculations\B12\compact_3d\d_2.5\mult_5\output.out
B       -0.61263686      -0.94503716       0.60599493
B       -0.02654655       0.59860050       0.43458421
B        0.53803301       3.64891664       1.26110959
B       -1.68693959      -4.00526093       0.77011767
B        0.51982234       2.10757279       0.31815050
B        1.24151962       3.65987277      -0.11633635
B        0.23934591      -0.54491914      -0.81666470
B       -1.19315706      -2.40712732       0.81723429
B        0.82595479       1.00557946      -0.98462409
B       -0.90077690      -3.53481740      -0.47749751
B        1.37531279       2.45362011      -1.14582830
B       -0.31993151      -2.03700032      -0.66624028
