12
B12 quasi_planar_buckled_double_ring; neutral charge=0; multiplicity=5; quasi_planar initial geometry; nominal d=3.5 A; Low-amplitude buckled B6@B6 control motif.
B        3.50000000      -0.00000000       0.28000000
B        1.75000000       3.03108891      -0.28000000
B       -1.75000000       3.03108891       0.28000000
B       -3.50000000       0.00000000      -0.28000000
B       -1.75000000      -3.03108891       0.28000000
B        1.75000000      -3.03108891      -0.28000000
B        5.25000000       3.03108891       0.42000000
B        0.00000000       6.06217783      -0.42000000
B       -5.25000000       3.03108891       0.42000000
B       -5.25000000      -3.03108891      -0.42000000
B       -0.00000000      -6.06217783       0.42000000
B        5.25000000      -3.03108891      -0.42000000
