12
B12 distorted_icosahedron_02; neutral charge=0; multiplicity=3; 3d initial geometry; nominal d=3.5 A; Low-symmetry distorted icosahedron variant 02.
B        0.01161939      -1.82856878      -2.92658465
B        0.10248080      -1.81276256       3.00664216
B       -0.02113913       1.58871854      -2.69939737
B        0.07073509       1.74917294       2.99869978
B       -1.86174492      -2.82792635       0.10208322
B       -1.93410373       2.78149003      -0.02696938
B        1.81887586      -2.91095766      -0.08533808
B        1.87321721       2.96536543      -0.08735333
B       -2.90354699       0.09530973      -1.78393562
B       -2.86486431       0.06059098       1.66162859
B        2.84473319       0.02113677      -1.85367397
B        2.86373755       0.11843091       1.69419867
