12
B12 icosahedron; neutral charge=0; multiplicity=1; 3d initial geometry; nominal d=3.5 A; Regular icosahedral B12 vertex shell.
B        0.00000000      -1.75000000      -2.83155948
B        0.00000000      -1.75000000       2.83155948
B        0.00000000       1.75000000      -2.83155948
B        0.00000000       1.75000000       2.83155948
B       -1.75000000      -2.83155948       0.00000000
B       -1.75000000       2.83155948       0.00000000
B        1.75000000      -2.83155948       0.00000000
B        1.75000000       2.83155948       0.00000000
B       -2.83155948       0.00000000      -1.75000000
B       -2.83155948       0.00000000       1.75000000
B        2.83155948       0.00000000      -1.75000000
B        2.83155948       0.00000000       1.75000000
