12
B12 quasi_planar_buckled_double_ring; neutral charge=0; multiplicity=5; quasi_planar initial geometry; nominal d=5.0 A; Low-amplitude buckled B6@B6 control motif.
B        5.00000000       0.00000000       0.40000000
B        2.50000000       4.33012702      -0.40000000
B       -2.50000000       4.33012702       0.40000000
B       -5.00000000       0.00000000      -0.40000000
B       -2.50000000      -4.33012702       0.40000000
B        2.50000000      -4.33012702      -0.40000000
B        7.50000000       4.33012702       0.60000000
B        0.00000000       8.66025404      -0.60000000
B       -7.50000000       4.33012702       0.60000000
B       -7.50000000      -4.33012702      -0.60000000
B       -0.00000000      -8.66025404       0.60000000
B        7.50000000      -4.33012702      -0.60000000
