12
B12 random_3d_03; neutral charge=0; multiplicity=3; 3d initial geometry; nominal d=4.5 A; Random 3D B12 cloud with controlled minimum distance 03.
B       -7.40113521       0.01310399       1.68098561
B       -0.40311129       0.02287843      -5.23229692
B       -3.18227656      -1.25665930       6.24241509
B       -1.04011972       6.31748475      -4.49240187
B       -2.44615469       0.69042886       0.19706088
B       -2.56748828      -3.23638160       2.96717001
B        6.29778251      -1.50992633      -3.79134394
B        2.07676597       0.61053433       0.43116382
B       -1.33640213       2.14324417       4.77920352
B        5.32388471       6.35628806      -0.18588405
B        1.57206209      -5.77471846       1.49242086
B        3.10619260      -4.37627691      -4.08849303
