12
B12 distorted_icosahedron_02; neutral charge=0; multiplicity=3; 3D initial geometry; nominal d=4.0 A; Low-symmetry distorted icosahedron variant 02.
B        0.01327930      -2.08979289      -3.34466818
B        0.11712092      -2.07172864       3.43616246
B       -0.02415901       1.81567833      -3.08502557
B        0.08084010       1.99905479       3.42708546
B       -2.12770848      -3.23191583       0.11666654
B       -2.21040426       3.17884575      -0.03082215
B        2.07871527      -3.32680876      -0.09752924
B        2.14081967       3.38898907      -0.09983237
B       -3.31833942       0.10892541      -2.03878357
B       -3.27413064       0.06924683       1.89900410
B        3.25112364       0.02415631      -2.11848454
B        3.27284292       0.13534961       1.93622705
