12
Coordinates from ORCA-job input E -297.283784698807
  B           0.46087180300096     -0.62805715977902      1.20289223385599
  B           1.94851878968806     -0.01437443140985      0.79429073444767
  B          -0.82366019701661      0.31508332164818      0.34681832586065
  B          -1.00405784910432     -1.17828949967393      1.36380586948578
  B           1.74234310708880      1.11427762809646     -0.68399224256781
  B          -1.45045107846079      1.41709569047269     -0.78380509217628
  B           0.76773815114095     -0.33977017601062     -0.56615356666845
  B          -2.01121915855126     -1.21066133026129      0.13773500678375
  B           3.03798932725997      0.43610534542087     -0.21681446250808
  B          -2.39732660914284      0.17179854972131     -0.53165754016488
  B           0.10751473978276      1.35609523204690     -0.77827359836435
  B          -0.37826102568569     -1.43930317027169     -0.28484568798400
