12
Coordinates from ORCA-job input E -294.999337473775
  B       0.000000      0.000000      5.032779
  B       3.792664      0.000000      2.300775
  B      -1.896332      3.278404      2.300775
  B      -1.896332     -3.278404      2.300775
  B       2.314168      3.792664     -0.109816
  B      -2.314168      3.792664     -0.109816
  B       2.314168     -3.792664     -0.109816
  B      -2.314168     -3.792664     -0.109816
  B       3.599816      0.000000     -2.552548
  B      -3.599816      0.000000     -2.552548
  B       0.000000      3.149839     -3.195373
  B       0.000000     -3.149839     -3.195373
12
Coordinates from ORCA-job input E -295.014379963691
  B      -0.012858     -0.000132      4.974431
  B       3.785094     -0.000308      2.293763
  B      -1.905578      3.282493      2.245173
  B      -1.905802     -3.282959      2.245443
  B       2.315883      3.790657     -0.118429
  B      -2.300021      3.782601     -0.075632
  B       2.316070     -3.790914     -0.118631
  B      -2.299961     -3.782602     -0.075388
  B       3.594225      0.000438     -2.548503
  B      -3.590475      0.000215     -2.511314
  B       0.001731      3.153297     -3.156198
  B       0.001691     -3.152786     -3.154715
12
Coordinates from ORCA-job input E -295.030526895874
  B      -0.025387     -0.000266      4.916034
  B       3.777350     -0.000625      2.286876
  B      -1.914278      3.286516      2.189340
  B      -1.914732     -3.287451      2.189889
  B       2.317295      3.788544     -0.126842
  B      -2.285857      3.772077     -0.042042
  B       2.317665     -3.789070     -0.127267
  B      -2.285731     -3.772086     -0.041541
  B       3.588459      0.000886     -2.544265
  B      -3.581599      0.000433     -2.470038
  B       0.003443      3.156494     -3.116577
  B       0.003372     -3.155452     -3.113568
12
Coordinates from ORCA-job input E -295.053010954602
  B      -0.042919     -0.001715      4.827283
  B       3.767977      0.000257      2.275691
  B      -1.926188      3.289526      2.103345
  B      -1.929048     -3.295052      2.109143
  B       2.321608      3.784757     -0.139295
  B      -2.263517      3.751770      0.008348
  B       2.317944     -3.785978     -0.138003
  B      -2.267668     -3.755690      0.009168
  B       3.581901      0.007185     -2.538474
  B      -3.570891      0.003729     -2.412771
  B       0.004001      3.157424     -3.056074
  B       0.006799     -3.156213     -3.048360
12
Coordinates from ORCA-job input E -295.081362873280
  B      -0.057382     -0.005366      4.711925
  B       3.747962      0.000580      2.263078
  B      -1.936151      3.287617      1.992773
  B      -1.942782     -3.303346      2.010237
  B       2.321806      3.778191     -0.157734
  B      -2.231753      3.721574      0.056216
  B       2.312896     -3.778254     -0.156337
  B      -2.243741     -3.733089      0.063971
  B       3.568165      0.017480     -2.526591
  B      -3.557115      0.009625     -2.336712
  B       0.006861      3.161248     -2.968503
  B       0.011235     -3.156261     -2.952321
12
Coordinates from ORCA-job input E -295.110516238485
  B      -0.068851     -0.009918      4.589276
  B       3.724349     -0.000918      2.252385
  B      -1.942149      3.281796      1.870976
  B      -1.952998     -3.311119      1.909807
  B       2.318229      3.771236     -0.174550
  B      -2.196701      3.686583      0.095212
  B       2.305323     -3.768394     -0.177136
  B      -2.217525     -3.709200      0.113625
  B       3.549889      0.029543     -2.511302
  B      -3.543285      0.017584     -2.250662
  B       0.010522      3.167139     -2.872224
  B       0.013196     -3.154334     -2.845407
12
Coordinates from ORCA-job input E -295.129169070132
  B      -0.074788     -0.012973      4.495761
  B       3.707274     -0.001906      2.244841
  B      -1.943225      3.275821      1.776754
  B      -1.959028     -3.316355      1.838045
  B       2.314470      3.766339     -0.184820
  B      -2.172020      3.660823      0.120535
  B       2.296805     -3.760690     -0.192422
  B      -2.200758     -3.694400      0.143824
  B       3.535558      0.040024     -2.498773
  B      -3.531711      0.023805     -2.183021
  B       0.012493      3.170759     -2.798567
  B       0.014931     -3.151246     -2.762158
12
Coordinates from ORCA-job input E -295.139594552728
  B      -0.068981     -0.022455      4.441043
  B       3.688090     -0.002988      2.239564
  B      -1.938962      3.267466      1.737633
  B      -1.961347     -3.318499      1.793538
  B       2.305047      3.760994     -0.195790
  B      -2.159586      3.651162      0.112673
  B       2.285504     -3.753217     -0.206825
  B      -2.191403     -3.684187      0.161316
  B       3.524326      0.049498     -2.488738
  B      -3.519831      0.028509     -2.144336
  B       0.017014      3.172487     -2.751408
  B       0.020128     -3.148771     -2.698670
12
Coordinates from ORCA-job input E -295.154467306567
  B      -0.051282     -0.030827      4.371202
  B       3.649194     -0.005025      2.232158
  B      -1.929947      3.254580      1.690071
  B      -1.961218     -3.319597      1.751664
  B       2.285385      3.752122     -0.215982
  B      -2.141836      3.640007      0.092683
  B       2.260492     -3.740481     -0.234783
  B      -2.180637     -3.677933      0.168248
  B       3.504774      0.062106     -2.472656
  B      -3.495593      0.033819     -2.094247
  B       0.027403      3.177977     -2.678511
  B       0.033266     -3.146747     -2.609848
12
Coordinates from ORCA-job input E -295.177257761273
  B      -0.018315     -0.039521      4.277677
  B       3.588890     -0.007169      2.223198
  B      -1.914345      3.232601      1.622823
  B      -1.957300     -3.318569      1.710495
  B       2.253954      3.738637     -0.246322
  B      -2.115570      3.621983      0.057544
  B       2.220726     -3.720251     -0.276128
  B      -2.167476     -3.673175      0.159149
  B       3.474386      0.079529     -2.447485
  B      -3.459595      0.042025     -2.026499
  B       0.043439      3.186797     -2.569371
  B       0.051207     -3.142888     -2.485083
12
Coordinates from ORCA-job input E -295.201754582879
  B       0.019256     -0.049761      4.191577
  B       3.526646     -0.008326      2.215357
  B      -1.897835      3.208926      1.566740
  B      -1.952058     -3.314852      1.675274
  B       2.219680      3.724381     -0.277694
  B      -2.089585      3.604755      0.017984
  B       2.178317     -3.698396     -0.317285
  B      -2.153065     -3.666077      0.145457
  B       3.443417      0.094927     -2.421700
  B      -3.423154      0.049175     -1.967943
  B       0.059560      3.194129     -2.464426
  B       0.068821     -3.138882     -2.363341
12
Coordinates from ORCA-job input E -295.228653668163
  B       0.060020     -0.058245      4.110488
  B       3.462415     -0.008551      2.208957
  B      -1.880547      3.184745      1.513758
  B      -1.945057     -3.308789      1.648026
  B       2.183526      3.710222     -0.308550
  B      -2.061734      3.586239     -0.019854
  B       2.132333     -3.675357     -0.358186
  B      -2.136499     -3.658804      0.125089
  B       3.411689      0.108049     -2.395135
  B      -3.386025      0.055127     -1.916000
  B       0.074486      3.201040     -2.361897
  B       0.085393     -3.135675     -2.246696
12
Coordinates from ORCA-job input E -295.249556768891
  B       0.090946     -0.066026      4.064531
  B       3.417621     -0.008284      2.205904
  B      -1.866573      3.165604      1.488362
  B      -1.938866     -3.303528      1.636518
  B       2.157863      3.701766     -0.328126
  B      -2.041983      3.574404     -0.052840
  B       2.096849     -3.658440     -0.386119
  B      -2.124119     -3.653472      0.107412
  B       3.390657      0.117203     -2.377205
  B      -3.361202      0.059080     -1.888835
  B       0.082707      3.205888     -2.299156
  B       0.096101     -3.134196     -2.170446
12
Coordinates from ORCA-job input E -295.271182957699
  B       0.121596     -0.072211      4.017731
  B       3.372493     -0.007532      2.203603
  B      -1.852052      3.146744      1.457885
  B      -1.931917     -3.298268      1.625705
  B       2.132510      3.694238     -0.346100
  B      -2.019583      3.560375     -0.082058
  B       2.059746     -3.641594     -0.412886
  B      -2.109724     -3.648370      0.088738
  B       3.369400      0.126011     -2.358814
  B      -3.336678      0.062917     -1.860925
  B       0.089012      3.211063     -2.236127
  B       0.105198     -3.133371     -2.096753
12
Coordinates from ORCA-job input E -295.303948747059
  B       0.165673     -0.082572      3.943551
  B       3.304892     -0.006202      2.201022
  B      -1.830508      3.119120      1.409979
  B      -1.920853     -3.290095      1.597943
  B       2.093431      3.682400     -0.372137
  B      -1.983221      3.538415     -0.122242
  B       2.004827     -3.617265     -0.448875
  B      -2.082252     -3.635781      0.069814
  B       3.336747      0.137804     -2.330428
  B      -3.300493      0.068902     -1.817079
  B       0.096110      3.217691     -2.142659
  B       0.115647     -3.132418     -1.988888
12
Coordinates from ORCA-job input E -295.340961589621
  B       0.210283     -0.090848      3.874680
  B       3.235802     -0.004058      2.199015
  B      -1.807578      3.091442      1.365530
  B      -1.907194     -3.279412      1.573993
  B       2.052073      3.670963     -0.397151
  B      -1.942601      3.515346     -0.160973
  B       1.945392     -3.593044     -0.482239
  B      -2.049297     -3.622230      0.047408
  B       3.303728      0.147348     -2.301662
  B      -3.263988      0.073678     -1.779030
  B       0.099751      3.224358     -2.051289
  B       0.123629     -3.133541     -1.888283
12
Coordinates from ORCA-job input E -295.370680690666
  B       0.240950     -0.095767      3.839537
  B       3.189849     -0.002089      2.195972
  B      -1.791191      3.071656      1.346147
  B      -1.896011     -3.268948      1.563379
  B       2.021506      3.663434     -0.413308
  B      -1.913670      3.500644     -0.191997
  B       1.903757     -3.576914     -0.501919
  B      -2.025121     -3.611635      0.027567
  B       3.285484      0.150498     -2.283686
  B      -3.241642      0.075885     -1.761701
  B       0.098802      3.227954     -1.992314
  B       0.127288     -3.134718     -1.827678
12
Coordinates from ORCA-job input E -295.416279271350
  B       0.280501     -0.097057      3.787128
  B       3.122658     -0.002027      2.190545
  B      -1.771274      3.046903      1.306750
  B      -1.879663     -3.249863      1.536373
  B       1.973296      3.644308     -0.444571
  B      -1.872905      3.477115     -0.224161
  B       1.845313     -3.551614     -0.533651
  B      -1.987514     -3.591167      0.003701
  B       3.262446      0.149007     -2.256864
  B      -3.210739      0.079486     -1.727483
  B       0.098697      3.231144     -1.897198
  B       0.139183     -3.136235     -1.740569
12
Coordinates from ORCA-job input E -295.464436031524
  B       0.320817     -0.097905      3.737828
  B       3.055140     -0.001842      2.188827
  B      -1.749388      3.021562      1.271387
  B      -1.860336     -3.227813      1.508170
  B       1.921450      3.622535     -0.475192
  B      -1.826838      3.452971     -0.256872
  B       1.787898     -3.527464     -0.559171
  B      -1.944880     -3.567676     -0.021197
  B       3.235172      0.148237     -2.228212
  B      -3.180254      0.083437     -1.695506
  B       0.095315      3.233219     -1.807329
  B       0.145905     -3.139262     -1.662733
12
Coordinates from ORCA-job input E -295.515138886530
  B       0.361875     -0.097749      3.689499
  B       2.987763     -0.001417      2.190411
  B      -1.725076      2.996496      1.237242
  B      -1.838254     -3.203510      1.479543
  B       1.866218      3.600014     -0.502171
  B      -1.773687      3.427896     -0.289044
  B       1.733364     -3.505781     -0.577642
  B      -1.897205     -3.542148     -0.048118
  B       3.203053      0.146976     -2.198311
  B      -3.150206      0.087988     -1.665859
  B       0.086277      3.234686     -1.722278
  B       0.145878     -3.143452     -1.593273
12
Coordinates from ORCA-job input E -295.567686403342
  B       0.403437     -0.096864      3.641473
  B       2.921554     -0.001181      2.195130
  B      -1.699273      2.972326      1.205709
  B      -1.813440     -3.177612      1.448988
  B       1.808696      3.577504     -0.524095
  B      -1.715181      3.403200     -0.320215
  B       1.683757     -3.487846     -0.588129
  B      -1.844112     -3.514556     -0.076617
  B       3.166585      0.144247     -2.168068
  B      -3.120850      0.093682     -1.638922
  B       0.071316      3.235642     -1.644495
  B       0.137512     -3.148541     -1.530759
12
Coordinates from ORCA-job input E -295.623124329578
  B       0.445188     -0.095124      3.593413
  B       2.858382     -0.000647      2.203133
  B      -1.672589      2.949285      1.175688
  B      -1.785083     -3.150998      1.416358
  B       1.750250      3.555579     -0.540520
  B      -1.652017      3.379094     -0.350014
  B       1.642262     -3.474897     -0.588487
  B      -1.785009     -3.485563     -0.108574
  B       3.126046      0.139554     -2.138006
  B      -3.093608      0.101939     -1.615198
  B       0.049810      3.235971     -1.573275
  B       0.116369     -3.154193     -1.474518
12
Coordinates from ORCA-job input E -295.664486410910
  B       0.473398     -0.093517      3.565928
  B       2.819904      0.000169      2.211179
  B      -1.653099      2.933181      1.158218
  B      -1.762959     -3.133021      1.399453
  B       1.711978      3.542727     -0.547140
  B      -1.604561      3.362788     -0.374143
  B       1.619514     -3.469404     -0.582727
  B      -1.740853     -3.466547     -0.136928
  B       3.095564      0.135976     -2.118138
  B      -3.078668      0.109741     -1.605000
  B       0.028444      3.236508     -1.528923
  B       0.091340     -3.158601     -1.441778
12
Coordinates from ORCA-job input E -295.692993875420
  B       0.491806     -0.092082      3.549376
  B       2.795153      0.000636      2.216897
  B      -1.640361      2.922355      1.147874
  B      -1.747344     -3.121099      1.390118
  B       1.687263      3.534747     -0.550236
  B      -1.572871      3.352030     -0.390406
  B       1.604735     -3.466549     -0.577832
  B      -1.709260     -3.454044     -0.158261
  B       3.074835      0.133332     -2.105452
  B      -3.069339      0.115811     -1.599684
  B       0.013407      3.236553     -1.501704
  B       0.071976     -3.161690     -1.420688
12
Coordinates from ORCA-job input E -295.735074927615
  B       0.516692     -0.090125      3.519508
  B       2.757449      0.001250      2.224258
  B      -1.622204      2.907556      1.127666
  B      -1.724142     -3.104557      1.368108
  B       1.650595      3.522687     -0.554304
  B      -1.525631      3.335753     -0.409600
  B       1.582060     -3.462382     -0.569717
  B      -1.659077     -3.434111     -0.184992
  B       3.043836      0.129078     -2.087385
  B      -3.054221      0.125297     -1.587133
  B      -0.008002      3.235582     -1.460811
  B       0.042645     -3.166028     -1.385596
12
Coordinates from ORCA-job input E -295.793275811541
  B       0.551658     -0.087815      3.468411
  B       2.698361      0.002501      2.232805
  B      -1.597253      2.886221      1.094212
  B      -1.691669     -3.081800      1.329548
  B       1.595190      3.503820     -0.560537
  B      -1.458030      3.311643     -0.430565
  B       1.545663     -3.454279     -0.558175
  B      -1.585798     -3.404913     -0.215933
  B       3.000259      0.123624     -2.062192
  B      -3.027620      0.139717     -1.563575
  B      -0.034366      3.232036     -1.401957
  B       0.003605     -3.170755     -1.332043
12
Coordinates from ORCA-job input E -295.848524369367
  B       0.589306     -0.080742      3.425619
  B       2.642084      0.003174      2.240935
  B      -1.584573      2.861600      1.077131
  B      -1.656926     -3.050733      1.302052
  B       1.541641      3.477955     -0.576703
  B      -1.407041      3.285760     -0.448289
  B       1.513253     -3.447280     -0.547921
  B      -1.502088     -3.370747     -0.266220
  B       2.962656      0.111876     -2.034215
  B      -3.004420      0.159471     -1.546812
  B      -0.047211      3.225528     -1.348493
  B      -0.046680     -3.175861     -1.277085
12
Coordinates from ORCA-job input E -295.879753155612
  B       0.619222     -0.077835      3.390404
  B       2.592778      0.001136      2.244472
  B      -1.579377      2.840538      1.075156
  B      -1.632452     -3.026685      1.276076
  B       1.502543      3.454575     -0.591884
  B      -1.383025      3.267877     -0.457941
  B       1.480043     -3.436742     -0.544259
  B      -1.442927     -3.343500     -0.293173
  B       2.940417      0.103971     -2.013908
  B      -2.981533      0.174402     -1.531292
  B      -0.044078      3.217524     -1.320527
  B      -0.071608     -3.175262     -1.233123
12
Coordinates from ORCA-job input E -295.896313363819
  B       0.643227     -0.077292      3.358496
  B       2.551665     -0.001234      2.245900
  B      -1.575555      2.822504      1.072271
  B      -1.618308     -3.009055      1.260784
  B       1.476665      3.436558     -0.600886
  B      -1.369383      3.253053     -0.463659
  B       1.453600     -3.424095     -0.545305
  B      -1.410261     -3.324489     -0.303913
  B       2.928087      0.100818     -1.998345
  B      -2.961300      0.184031     -1.516950
  B      -0.039903      3.210205     -1.303331
  B      -0.078535     -3.171003     -1.205063
12
Coordinates from ORCA-job input E -295.915049501810
  B       0.686114     -0.078705      3.295289
  B       2.479166     -0.006003      2.247172
  B      -1.568426      2.785025      1.065139
  B      -1.599487     -2.977410      1.243239
  B       1.444041      3.405023     -0.610158
  B      -1.355321      3.223402     -0.472271
  B       1.414197     -3.395761     -0.548900
  B      -1.376542     -3.292551     -0.309003
  B       2.913294      0.099436     -1.969342
  B      -2.925298      0.199651     -1.489834
  B      -0.034652      3.193951     -1.281365
  B      -0.077087     -3.156059     -1.169966
12
Coordinates from ORCA-job input E -295.934119776119
  B       0.726530     -0.081071      3.197728
  B       2.385202     -0.012758      2.237858
  B      -1.553942      2.704693      1.049371
  B      -1.566559     -2.909342      1.227487
  B       1.422151      3.344715     -0.615378
  B      -1.352028      3.160570     -0.483193
  B       1.392539     -3.341271     -0.545857
  B      -1.344766     -3.230575     -0.317572
  B       2.896192      0.093243     -1.918753
  B      -2.872847      0.231809     -1.437046
  B      -0.041627      3.153771     -1.258135
  B      -0.090845     -3.113785     -1.136512
12
Coordinates from ORCA-job input E -295.950117948935
  B       0.762069     -0.086749      3.093613
  B       2.287830     -0.018969      2.223447
  B      -1.533568      2.615236      1.025719
  B      -1.542248     -2.840907      1.226319
  B       1.400214      3.288828     -0.618363
  B      -1.354594      3.094803     -0.488689
  B       1.360583     -3.280578     -0.554074
  B      -1.345836     -3.175378     -0.302497
  B       2.885620      0.097554     -1.869186
  B      -2.816434      0.261253     -1.382939
  B      -0.037744      3.114868     -1.236736
  B      -0.065892     -3.069961     -1.116613
12
Coordinates from ORCA-job input E -295.962087090265
  B       0.777101     -0.090421      3.029894
  B       2.241017     -0.021090      2.215242
  B      -1.518226      2.541846      1.014597
  B      -1.515175     -2.781107      1.221402
  B       1.407625      3.247098     -0.614385
  B      -1.370005      3.043810     -0.496881
  B       1.373307     -3.242027     -0.543071
  B      -1.344611     -3.128574     -0.308748
  B       2.882316      0.093449     -1.831658
  B      -2.792527      0.288956     -1.346869
  B      -0.052647      3.081290     -1.231178
  B      -0.088175     -3.033229     -1.108345
12
Coordinates from ORCA-job input E -295.971604968170
  B       0.750133     -0.095034      3.022528
  B       2.244580     -0.020228      2.201962
  B      -1.506120      2.486330      1.004967
  B      -1.498400     -2.739637      1.225628
  B       1.415728      3.218280     -0.616771
  B      -1.383939      3.006480     -0.502151
  B       1.381191     -3.212700     -0.541915
  B      -1.349950     -3.098786     -0.312541
  B       2.882180      0.094031     -1.815508
  B      -2.777751      0.310232     -1.321055
  B      -0.060012      3.058678     -1.233126
  B      -0.097640     -3.007647     -1.112017
12
Coordinates from ORCA-job input E -295.986527243915
  B       0.710719     -0.104038      3.009230
  B       2.241829     -0.018922      2.183058
  B      -1.483447      2.398979      0.987302
  B      -1.473327     -2.677420      1.232526
  B       1.427282      3.175775     -0.620885
  B      -1.404031      2.948671     -0.510025
  B       1.388012     -3.165533     -0.542983
  B      -1.365554     -3.055945     -0.310445
  B       2.884763      0.099175     -1.793743
  B      -2.755907      0.343661     -1.280035
  B      -0.069568      3.025011     -1.235489
  B      -0.100772     -2.969414     -1.118511
12
Coordinates from ORCA-job input E -296.009881793941
  B       0.653854     -0.116386      2.973727
  B       2.225048     -0.017562      2.154588
  B      -1.448031      2.272772      0.961363
  B      -1.428666     -2.582691      1.235677
  B       1.437257      3.112098     -0.627573
  B      -1.429722      2.863652     -0.517404
  B       1.396695     -3.097631     -0.541124
  B      -1.373537     -2.989894     -0.310251
  B       2.882154      0.101472     -1.759683
  B      -2.719753      0.393754     -1.217851
  B      -0.081206      2.974252     -1.233075
  B      -0.114093     -2.913836     -1.118392
12
Coordinates from ORCA-job input E -296.036277660978
  B       0.594001     -0.132119      2.930972
  B       2.202396     -0.017988      2.127258
  B      -1.409077      2.147723      0.936304
  B      -1.382050     -2.487541      1.236026
  B       1.445822      3.051434     -0.633111
  B      -1.450117      2.779758     -0.526713
  B       1.404217     -3.030296     -0.540141
  B      -1.379961     -2.923642     -0.303519
  B       2.877962      0.103312     -1.728713
  B      -2.682211      0.444964     -1.155594
  B      -0.097382      2.923383     -1.228476
  B      -0.123599     -2.858988     -1.114291
12
Coordinates from ORCA-job input E -296.065881628825
  B       0.532209     -0.146499      2.879277
  B       2.173101     -0.017318      2.100806
  B      -1.370123      2.029100      0.906668
  B      -1.333762     -2.393785      1.235418
  B       1.449882      2.993404     -0.639295
  B      -1.470985      2.695142     -0.527230
  B       1.411672     -2.965964     -0.538831
  B      -1.383489     -2.860476     -0.295677
  B       2.873574      0.103363     -1.701510
  B      -2.642868      0.497389     -1.091667
  B      -0.106548      2.872216     -1.220109
  B      -0.132663     -2.806573     -1.107849
12
Coordinates from ORCA-job input E -296.089356358634
  B       0.488122     -0.162697      2.836732
  B       2.147399     -0.020276      2.084317
  B      -1.342257      1.948213      0.888233
  B      -1.298383     -2.328058      1.233985
  B       1.451196      2.957395     -0.642257
  B      -1.480487      2.639266     -0.531073
  B       1.414745     -2.923808     -0.539058
  B      -1.384985     -2.815906     -0.281953
  B       2.870796      0.103948     -1.686692
  B      -2.615918      0.535319     -1.049364
  B      -0.117100      2.837908     -1.213590
  B      -0.133129     -2.771303     -1.099280
12
Coordinates from ORCA-job input E -296.106580869768
  B       0.458572     -0.174392      2.802599
  B       2.125027     -0.022946      2.073368
  B      -1.324540      1.897006      0.873510
  B      -1.272853     -2.283613      1.233109
  B       1.449808      2.934564     -0.644275
  B      -1.486420      2.602126     -0.530219
  B       1.415505     -2.897233     -0.539530
  B      -1.384064     -2.786743     -0.270899
  B       2.869375      0.103889     -1.678425
  B      -2.597792      0.560769     -1.020328
  B      -0.120737      2.815406     -1.207336
  B      -0.131882     -2.748834     -1.091574
12
Coordinates from ORCA-job input E -296.133234303847
  B       0.411671     -0.192945      2.752542
  B       2.095318     -0.027594      2.057309
  B      -1.298452      1.820820      0.854373
  B      -1.232742     -2.214792      1.233963
  B       1.448956      2.900613     -0.646619
  B      -1.496009      2.548392     -0.529624
  B       1.419616     -2.858609     -0.539095
  B      -1.381055     -2.742957     -0.256874
  B       2.866488      0.102203     -1.666424
  B      -2.571687      0.598262     -0.979976
  B      -0.128354      2.782354     -1.198923
  B      -0.133750     -2.715746     -1.080651
12
Coordinates from ORCA-job input E -296.171887475387
  B       0.348189     -0.208417      2.685820
  B       2.060201     -0.028316      2.036136
  B      -1.257585      1.714336      0.833113
  B      -1.183760     -2.123451      1.227890
  B       1.449327      2.851319     -0.650412
  B      -1.511269      2.471641     -0.526159
  B       1.427678     -2.802504     -0.536623
  B      -1.379555     -2.684892     -0.242008
  B       2.861136      0.097507     -1.647843
  B      -2.533479      0.649276     -0.925239
  B      -0.141330      2.733798     -1.186782
  B      -0.139552     -2.670296     -1.067891
12
Coordinates from ORCA-job input E -296.212747618088
  B       0.284361     -0.221675      2.612145
  B       2.022624     -0.028672      2.014700
  B      -1.216295      1.615144      0.813586
  B      -1.136687     -2.032141      1.222357
  B       1.449189      2.803714     -0.652887
  B      -1.522991      2.399753     -0.517840
  B       1.435067     -2.748875     -0.534252
  B      -1.377991     -2.630659     -0.225932
  B       2.855682      0.091655     -1.631570
  B      -2.498471      0.692984     -0.873829
  B      -0.153078      2.686929     -1.171562
  B      -0.141410     -2.628159     -1.054914
12
Coordinates from ORCA-job input E -296.246987262284
  B       0.233807     -0.244262      2.545580
  B       1.986912     -0.036773      1.997027
  B      -1.192926      1.547409      0.797293
  B      -1.094896     -1.957657      1.226824
  B       1.446728      2.772815     -0.652704
  B      -1.527687      2.354357     -0.510785
  B       1.438984     -2.715270     -0.532994
  B      -1.372326     -2.588602     -0.205626
  B       2.853554      0.088237     -1.624750
  B      -2.477143      0.721214     -0.839273
  B      -0.158257      2.657257     -1.159430
  B      -0.136750     -2.598725     -1.041162
12
Coordinates from ORCA-job input E -296.271729871124
  B       0.200501     -0.262035      2.496216
  B       1.958988     -0.044142      1.984462
  B      -1.178444      1.502989      0.786980
  B      -1.066042     -1.907209      1.229264
  B       1.444119      2.753122     -0.652281
  B      -1.529339      2.326472     -0.505647
  B       1.440731     -2.694098     -0.531860
  B      -1.367038     -2.559464     -0.188226
  B       2.852579      0.086255     -1.621348
  B      -2.464102      0.738704     -0.816746
  B      -0.160553      2.638711     -1.151043
  B      -0.131401     -2.579307     -1.029772
12
Coordinates from ORCA-job input E -296.307819388938
  B       0.151439     -0.285425      2.425385
  B       1.922035     -0.053477      1.966060
  B      -1.156906      1.437963      0.774247
  B      -1.024999     -1.833454      1.231658
  B       1.441809      2.723515     -0.651517
  B      -1.532350      2.287127     -0.497099
  B       1.445868     -2.663181     -0.528541
  B      -1.358131     -2.517723     -0.166576
  B       2.850497      0.082248     -1.615638
  B      -2.446801      0.761867     -0.785425
  B      -0.164470      2.611852     -1.138949
  B      -0.127991     -2.551313     -1.013607
12
Coordinates from ORCA-job input E -296.353088507030
  B       0.091397     -0.298377      2.335013
  B       1.878814     -0.056055      1.942067
  B      -1.120152      1.350075      0.765211
  B      -0.982771     -1.743331      1.221780
  B       1.441885      2.679845     -0.651761
  B      -1.536484      2.233837     -0.480988
  B       1.454972     -2.617679     -0.521875
  B      -1.350383     -2.467126     -0.145346
  B       2.846210      0.075043     -1.604100
  B      -2.425555      0.785725     -0.743809
  B      -0.170415      2.573016     -1.121095
  B      -0.127517     -2.514974     -0.995096
12
Coordinates from ORCA-job input E -296.392804858607
  B       0.051668     -0.326307      2.243040
  B       1.828512     -0.070747      1.925630
  B      -1.097862      1.285510      0.745964
  B      -0.940642     -1.668624      1.216162
  B       1.434670      2.654913     -0.648026
  B      -1.536849      2.197636     -0.468751
  B       1.455149     -2.589502     -0.517109
  B      -1.340818     -2.421913     -0.109671
  B       2.845046      0.070346     -1.599962
  B      -2.413559      0.808623     -0.712047
  B      -0.171296      2.548819     -1.105220
  B      -0.114020     -2.488754     -0.970010
12
Coordinates from ORCA-job input E -296.418435029927
  B       0.027129     -0.344081      2.179466
  B       1.791021     -0.080049      1.911653
  B      -1.081848      1.242365      0.735507
  B      -0.912948     -1.618945      1.213859
  B       1.430314      2.637920     -0.644032
  B      -1.533949      2.176691     -0.461629
  B       1.453573     -2.569753     -0.515778
  B      -1.334251     -2.392961     -0.084357
  B       2.843563      0.068279     -1.595530
  B      -2.407273      0.818591     -0.692038
  B      -0.170701      2.533763     -1.094472
  B      -0.104630     -2.471819     -0.952648
12
Coordinates from ORCA-job input E -296.452653153743
  B      -0.010317     -0.358171      2.085237
  B       1.733985     -0.087652      1.888959
  B      -1.051851      1.173733      0.725662
  B      -0.875471     -1.544653      1.205775
  B       1.424860      2.609222     -0.638686
  B      -1.529458      2.144695     -0.447264
  B       1.453937     -2.536987     -0.513101
  B      -1.324237     -2.354449     -0.053701
  B       2.839404      0.063335     -1.586453
  B      -2.396695      0.828769     -0.659486
  B      -0.167820      2.509725     -1.077804
  B      -0.096336     -2.447566     -0.929137
12
Coordinates from ORCA-job input E -296.487976534590
  B      -0.045174     -0.351159      1.967728
  B       1.657137     -0.084966      1.858626
  B      -0.999650      1.081867      0.717402
  B      -0.844447     -1.466441      1.173325
  B       1.420719      2.560448     -0.632736
  B      -1.524292      2.099840     -0.426734
  B       1.452252     -2.479447     -0.511577
  B      -1.320327     -2.313849     -0.015679
  B       2.825795      0.057560     -1.562932
  B      -2.370076      0.841037     -0.607599
  B      -0.167764      2.469658     -1.057650
  B      -0.084174     -2.414548     -0.902175
12
Coordinates from ORCA-job input E -296.514931543844
  B      -0.071258     -0.306965      1.889130
  B       1.612140     -0.058620      1.833005
  B      -0.938856      1.001910      0.718845
  B      -0.838829     -1.417450      1.130017
  B       1.425144      2.504283     -0.633152
  B      -1.525935      2.053571     -0.405930
  B       1.454530     -2.413623     -0.508472
  B      -1.326991     -2.301779     -0.011780
  B       2.800363      0.053730     -1.525599
  B      -2.325700      0.849607     -0.553663
  B      -0.173813      2.422744     -1.040997
  B      -0.090794     -2.387409     -0.891405
12
Coordinates from ORCA-job input E -296.538197286656
  B      -0.078996     -0.265318      1.823731
  B       1.563574     -0.038626      1.807716
  B      -0.885519      0.965376      0.716241
  B      -0.842540     -1.399267      1.094271
  B       1.432938      2.470990     -0.628735
  B      -1.509782      2.043121     -0.391683
  B       1.440312     -2.365816     -0.510734
  B      -1.338856     -2.315015      0.000659
  B       2.773280      0.057945     -1.494195
  B      -2.298362      0.827553     -0.510561
  B      -0.175730      2.400137     -1.026295
  B      -0.080319     -2.381079     -0.880416
12
Coordinates from ORCA-job input E -296.557550442230
  B      -0.099102     -0.220198      1.800760
  B       1.553450     -0.015504      1.793770
  B      -0.855073      0.953833      0.728084
  B      -0.851902     -1.382054      1.079235
  B       1.441227      2.451229     -0.631697
  B      -1.498031      2.046225     -0.373886
  B       1.442861     -2.339316     -0.510071
  B      -1.346600     -2.341231     -0.018477
  B       2.758887      0.053311     -1.480070
  B      -2.292657      0.789173     -0.486540
  B      -0.166433      2.392497     -1.014898
  B      -0.086627     -2.387964     -0.886210
12
Coordinates from ORCA-job input E -296.588658250007
  B      -0.180943      0.030756      1.599970
  B       1.434003      0.068068      1.689336
  B      -0.742764      0.928946      0.736985
  B      -0.894485     -1.279743      0.958345
  B       1.465307      2.260927     -0.638539
  B      -1.467923      2.024456     -0.228807
  B       1.439367     -2.131755     -0.514126
  B      -1.364313     -2.437965     -0.069719
  B       2.661411      0.022361     -1.382217
  B      -2.224596      0.585304     -0.304953
  B      -0.056470      2.299454     -0.952724
  B      -0.068595     -2.370808     -0.893553
12
Coordinates from ORCA-job input E -296.633470684903
  B      -0.144509     -0.030885      1.628775
  B       1.445776      0.016657      1.696690
  B      -0.766367      0.980159      0.673429
  B      -0.858917     -1.279992      0.982657
  B       1.478997      2.206616     -0.632821
  B      -1.478278      2.063948     -0.249375
  B       1.445003     -2.079136     -0.520792
  B      -1.361842     -2.425870     -0.064283
  B       2.627605      0.018348     -1.348687
  B      -2.241101      0.576214     -0.312165
  B      -0.085920      2.288995     -0.965753
  B      -0.060448     -2.335052     -0.887675
12
Coordinates from ORCA-job input E -296.672885034788
  B      -0.134271     -0.076091      1.651365
  B       1.505121     -0.013939      1.698711
  B      -0.755694      0.947006      0.658385
  B      -0.844058     -1.282862      0.960604
  B       1.488283      2.087402     -0.636126
  B      -1.490646      2.063532     -0.291500
  B       1.468908     -1.968715     -0.514778
  B      -1.360133     -2.368684     -0.057385
  B       2.581168      0.024381     -1.300011
  B      -2.253104      0.616057     -0.326717
  B      -0.137935      2.227429     -0.971051
  B      -0.067638     -2.255517     -0.871498
12
Coordinates from ORCA-job input E -296.703508592761
  B      -0.109112     -0.091828      1.669267
  B       1.521559     -0.028185      1.702398
  B      -0.753380      0.946370      0.637202
  B      -0.837621     -1.295008      0.947084
  B       1.478706      2.004663     -0.640543
  B      -1.506701      2.055964     -0.306271
  B       1.475829     -1.890536     -0.520721
  B      -1.359973     -2.342602     -0.054763
  B       2.543981      0.028924     -1.267790
  B      -2.256908      0.636711     -0.330675
  B      -0.132002      2.178714     -0.971839
  B      -0.064378     -2.203187     -0.863350
12
Coordinates from ORCA-job input E -296.751433524204
  B      -0.082190     -0.097340      1.695014
  B       1.532642     -0.044069      1.699651
  B      -0.757960      0.950344      0.609440
  B      -0.824045     -1.289227      0.937002
  B       1.467385      1.874403     -0.651758
  B      -1.534116      2.036950     -0.315211
  B       1.483404     -1.776636     -0.535873
  B      -1.358617     -2.310169     -0.064763
  B       2.485609      0.026274     -1.219152
  B      -2.247228      0.658418     -0.328100
  B      -0.117257      2.100879     -0.965137
  B      -0.047627     -2.129826     -0.861113
12
Coordinates from ORCA-job input E -296.800954165378
  B      -0.059155     -0.095239      1.722057
  B       1.536008     -0.057812      1.693487
  B      -0.757571      0.955651      0.591222
  B      -0.808714     -1.279491      0.927040
  B       1.451805      1.743577     -0.666756
  B      -1.554089      2.028051     -0.320800
  B       1.490748     -1.663342     -0.549732
  B      -1.352902     -2.283821     -0.081995
  B       2.419576      0.021158     -1.171656
  B      -2.239741      0.668293     -0.326828
  B      -0.096196      2.024140     -0.956223
  B      -0.029770     -2.061165     -0.859816
12
Coordinates from ORCA-job input E -296.851716389049
  B      -0.045433     -0.075573      1.742962
  B       1.529307     -0.061869      1.680217
  B      -0.751319      0.959206      0.584762
  B      -0.792150     -1.254172      0.921367
  B       1.434900      1.612030     -0.682740
  B      -1.565655      2.021399     -0.316574
  B       1.495920     -1.553712     -0.564400
  B      -1.347371     -2.268437     -0.111714
  B       2.351531      0.012807     -1.125651
  B      -2.229979      0.663000     -0.322716
  B      -0.069450      1.945839     -0.941472
  B      -0.010301     -2.000518     -0.864041
12
Coordinates from ORCA-job input E -296.902238703370
  B      -0.038872     -0.056165      1.743647
  B       1.530246     -0.062895      1.659303
  B      -0.726765      0.941969      0.582310
  B      -0.778553     -1.223333      0.910356
  B       1.428446      1.478992     -0.687390
  B      -1.562876      2.012055     -0.319050
  B       1.499183     -1.440290     -0.572433
  B      -1.340488     -2.246065     -0.137429
  B       2.280683      0.011608     -1.077045
  B      -2.225824      0.651966     -0.320412
  B      -0.063688      1.867021     -0.922655
  B      -0.001492     -1.934863     -0.859202
12
Coordinates from ORCA-job input E -296.939376421319
  B      -0.053169     -0.011956      1.726631
  B       1.520096     -0.058907      1.611933
  B      -0.695694      0.926467      0.598624
  B      -0.776971     -1.175043      0.898843
  B       1.425240      1.356843     -0.687935
  B      -1.536906      2.002891     -0.309221
  B       1.500372     -1.342229     -0.579492
  B      -1.337668     -2.225926     -0.168841
  B       2.226493      0.008803     -1.035001
  B      -2.211360      0.599108     -0.314125
  B      -0.067470      1.797923     -0.890556
  B       0.007035     -1.877975     -0.850862
12
Coordinates from ORCA-job input E -296.957368662764
  B      -0.034892     -0.022270      1.729834
  B       1.526684     -0.086182      1.538134
  B      -0.699714      0.925167      0.573920
  B      -0.782249     -1.165764      0.871408
  B       1.417131      1.275799     -0.672396
  B      -1.536111      1.972471     -0.325261
  B       1.501690     -1.262368     -0.570145
  B      -1.349944     -2.157901     -0.157162
  B       2.214269      0.010958     -0.991965
  B      -2.167267      0.568089     -0.314451
  B      -0.097025      1.743527     -0.865642
  B       0.007427     -1.801525     -0.816273
12
Coordinates from ORCA-job input E -296.981147479898
  B      -0.054876      0.031768      1.714780
  B       1.496591     -0.091824      1.436970
  B      -0.689837      0.924806      0.623795
  B      -0.791696     -1.102877      0.864064
  B       1.401111      1.240160     -0.668857
  B      -1.519889      1.963154     -0.304277
  B       1.504426     -1.246660     -0.564595
  B      -1.368933     -2.125241     -0.186313
  B       2.249132     -0.004419     -0.969230
  B      -2.131594      0.469758     -0.313366
  B      -0.107333      1.722825     -0.831299
  B       0.012899     -1.781450     -0.801674
12
Coordinates from ORCA-job input E -297.008541429586
  B      -0.035127      0.036918      1.737991
  B       1.494641     -0.116232      1.341157
  B      -0.701764      0.919152      0.659441
  B      -0.792022     -1.061851      0.855572
  B       1.394108      1.232157     -0.661742
  B      -1.547934      1.939513     -0.314003
  B       1.503168     -1.245885     -0.546356
  B      -1.404603     -2.056793     -0.195258
  B       2.311373     -0.001613     -0.942052
  B      -2.105461      0.399825     -0.327860
  B      -0.116043      1.706230     -0.822887
  B      -0.000336     -1.751421     -0.784004
12
Coordinates from ORCA-job input E -297.039244957439
  B       0.003176      0.037657      1.774710
  B       1.483695     -0.137513      1.255107
  B      -0.725254      0.916419      0.690668
  B      -0.783531     -1.017255      0.842728
  B       1.377702      1.216413     -0.654156
  B      -1.584350      1.893611     -0.325653
  B       1.510028     -1.238452     -0.533522
  B      -1.439315     -1.968552     -0.209903
  B       2.375834     -0.015589     -0.911964
  B      -2.070750      0.346996     -0.340210
  B      -0.132864      1.674022     -0.817328
  B      -0.014371     -1.707756     -0.770478
12
Coordinates from ORCA-job input E -297.118783917699
  B       0.195063      0.020900      1.873816
  B       1.438201     -0.166640      0.963973
  B      -0.809535      0.813624      0.757187
  B      -0.743815     -0.811266      0.779495
  B       1.370916      1.080394     -0.616329
  B      -1.725570      1.621641     -0.365748
  B       1.503986     -1.161271     -0.480110
  B      -1.575049     -1.551831     -0.263207
  B       2.566453     -0.021990     -0.766707
  B      -1.940041      0.172823     -0.359166
  B      -0.182437      1.482445     -0.798164
  B      -0.098172     -1.478829     -0.725040
12
Coordinates from ORCA-job input E -297.113258687933
  B       0.156129      0.165932      1.865435
  B       1.422352     -0.119378      0.817622
  B      -0.737001      1.038492      0.794959
  B      -0.815765     -0.832023      0.803033
  B       1.329728      0.976686     -0.576825
  B      -1.722150      1.799948     -0.266850
  B       1.482689     -1.152330     -0.515775
  B      -1.538582     -1.626836     -0.378727
  B       2.552646     -0.129673     -0.723036
  B      -1.888082     -0.125687     -0.387727
  B      -0.211919      1.506995     -0.679507
  B      -0.030048     -1.502128     -0.752604
12
Coordinates from ORCA-job input E -297.140573721986
  B       0.180512      0.126735      1.856317
  B       1.415554     -0.120385      0.858448
  B      -0.731625      0.977914      0.780761
  B      -0.791972     -0.825793      0.814795
  B       1.347982      1.004247     -0.584317
  B      -1.713569      1.747800     -0.293104
  B       1.476199     -1.157946     -0.508672
  B      -1.561293     -1.612169     -0.357527
  B       2.555865     -0.084378     -0.716392
  B      -1.910357     -0.061649     -0.384201
  B      -0.207616      1.509988     -0.713161
  B      -0.059678     -1.504363     -0.752948
12
Coordinates from ORCA-job input E -297.153511483871
  B       0.197435      0.097619      1.857237
  B       1.406835     -0.122846      0.873682
  B      -0.726777      0.942334      0.767824
  B      -0.780171     -0.815849      0.823866
  B       1.356700      1.008696     -0.589090
  B      -1.711807      1.689881     -0.306078
  B       1.474799     -1.149437     -0.504538
  B      -1.571941     -1.578124     -0.345608
  B       2.550068     -0.059793     -0.706141
  B      -1.916370     -0.020510     -0.380430
  B      -0.203146      1.494886     -0.738503
  B      -0.075623     -1.486858     -0.752220
12
Coordinates from ORCA-job input E -297.163544604599
  B       0.191263      0.065277      1.865707
  B       1.392928     -0.126434      0.889349
  B      -0.704457      0.929061      0.758725
  B      -0.783158     -0.832733      0.857179
  B       1.366587      1.021876     -0.600757
  B      -1.689642      1.632170     -0.317389
  B       1.477436     -1.141969     -0.511599
  B      -1.573656     -1.574838     -0.330395
  B       2.526907     -0.026075     -0.698112
  B      -1.929667      0.044562     -0.377192
  B      -0.193697      1.493943     -0.776777
  B      -0.080842     -1.484841     -0.758738
12
Coordinates from ORCA-job input E -297.169011246944
  B       0.192699      0.015041      1.884405
  B       1.384257     -0.124329      0.899001
  B      -0.643165      0.898848      0.775846
  B      -0.785792     -0.826721      0.903553
  B       1.354346      1.048334     -0.618015
  B      -1.661269      1.545611     -0.345983
  B       1.461264     -1.133993     -0.522800
  B      -1.597864     -1.500372     -0.320721
  B       2.523228      0.008150     -0.664390
  B      -1.923801      0.029152     -0.386095
  B      -0.191464      1.487553     -0.837368
  B      -0.112439     -1.447274     -0.767432
12
Coordinates from ORCA-job input E -297.178908368173
  B       0.198664     -0.024159      1.871908
  B       1.366444     -0.131679      0.905423
  B      -0.588212      0.935233      0.766057
  B      -0.794407     -0.893830      0.939728
  B       1.341772      1.058757     -0.625124
  B      -1.624644      1.561957     -0.365718
  B       1.458418     -1.108470     -0.532244
  B      -1.598512     -1.525355     -0.296725
  B       2.475304      0.036975     -0.627805
  B      -1.948624      0.027606     -0.384355
  B      -0.168722      1.518846     -0.882668
  B      -0.117482     -1.455881     -0.768477
12
Coordinates from ORCA-job input E -297.186569497124
  B       0.160409     -0.038606      1.859393
  B       1.361685     -0.112579      0.846475
  B      -0.568133      0.942298      0.763201
  B      -0.800804     -0.937013      0.994861
  B       1.333685      1.063772     -0.622569
  B      -1.593115      1.583593     -0.368187
  B       1.454765     -1.107738     -0.549604
  B      -1.598433     -1.547066     -0.281810
  B       2.477442      0.028609     -0.587674
  B      -1.949231      0.028026     -0.377205
  B      -0.177544      1.563967     -0.905026
  B      -0.100726     -1.467262     -0.771855
12
Coordinates from ORCA-job input E -297.193285842509
  B       0.174601     -0.039920      1.887068
  B       1.346263     -0.091718      0.836633
  B      -0.569196      0.966710      0.742124
  B      -0.805354     -0.975431      1.036514
  B       1.330394      1.030026     -0.624635
  B      -1.599977      1.572327     -0.360072
  B       1.447620     -1.101110     -0.587828
  B      -1.591825     -1.509273     -0.284323
  B       2.469891      0.020837     -0.546705
  B      -1.944506      0.008476     -0.371924
  B      -0.168993      1.565638     -0.928690
  B      -0.088917     -1.446562     -0.798163
12
Coordinates from ORCA-job input E -297.199738505433
  B       0.187461     -0.075771      1.846910
  B       1.324807     -0.078738      0.827280
  B      -0.530510      0.948366      0.712206
  B      -0.777641     -1.011088      1.054403
  B       1.300601      1.030470     -0.617151
  B      -1.580545      1.558869     -0.379279
  B       1.435858     -1.084695     -0.597325
  B      -1.600936     -1.488165     -0.251163
  B       2.461289      0.037794     -0.481805
  B      -1.929113      0.022463     -0.366603
  B      -0.172947      1.575006     -0.954078
  B      -0.118323     -1.434510     -0.793395
12
Coordinates from ORCA-job input E -297.206515036052
  B       0.179027     -0.087164      1.878038
  B       1.314998     -0.064670      0.837971
  B      -0.507912      0.919684      0.708303
  B      -0.774994     -1.044729      1.086350
  B       1.278584      1.020184     -0.636295
  B      -1.563883      1.565055     -0.394868
  B       1.450704     -1.067698     -0.638020
  B      -1.607222     -1.486409     -0.230800
  B       2.462633      0.049475     -0.452219
  B      -1.936048      0.043721     -0.374478
  B      -0.166549      1.577846     -0.980414
  B      -0.129339     -1.425294     -0.803567
12
Coordinates from ORCA-job input E -297.212569750521
  B       0.178684     -0.098679      1.883758
  B       1.319516     -0.060328      0.837507
  B      -0.520357      0.892843      0.699553
  B      -0.763968     -1.061486      1.093015
  B       1.272673      0.991447     -0.647929
  B      -1.584048      1.588009     -0.400684
  B       1.449543     -1.056412     -0.672588
  B      -1.596217     -1.484847     -0.209117
  B       2.472807      0.046873     -0.412659
  B      -1.935592      0.061816     -0.374489
  B      -0.164715      1.587640     -1.004184
  B      -0.128325     -1.406876     -0.792184
12
Coordinates from ORCA-job input E -297.218178378747
  B       0.189562     -0.111938      1.889360
  B       1.348192     -0.065052      0.855001
  B      -0.521450      0.874031      0.679425
  B      -0.780866     -1.070650      1.100077
  B       1.248874      0.966838     -0.654630
  B      -1.575698      1.596626     -0.417033
  B       1.455499     -1.030971     -0.716046
  B      -1.614576     -1.477122     -0.185702
  B       2.489066      0.057227     -0.380386
  B      -1.938890      0.057340     -0.381115
  B      -0.169834      1.578918     -1.010652
  B      -0.129879     -1.375246     -0.778300
12
Coordinates from ORCA-job input E -297.223080369542
  B       0.194046     -0.137766      1.879400
  B       1.388664     -0.083599      0.868463
  B      -0.520328      0.850237      0.649175
  B      -0.800115     -1.084790      1.118259
  B       1.236842      0.939501     -0.661895
  B      -1.577064      1.585510     -0.430132
  B       1.458607     -0.986626     -0.749262
  B      -1.631680     -1.462463     -0.161723
  B       2.499807      0.068869     -0.346956
  B      -1.944688      0.064125     -0.385645
  B      -0.171472      1.574601     -1.031700
  B      -0.132620     -1.327601     -0.747984
12
Coordinates from ORCA-job input E -297.227141252978
  B       0.200583     -0.148638      1.838713
  B       1.446920     -0.109877      0.899697
  B      -0.534434      0.832096      0.617913
  B      -0.827770     -1.088934      1.135454
  B       1.233407      0.920423     -0.663762
  B      -1.584417      1.581901     -0.435912
  B       1.458234     -0.952583     -0.782795
  B      -1.651095     -1.458796     -0.146337
  B       2.524780      0.080117     -0.328367
  B      -1.955100      0.058463     -0.396275
  B      -0.172330      1.572169     -1.033348
  B      -0.138780     -1.286341     -0.704982
12
Coordinates from ORCA-job input E -297.229631881140
  B       0.240084     -0.166752      1.779931
  B       1.537008     -0.138210      0.901124
  B      -0.548952      0.807265      0.587064
  B      -0.864198     -1.098559      1.155067
  B       1.227104      0.903201     -0.652084
  B      -1.596851      1.577216     -0.453655
  B       1.460236     -0.906053     -0.786853
  B      -1.680184     -1.450903     -0.134378
  B       2.539374      0.086312     -0.297073
  B      -1.988544      0.057222     -0.426152
  B      -0.177333      1.569155     -1.029050
  B      -0.147744     -1.239893     -0.643942
12
Coordinates from ORCA-job input E -297.232043721606
  B       0.227603     -0.177502      1.731066
  B       1.588543     -0.161408      0.928875
  B      -0.574940      0.783946      0.574404
  B      -0.904321     -1.104244      1.188830
  B       1.236429      0.908194     -0.660667
  B      -1.597428      1.575707     -0.457440
  B       1.457994     -0.885228     -0.799381
  B      -1.683483     -1.448895     -0.126953
  B       2.560620      0.099628     -0.320212
  B      -1.997964      0.056301     -0.446137
  B      -0.167211      1.565889     -1.015881
  B      -0.145843     -1.212389     -0.596504
12
Coordinates from ORCA-job input E -297.233833019480
  B       0.245815     -0.187848      1.685775
  B       1.634050     -0.163104      0.937211
  B      -0.599506      0.758745      0.570988
  B      -0.932757     -1.112727      1.211397
  B       1.255513      0.919782     -0.657518
  B      -1.609656      1.575019     -0.466584
  B       1.458412     -0.888607     -0.793869
  B      -1.695438     -1.444106     -0.122929
  B       2.580448      0.105259     -0.333131
  B      -2.025550      0.062300     -0.477219
  B      -0.165885      1.575755     -0.999349
  B      -0.145446     -1.200468     -0.554772
12
Coordinates from ORCA-job input E -297.240417637000
  B       0.313793     -0.350330      1.415214
  B       1.833248     -0.134615      0.921100
  B      -0.752734      0.514655      0.484343
  B      -1.041386     -1.161645      1.346625
  B       1.360873      1.025274     -0.643805
  B      -1.623776      1.579488     -0.541244
  B       1.447015     -0.849657     -0.685353
  B      -1.759522     -1.352893     -0.028377
  B       2.636295      0.137043     -0.420443
  B      -2.158428      0.076436     -0.638634
  B      -0.096414      1.598527     -0.899737
  B      -0.158964     -1.082285     -0.309688
12
Coordinates from ORCA-job input E -297.244560716383
  B       0.324382     -0.361000      1.412174
  B       1.833827     -0.126412      0.919347
  B      -0.763134      0.509505      0.468924
  B      -1.024775     -1.171909      1.346307
  B       1.382700      1.026481     -0.635685
  B      -1.625658      1.571112     -0.552167
  B       1.442950     -0.851284     -0.672516
  B      -1.776434     -1.336856     -0.023291
  B       2.650185      0.139872     -0.428502
  B      -2.177497      0.079544     -0.645381
  B      -0.103562      1.594429     -0.886748
  B      -0.162983     -1.073481     -0.302463
12
Coordinates from ORCA-job input E -297.249760415736
  B       0.345330     -0.356711      1.419730
  B       1.839422     -0.098798      0.905565
  B      -0.813236      0.507752      0.444407
  B      -0.990555     -1.178781      1.333188
  B       1.408123      1.023927     -0.614708
  B      -1.614819      1.563613     -0.566463
  B       1.426658     -0.862972     -0.666573
  B      -1.803144     -1.321045     -0.023833
  B       2.666462      0.140542     -0.428189
  B      -2.196287      0.082614     -0.637278
  B      -0.103510      1.570706     -0.856628
  B      -0.164443     -1.070848     -0.309217
12
Coordinates from ORCA-job input E -297.252624536885
  B       0.369491     -0.368980      1.413056
  B       1.860340     -0.081279      0.907161
  B      -0.836369      0.479725      0.440063
  B      -0.970854     -1.178457      1.316776
  B       1.442830      1.032168     -0.603912
  B      -1.616038      1.544061     -0.586824
  B       1.421657     -0.849958     -0.646833
  B      -1.834029     -1.294394     -0.016236
  B       2.697122      0.138454     -0.437418
  B      -2.255409      0.087719     -0.648599
  B      -0.102319      1.544136     -0.834132
  B      -0.176422     -1.053195     -0.303103
12
Coordinates from ORCA-job input E -297.253209380358
  B       0.406829     -0.434721      1.410780
  B       1.907713      0.056227      0.855334
  B      -0.965869      0.384627      0.436376
  B      -0.938451     -1.252526      1.313619
  B       1.610724      1.124925     -0.561540
  B      -1.565491      1.451444     -0.691224
  B       1.351520     -0.821259     -0.590266
  B      -1.899271     -1.211246      0.025394
  B       2.781983      0.133651     -0.471913
  B      -2.454317      0.145359     -0.645525
  B      -0.030427      1.427394     -0.759252
  B      -0.204944     -1.003874     -0.321783
12
Coordinates from ORCA-job input E -297.264048884713
  B       0.425717     -0.439979      1.383872
  B       1.877456      0.015929      0.879665
  B      -0.959547      0.400785      0.430581
  B      -0.953205     -1.235948      1.298463
  B       1.592762      1.137529     -0.588456
  B      -1.581055      1.486189     -0.718707
  B       1.378282     -0.787482     -0.579528
  B      -1.901262     -1.202881      0.050999
  B       2.758518      0.135575     -0.447767
  B      -2.401144      0.127959     -0.593617
  B      -0.033486      1.432306     -0.759749
  B      -0.203035     -1.069982     -0.355757
12
Coordinates from ORCA-job input E -297.268479342462
  B       0.426865     -0.472356      1.334082
  B       1.896779      0.038900      0.914450
  B      -0.907859      0.393110      0.403122
  B      -0.923742     -1.232155      1.304704
  B       1.597968      1.163642     -0.602709
  B      -1.564143      1.501100     -0.748013
  B       1.320694     -0.755876     -0.570887
  B      -1.896212     -1.205530      0.092551
  B       2.698181      0.122691     -0.410401
  B      -2.384872      0.120047     -0.590534
  B      -0.029846      1.408889     -0.735405
  B      -0.233812     -1.082461     -0.390960
12
Coordinates from ORCA-job input E -297.064163119594
  B       0.473881     -0.740414      1.063485
  B       2.060665     -0.036624      0.763650
  B      -0.894747      0.320042      0.267995
  B      -1.256007     -1.433513      1.481628
  B       1.672968      1.264268     -0.760251
  B      -1.550907      1.379845     -0.817869
  B       1.156299     -0.415405     -0.390590
  B      -2.262188     -1.216882      0.309020
  B       3.072618      0.587525     -0.337326
  B      -2.248780      0.258668     -0.612979
  B       0.243528      1.230819     -0.730479
  B      -0.467330     -1.198330     -0.236286
12
Coordinates from ORCA-job input E -297.163110854460
  B       0.490449     -0.735261      1.080515
  B       2.083000     -0.032745      0.804428
  B      -0.904663      0.340277      0.276458
  B      -1.209842     -1.407898      1.465187
  B       1.737913      1.254259     -0.756515
  B      -1.539973      1.437807     -0.823127
  B       1.140543     -0.446526     -0.413225
  B      -2.251915     -1.209789      0.297431
  B       3.058979      0.562020     -0.326190
  B      -2.332366      0.185032     -0.605547
  B       0.188215      1.263879     -0.739441
  B      -0.460339     -1.211055     -0.259974
12
Coordinates from ORCA-job input E -297.208002194043
  B       0.501146     -0.720916      1.093921
  B       2.060769     -0.038269      0.831520
  B      -0.894678      0.359542      0.276755
  B      -1.132706     -1.374776      1.437800
  B       1.717511      1.227802     -0.751724
  B      -1.522034      1.460033     -0.817276
  B       1.095212     -0.485523     -0.420371
  B      -2.193872     -1.188847      0.279965
  B       3.002718      0.527128     -0.303088
  B      -2.327622      0.172990     -0.603493
  B       0.124848      1.276263     -0.743554
  B      -0.431292     -1.215426     -0.280456
12
Coordinates from ORCA-job input E -297.015563210307
  B       0.415793     -0.638617      1.219352
  B       1.852438     -0.088494      0.941766
  B      -0.834444      0.413780      0.346427
  B      -0.684100     -1.179676      1.319876
  B       1.568944      1.094629     -0.741095
  B      -1.422867      1.589786     -0.771691
  B       0.908871     -0.687616     -0.502955
  B      -1.833097     -1.091176      0.177280
  B       2.722374      0.325413     -0.208445
  B      -2.335665      0.101320     -0.626600
  B      -0.116187      1.416728     -0.775832
  B      -0.242059     -1.256078     -0.378084
12
Coordinates from ORCA-job input E -297.203103890782
  B       0.446321     -0.627811      1.219078
  B       1.931318     -0.061512      0.936975
  B      -0.874060      0.400618      0.357167
  B      -0.793062     -1.228798      1.331931
  B       1.624703      1.111088     -0.745882
  B      -1.477517      1.566239     -0.777674
  B       0.994001     -0.645039     -0.518026
  B      -1.907474     -1.103481      0.189165
  B       2.805444      0.353609     -0.218697
  B      -2.382285      0.114365     -0.617821
  B      -0.057191      1.403413     -0.781816
  B      -0.310198     -1.282690     -0.374400
12
Coordinates from ORCA-job input E -297.249665659584
  B       0.457448     -0.608318      1.227147
  B       1.955757     -0.051542      0.933052
  B      -0.892629      0.388304      0.364456
  B      -0.871898     -1.254621      1.337604
  B       1.653996      1.123894     -0.751042
  B      -1.502022      1.521883     -0.766619
  B       1.024571     -0.615987     -0.524473
  B      -1.947539     -1.130436      0.193999
  B       2.854355      0.365149     -0.244741
  B      -2.398734      0.130602     -0.614814
  B      -0.004138      1.393490     -0.783243
  B      -0.329169     -1.262418     -0.371325
12
Coordinates from ORCA-job input E -297.264146051895
  B       0.451929     -0.599812      1.218544
  B       1.975024     -0.030042      0.913947
  B      -0.899598      0.373476      0.368260
  B      -0.917081     -1.263818      1.341583
  B       1.665808      1.130407     -0.747058
  B      -1.506881      1.484015     -0.760215
  B       1.062896     -0.587940     -0.530194
  B      -1.985212     -1.135507      0.195075
  B       2.879981      0.374204     -0.248783
  B      -2.393290      0.143307     -0.600074
  B       0.025423      1.377863     -0.779647
  B      -0.358999     -1.266154     -0.371438
12
Coordinates from ORCA-job input E -297.268220731397
  B       0.452230     -0.577849      1.206257
  B       1.958489     -0.015251      0.893795
  B      -0.893595      0.354367      0.379031
  B      -0.973358     -1.266859      1.342821
  B       1.668735      1.129103     -0.726857
  B      -1.475615      1.454950     -0.758242
  B       1.068036     -0.563024     -0.524788
  B      -1.995464     -1.171226      0.190859
  B       2.888829      0.379442     -0.283617
  B      -2.384797      0.155715     -0.588382
  B       0.050485      1.370185     -0.771227
  B      -0.363973     -1.249551     -0.359652
12
Coordinates from ORCA-job input E -297.268085513319
  B       0.440839     -0.549913      1.190258
  B       1.937917      0.041350      0.863809
  B      -0.900565      0.357322      0.403976
  B      -0.986147     -1.272921      1.347030
  B       1.690706      1.135064     -0.739841
  B      -1.511813      1.444694     -0.735626
  B       1.111130     -0.576248     -0.538379
  B      -2.035844     -1.183359      0.138168
  B       2.914400      0.337695     -0.268538
  B      -2.403739      0.174427     -0.556532
  B       0.069150      1.354674     -0.761849
  B      -0.326035     -1.262785     -0.342476
12
Coordinates from ORCA-job input E -297.270807800345
  B       0.436562     -0.557451      1.183678
  B       1.969842      0.047976      0.884888
  B      -0.913337      0.354517      0.404341
  B      -0.982049     -1.251235      1.329215
  B       1.668074      1.116984     -0.695992
  B      -1.497578      1.454497     -0.758691
  B       1.096721     -0.572855     -0.542116
  B      -2.004847     -1.185184      0.143344
  B       2.904452      0.327361     -0.296821
  B      -2.396582      0.169151     -0.552496
  B       0.050283      1.369275     -0.760944
  B      -0.331540     -1.273036     -0.338405
12
Coordinates from ORCA-job input E -297.270649786030
  B       0.436139     -0.551380      1.190100
  B       1.927795      0.017372      0.866396
  B      -0.897706      0.348000      0.387947
  B      -0.964933     -1.243720      1.336157
  B       1.696493      1.162299     -0.683225
  B      -1.470761      1.440072     -0.769972
  B       1.072342     -0.573935     -0.551943
  B      -1.989297     -1.182023      0.171458
  B       2.887593      0.344992     -0.291743
  B      -2.415773      0.168877     -0.557259
  B       0.069443      1.369128     -0.752724
  B      -0.351335     -1.299682     -0.345193
12
Coordinates from ORCA-job input E -297.272034326292
  B       0.458533     -0.549111      1.201652
  B       1.963206      0.000307      0.874409
  B      -0.904129      0.334141      0.382611
  B      -0.965711     -1.242501      1.355415
  B       1.676443      1.159232     -0.660906
  B      -1.481454      1.430274     -0.791896
  B       1.070033     -0.551238     -0.564895
  B      -1.995919     -1.172340      0.161191
  B       2.892943      0.324507     -0.291146
  B      -2.430780      0.167682     -0.557972
  B       0.057381      1.367348     -0.758570
  B      -0.340547     -1.268299     -0.349891
12
Coordinates from ORCA-job input E -297.272652477038
  B       0.440931     -0.540229      1.197751
  B       1.968862      0.013769      0.878594
  B      -0.903211      0.346620      0.388643
  B      -0.975518     -1.231316      1.336528
  B       1.684038      1.155300     -0.656850
  B      -1.503631      1.430074     -0.781998
  B       1.078766     -0.546185     -0.571958
  B      -2.008129     -1.183784      0.150503
  B       2.905221      0.312105     -0.307063
  B      -2.411163      0.165287     -0.551902
  B       0.055227      1.352523     -0.745984
  B      -0.331393     -1.274164     -0.336263
12
Coordinates from ORCA-job input E -297.273631442850
  B       0.438026     -0.545162      1.192180
  B       1.958121      0.013423      0.871598
  B      -0.901455      0.345409      0.392975
  B      -0.977902     -1.229027      1.345537
  B       1.689726      1.167936     -0.652489
  B      -1.483137      1.425321     -0.786047
  B       1.058530     -0.528498     -0.579732
  B      -2.001222     -1.188951      0.147909
  B       2.893916      0.307834     -0.307760
  B      -2.411772      0.159919     -0.549928
  B       0.068783      1.357978     -0.747756
  B      -0.331614     -1.286182     -0.326489
12
Coordinates from ORCA-job input E -297.274288262792
  B       0.441788     -0.543487      1.198627
  B       1.953047      0.004408      0.873817
  B      -0.900130      0.344125      0.395442
  B      -0.972313     -1.227174      1.350273
  B       1.692175      1.172421     -0.650364
  B      -1.476254      1.422577     -0.792370
  B       1.043194     -0.511667     -0.586292
  B      -1.990187     -1.189592      0.151741
  B       2.888179      0.304923     -0.307315
  B      -2.412779      0.161645     -0.555578
  B       0.068217      1.350017     -0.746207
  B      -0.334936     -1.288197     -0.331775
12
Coordinates from ORCA-job input E -297.275321208980
  B       0.444721     -0.545633      1.200537
  B       1.954444     -0.002870      0.874474
  B      -0.898911      0.340998      0.398961
  B      -0.969620     -1.222032      1.351461
  B       1.699426      1.180925     -0.648955
  B      -1.467630      1.413296     -0.798412
  B       1.017559     -0.482734     -0.590020
  B      -1.988383     -1.190894      0.151306
  B       2.885443      0.301323     -0.307699
  B      -2.413017      0.158468     -0.557908
  B       0.075029      1.339788     -0.744501
  B      -0.339061     -1.290633     -0.329245
12
Coordinates from ORCA-job input E -297.276912223224
  B       0.445972     -0.546303      1.207977
  B       1.953868     -0.009329      0.872031
  B      -0.897467      0.342166      0.406232
  B      -0.966364     -1.217527      1.356606
  B       1.704698      1.184459     -0.646287
  B      -1.457050      1.404184     -0.805025
  B       0.983343     -0.440896     -0.595466
  B      -1.983472     -1.194105      0.148927
  B       2.885751      0.295955     -0.307798
  B      -2.414348      0.157361     -0.561041
  B       0.084949      1.330641     -0.744402
  B      -0.339880     -1.306607     -0.331754
12
Coordinates from ORCA-job input E -297.279058654129
  B       0.443600     -0.546394      1.220726
  B       1.957183     -0.014208      0.868176
  B      -0.895525      0.342387      0.415351
  B      -0.964689     -1.213467      1.362478
  B       1.716553      1.183125     -0.648769
  B      -1.448241      1.390892     -0.811846
  B       0.927768     -0.368923     -0.591497
  B      -1.979985     -1.195642      0.140526
  B       2.897627      0.287158     -0.311252
  B      -2.413163      0.154526     -0.562941
  B       0.096807      1.307391     -0.741265
  B      -0.337935     -1.326844     -0.339689
12
Coordinates from ORCA-job input E -297.279765151691
  B       0.444089     -0.535548      1.252792
  B       1.983491     -0.030197      0.856154
  B      -0.890903      0.347685      0.430757
  B      -0.969820     -1.197313      1.348118
  B       1.713869      1.181455     -0.653110
  B      -1.449569      1.384351     -0.797238
  B       0.877973     -0.338613     -0.571388
  B      -1.989978     -1.205722      0.118242
  B       2.919296      0.288607     -0.322851
  B      -2.401481      0.147410     -0.581565
  B       0.101836      1.333402     -0.749137
  B      -0.338803     -1.375516     -0.330774
12
Coordinates from ORCA-job input E -297.280812623403
  B       0.447635     -0.546726      1.239207
  B       1.970129     -0.033341      0.851644
  B      -0.867433      0.347358      0.409733
  B      -0.975093     -1.191355      1.345822
  B       1.730994      1.191622     -0.642017
  B      -1.437295      1.383480     -0.806977
  B       0.834512     -0.312727     -0.549022
  B      -1.979174     -1.214513      0.122483
  B       2.903922      0.279987     -0.331479
  B      -2.402611      0.140407     -0.573623
  B       0.103817      1.338902     -0.747054
  B      -0.329403     -1.383095     -0.318717
12
Coordinates from ORCA-job input E -297.281300114286
  B       0.441379     -0.555129      1.238106
  B       1.964914     -0.017996      0.839186
  B      -0.865534      0.341379      0.393389
  B      -0.986633     -1.205603      1.355653
  B       1.750273      1.176521     -0.643817
  B      -1.470877      1.398703     -0.812016
  B       0.853935     -0.314048     -0.547867
  B      -1.983373     -1.212639      0.124571
  B       2.940900      0.274916     -0.319802
  B      -2.397102      0.132990     -0.557357
  B       0.087324      1.345982     -0.750280
  B      -0.335206     -1.365075     -0.319765
12
Coordinates from ORCA-job input E -297.282236482008
  B       0.450611     -0.566183      1.247730
  B       1.957179     -0.017851      0.838165
  B      -0.840734      0.332205      0.388897
  B      -0.979462     -1.208265      1.355910
  B       1.737659      1.181693     -0.650967
  B      -1.452227      1.402089     -0.810850
  B       0.819117     -0.316057     -0.541097
  B      -1.988352     -1.220117      0.135031
  B       2.933766      0.291131     -0.312459
  B      -2.380663      0.134658     -0.569268
  B       0.103968      1.383357     -0.764115
  B      -0.360863     -1.396660     -0.316978
12
Coordinates from ORCA-job input E -297.282587199874
  B       0.450176     -0.571078      1.247139
  B       1.962622     -0.021240      0.836826
  B      -0.826293      0.338230      0.378998
  B      -0.988166     -1.198697      1.353075
  B       1.736769      1.173923     -0.657454
  B      -1.450355      1.393175     -0.805861
  B       0.802515     -0.306457     -0.534647
  B      -1.990642     -1.225020      0.130585
  B       2.949543      0.305006     -0.306360
  B      -2.392705      0.135806     -0.561681
  B       0.107412      1.377642     -0.761131
  B      -0.360873     -1.401290     -0.319488
12
Coordinates from ORCA-job input E -297.282588896274
  B       0.456539     -0.588158      1.227306
  B       1.964682     -0.011903      0.836128
  B      -0.848746      0.324864      0.372769
  B      -0.989519     -1.191039      1.359564
  B       1.752600      1.165345     -0.665073
  B      -1.455158      1.389889     -0.804843
  B       0.791683     -0.305639     -0.525995
  B      -1.992925     -1.218165      0.132586
  B       2.975167      0.324178     -0.295594
  B      -2.402053      0.148379     -0.555592
  B       0.109950      1.372824     -0.760978
  B      -0.362220     -1.410575     -0.320277
12
Coordinates from ORCA-job input E -297.282783435403
  B       0.452742     -0.590513      1.253922
  B       1.955892     -0.021007      0.818328
  B      -0.826915      0.329569      0.366343
  B      -0.998106     -1.187984      1.355449
  B       1.743787      1.146639     -0.672775
  B      -1.451275      1.403528     -0.799413
  B       0.783328     -0.308731     -0.524100
  B      -2.005960     -1.241716      0.127288
  B       2.987824      0.347752     -0.292725
  B      -2.368006      0.137288     -0.552264
  B       0.104712      1.379431     -0.763576
  B      -0.378022     -1.394256     -0.316475
12
Coordinates from ORCA-job input E -297.283016657239
  B       0.456289     -0.592855      1.234691
  B       1.953642     -0.014888      0.819101
  B      -0.815384      0.334095      0.367703
  B      -0.993527     -1.182855      1.359039
  B       1.737696      1.147964     -0.676228
  B      -1.457100      1.402535     -0.796118
  B       0.790582     -0.321831     -0.531113
  B      -1.995152     -1.230515      0.131036
  B       2.990200      0.346464     -0.265132
  B      -2.386458      0.141568     -0.544952
  B       0.100177      1.373072     -0.769680
  B      -0.380965     -1.402755     -0.328348
12
Coordinates from ORCA-job input E -297.283141442436
  B       0.457298     -0.603543      1.243235
  B       1.949948     -0.008927      0.821350
  B      -0.820204      0.327372      0.363888
  B      -0.993424     -1.185196      1.360451
  B       1.741109      1.145455     -0.677884
  B      -1.448453      1.398415     -0.798908
  B       0.783473     -0.316372     -0.531160
  B      -1.998770     -1.224227      0.130497
  B       2.994027      0.362370     -0.265383
  B      -2.394491      0.153994     -0.533899
  B       0.109485      1.370450     -0.777823
  B      -0.379998     -1.419791     -0.334364
12
Coordinates from ORCA-job input E -297.283109245130
  B       0.461069     -0.603311      1.231598
  B       1.963868     -0.017342      0.813614
  B      -0.834104      0.324510      0.359872
  B      -0.991367     -1.179666      1.352442
  B       1.745441      1.144303     -0.674633
  B      -1.454868      1.401896     -0.801262
  B       0.783990     -0.322833     -0.523415
  B      -2.008764     -1.229525      0.134921
  B       3.006743      0.378092     -0.261191
  B      -2.397552      0.156875     -0.536780
  B       0.111786      1.358672     -0.771877
  B      -0.386242     -1.411670     -0.323288
12
Coordinates from ORCA-job input E -297.283226316267
  B       0.457780     -0.604014      1.229541
  B       1.954384     -0.010013      0.816263
  B      -0.821900      0.326485      0.362797
  B      -0.997902     -1.178809      1.359763
  B       1.742784      1.139242     -0.681472
  B      -1.454409      1.406526     -0.791289
  B       0.785303     -0.330013     -0.526047
  B      -2.003353     -1.229802      0.127497
  B       3.003653      0.373691     -0.260030
  B      -2.387408      0.153266     -0.537264
  B       0.102945      1.364159     -0.774604
  B      -0.381878     -1.410718     -0.325157
12
Coordinates from ORCA-job input E -297.283258947093
  B       0.457386     -0.603935      1.239731
  B       1.951351     -0.011692      0.814865
  B      -0.821918      0.325934      0.365021
  B      -0.992934     -1.183303      1.360242
  B       1.738626      1.139633     -0.682594
  B      -1.449761      1.404003     -0.795668
  B       0.783895     -0.322690     -0.531590
  B      -2.000135     -1.222930      0.131760
  B       3.001479      0.374755     -0.256238
  B      -2.390715      0.154210     -0.536698
  B       0.107136      1.361855     -0.775914
  B      -0.384411     -1.415840     -0.332917
12
Coordinates from ORCA-job input E -297.283316672223
  B       0.459523     -0.607681      1.233712
  B       1.954111     -0.010028      0.813677
  B      -0.823689      0.324878      0.361527
  B      -0.994833     -1.181169      1.357913
  B       1.741630      1.137101     -0.682674
  B      -1.451446      1.404741     -0.793952
  B       0.784055     -0.328218     -0.528700
  B      -2.004669     -1.224495      0.132530
  B       3.007354      0.383628     -0.252856
  B      -2.394170      0.157810     -0.533986
  B       0.107946      1.359874     -0.777511
  B      -0.385813     -1.416443     -0.329680
12
Coordinates from ORCA-job input E -297.283337746906
  B       0.459389     -0.609137      1.230599
  B       1.953479     -0.008257      0.812548
  B      -0.823135      0.323356      0.360930
  B      -0.995427     -1.181288      1.358541
  B       1.742318      1.134338     -0.685126
  B      -1.451875      1.407257     -0.791143
  B       0.781876     -0.329730     -0.528011
  B      -2.006173     -1.223597      0.132303
  B       3.010786      0.388889     -0.249818
  B      -2.392251      0.158971     -0.534297
  B       0.107612      1.357019     -0.778192
  B      -0.386598     -1.417821     -0.328335
12
Coordinates from ORCA-job input E -297.283372780336
  B       0.458215     -0.611267      1.225412
  B       1.952965     -0.006566      0.811075
  B      -0.825243      0.321491      0.360378
  B      -0.997521     -1.182002      1.358512
  B       1.741728      1.126966     -0.690495
  B      -1.451701      1.411798     -0.785331
  B       0.782916     -0.337481     -0.528645
  B      -2.006335     -1.219986      0.131618
  B       3.016356      0.400729     -0.243962
  B      -2.393753      0.162897     -0.534002
  B       0.106715      1.355278     -0.779971
  B      -0.384341     -1.421855     -0.324590
12
Coordinates from ORCA-job input E -297.283416444562
  B       0.458841     -0.613107      1.224494
  B       1.950684     -0.002799      0.807806
  B      -0.823716      0.319510      0.360562
  B      -0.998028     -1.185544      1.358033
  B       1.742598      1.122144     -0.694462
  B      -1.449355      1.412130     -0.782136
  B       0.781342     -0.340057     -0.532430
  B      -2.009809     -1.216196      0.135337
  B       3.021256      0.411450     -0.235245
  B      -2.392760      0.165390     -0.532914
  B       0.107435      1.348746     -0.782399
  B      -0.388489     -1.421666     -0.326644
12
Coordinates from ORCA-job input E -297.283454940774
  B       0.457520     -0.610561      1.223194
  B       1.949935     -0.003371      0.803545
  B      -0.822393      0.317082      0.358567
  B      -0.996091     -1.191492      1.357776
  B       1.741858      1.115668     -0.695060
  B      -1.448599      1.413922     -0.780714
  B       0.775303     -0.338860     -0.535935
  B      -2.011605     -1.210588      0.140123
  B       3.025545      0.419234     -0.229583
  B      -2.392466      0.166469     -0.536085
  B       0.109407      1.351346     -0.782252
  B      -0.388413     -1.428850     -0.323576
12
Coordinates from ORCA-job input E -297.283486408141
  B       0.456456     -0.612042      1.220322
  B       1.946672     -0.003456      0.802146
  B      -0.823319      0.316876      0.360573
  B      -0.996948     -1.194352      1.356140
  B       1.743663      1.110762     -0.699834
  B      -1.446914      1.414060     -0.776407
  B       0.779315     -0.344817     -0.543197
  B      -2.013476     -1.207932      0.142331
  B       3.034293      0.435023     -0.217698
  B      -2.397306      0.170945     -0.529286
  B       0.110792      1.340980     -0.790178
  B      -0.393229     -1.426049     -0.324913
12
Coordinates from ORCA-job input E -297.283522900458
  B       0.455573     -0.607565      1.220942
  B       1.948590     -0.006758      0.803241
  B      -0.824638      0.318769      0.361344
  B      -0.996056     -1.194578      1.356573
  B       1.743867      1.112808     -0.696293
  B      -1.447913      1.413038     -0.777850
  B       0.779132     -0.343267     -0.545654
  B      -2.013020     -1.211102      0.142225
  B       3.031470      0.428232     -0.220174
  B      -2.395178      0.168650     -0.530104
  B       0.109282      1.345627     -0.790260
  B      -0.391109     -1.423854     -0.323989
12
Coordinates from ORCA-job input E -297.283550694442
  B       0.456115     -0.606452      1.218653
  B       1.950727     -0.009437      0.801954
  B      -0.822912      0.320165      0.359167
  B      -0.995411     -1.190294      1.356044
  B       1.743304      1.112333     -0.688375
  B      -1.450049      1.414562     -0.778838
  B       0.775655     -0.341213     -0.546421
  B      -2.013693     -1.215773      0.141121
  B       3.034215      0.426629     -0.220091
  B      -2.395264      0.168104     -0.527444
  B       0.107359      1.346461     -0.793776
  B      -0.390046     -1.425086     -0.321996
12
Coordinates from ORCA-job input E -297.283569992955
  B       0.454423     -0.604026      1.216865
  B       1.950070     -0.011833      0.802701
  B      -0.823142      0.319496      0.358782
  B      -0.994853     -1.190791      1.357512
  B       1.744223      1.115117     -0.687144
  B      -1.449013      1.412848     -0.779549
  B       0.775173     -0.340942     -0.549626
  B      -2.013335     -1.216289      0.141804
  B       3.032649      0.424833     -0.220709
  B      -2.394789      0.167219     -0.527384
  B       0.108414      1.349382     -0.793109
  B      -0.389819     -1.425014     -0.320143
12
Coordinates from ORCA-job input E -297.283602645755
  B       0.453342     -0.603882      1.214917
  B       1.949772     -0.012716      0.802088
  B      -0.823672      0.318403      0.358551
  B      -0.995700     -1.190464      1.359109
  B       1.744490      1.115888     -0.686341
  B      -1.448196      1.412671     -0.780195
  B       0.774005     -0.340591     -0.553811
  B      -2.013137     -1.216052      0.141842
  B       3.033562      0.426013     -0.220506
  B      -2.394631      0.167628     -0.527661
  B       0.109113      1.348998     -0.790960
  B      -0.388947     -1.425895     -0.317033
12
Coordinates from ORCA-job input E -297.283683323232
  B       0.454309     -0.609117      1.208126
  B       1.948450     -0.015226      0.797993
  B      -0.824212      0.314992      0.354192
  B      -0.997689     -1.186117      1.362672
  B       1.745157      1.117839     -0.681688
  B      -1.447859      1.411597     -0.782711
  B       0.770323     -0.341138     -0.562913
  B      -2.012510     -1.212811      0.142360
  B       3.037531      0.430623     -0.217924
  B      -2.397148      0.168906     -0.527981
  B       0.110071      1.351260     -0.786061
  B      -0.386424     -1.430806     -0.306065
12
Coordinates from ORCA-job input E -297.283744920131
  B       0.455994     -0.615738      1.205521
  B       1.948719     -0.016439      0.795292
  B      -0.824336      0.314676      0.350560
  B      -1.000843     -1.182829      1.364062
  B       1.743494      1.117692     -0.680425
  B      -1.448335      1.414275     -0.785279
  B       0.767475     -0.339850     -0.567470
  B      -2.011786     -1.212321      0.140317
  B       3.038222      0.432291     -0.219533
  B      -2.396493      0.169653     -0.530865
  B       0.109397      1.353717     -0.778712
  B      -0.381507     -1.435127     -0.293469
12
Coordinates from ORCA-job input E -297.283778279060
  B       0.460061     -0.624746      1.204389
  B       1.948824     -0.015444      0.793617
  B      -0.824071      0.314775      0.348508
  B      -1.003375     -1.178836      1.364337
  B       1.742991      1.115449     -0.681654
  B      -1.449943      1.415004     -0.785630
  B       0.764867     -0.338156     -0.567593
  B      -2.010968     -1.211095      0.138393
  B       3.039184      0.434020     -0.218492
  B      -2.396985      0.170138     -0.532679
  B       0.108534      1.357321     -0.776704
  B      -0.379118     -1.438432     -0.286493
12
Coordinates from ORCA-job input E -297.283782293788
  B       0.461102     -0.627819      1.202417
  B       1.948367     -0.014448      0.794481
  B      -0.823320      0.315665      0.346011
  B      -1.003575     -1.178408      1.363745
  B       1.742190      1.114646     -0.682329
  B      -1.450399      1.417278     -0.785171
  B       0.767756     -0.340116     -0.567150
  B      -2.011497     -1.210403      0.138230
  B       3.037235      0.435328     -0.217765
  B      -2.397684      0.171491     -0.531783
  B       0.107314      1.356677     -0.776729
  B      -0.377490     -1.439891     -0.283958
12
Coordinates from ORCA-job input E -297.283784355713
  B       0.461035     -0.628197      1.203105
  B       1.948531     -0.014271      0.794412
  B      -0.823625      0.315377      0.346813
  B      -1.003934     -1.178356      1.363739
  B       1.742349      1.114274     -0.683930
  B      -1.450474      1.417120     -0.784422
  B       0.767298     -0.339359     -0.565989
  B      -2.011165     -1.210788      0.137855
  B       3.037814      0.435575     -0.217267
  B      -2.397152      0.171486     -0.531902
  B       0.107514      1.356460     -0.777566
  B      -0.378192     -1.439321     -0.284848
12
Coordinates from ORCA-job input E -297.283784698807
  B       0.460872     -0.628057      1.202892
  B       1.948519     -0.014374      0.794291
  B      -0.823660      0.315083      0.346818
  B      -1.004058     -1.178289      1.363806
  B       1.742343      1.114278     -0.683992
  B      -1.450451      1.417096     -0.783805
  B       0.767738     -0.339770     -0.566154
  B      -2.011219     -1.210661      0.137735
  B       3.037989      0.436105     -0.216814
  B      -2.397327      0.171799     -0.531658
  B       0.107515      1.356095     -0.778274
  B      -0.378261     -1.439303     -0.284846
