12
Optimized coordinates extracted from calculations\B12\compact_3d\d_2.5\mult_1\output.out
B        0.46087180      -0.62805716       1.20289223
B        1.94851879      -0.01437443       0.79429073
B       -0.82366020       0.31508332       0.34681833
B       -1.00405785      -1.17828950       1.36380587
B        1.74234311       1.11427763      -0.68399224
B       -1.45045108       1.41709569      -0.78380509
B        0.76773815      -0.33977018      -0.56615357
B       -2.01121916      -1.21066133       0.13773501
B        3.03798933       0.43610535      -0.21681446
B       -2.39732661       0.17179855      -0.53165754
B        0.10751474       1.35609523      -0.77827360
B       -0.37826103      -1.43930317      -0.28484569
