12
B12 random_3d_03; neutral charge=0; multiplicity=1; 3d initial geometry; nominal d=4.0 A; Random 3D B12 cloud with controlled minimum distance 03.
B        6.33180338      -3.32476789      -4.68206006
B       -4.68594152      -5.88496831      -3.57340802
B       -0.35506976      -5.60611720       1.73138489
B       -2.41036608       6.56757261      -3.03935993
B        0.61310038      -4.17652942       5.46468923
B       -0.03977203       6.77501873       3.60011649
B        1.62000112      -4.46845648      -5.29005771
B        6.19567025       4.27385518       5.71316468
B       -0.45986325      -0.20368814      -3.14238823
B       -4.34844750      -0.67369859       1.96803857
B       -4.76444514       5.51906691      -5.39788152
B        2.30333016       1.20271262       6.64776162
