12
B12 random_3d_02; neutral charge=0; multiplicity=3; 3d initial geometry; nominal d=2.0 A; Random 3D B12 cloud with controlled minimum distance 02.
B        2.35548510      -1.47264734       1.44095368
B       -3.20299410       2.76218139       1.62630924
B        0.26904233      -2.08026631       2.03113269
B       -2.05453901       2.03617168      -2.83811138
B       -0.35498613      -1.17090473      -2.78977711
B        1.57959341      -2.21024331      -1.76949346
B       -0.34434792       0.50167002       0.03135149
B        1.28380633       0.17383772      -2.05786736
B       -2.38168671      -1.60397651       0.20631013
B        2.00420419      -3.21598079       2.14055297
B        1.75801791       3.46240781       2.43526707
B       -0.91159539       2.81775040      -0.45662795
