12
Optimized coordinates extracted from calculations\B12\compact_3d\d_3.5\mult_5\output.out
B        0.00000000       0.00000000       7.04589052
B        5.30972910       0.00000000       3.22108566
B       -2.65486455       4.58976583       3.22108566
B       -2.65486455      -4.58976583       3.22108566
B        3.23983471       5.30972910      -0.15374216
B       -3.23983471       5.30972910      -0.15374216
B        3.23983471      -5.30972910      -0.15374216
B       -3.23983471      -5.30972910      -0.15374216
B        5.03974288       0.00000000      -3.57356768
B       -5.03974288       0.00000000      -3.57356768
B        0.00000000       4.40977502      -4.47352176
B        0.00000000      -4.40977502      -4.47352176
