12
B12 distorted_icosahedron_01; neutral charge=0; multiplicity=3; 3D initial geometry; nominal d=2.5 A; Low-symmetry distorted icosahedron variant 01.
B       -0.02350745      -1.17876595      -1.98769531
B        0.03508207      -1.26263079       1.97644156
B        0.03870108       1.21572129      -1.94037420
B       -0.02369093       1.18119253       1.98879026
B       -1.22721154      -2.00521194       0.01051785
B       -1.26340905       2.02038377      -0.03112429
B        1.27101710      -1.92474337       0.01393837
B        1.28494268       2.08177676      -0.01628964
B       -1.97326436      -0.04150670      -1.25279586
B       -2.03217204      -0.03958825       1.27198372
B        1.97579009      -0.02315068      -1.27191407
B        1.93772235      -0.02347668       1.23852161
