12
B12 distorted_cage; neutral charge=0; multiplicity=5; 3d initial geometry; nominal d=3.5 A; Anisotropically deformed 3D cage.
B       -0.12493071      -1.58623834      -3.23431756
B       -0.13680034      -1.48710806       3.40378462
B        0.04702271       1.51800661      -3.39301903
B       -0.11011372       1.63097358       3.22791077
B       -1.59141604      -2.61934275      -0.12458748
B       -1.93144792       2.37160106       0.00663534
B        1.74662774      -2.67856024       0.10134647
B        2.26196118       2.35788350       0.07246895
B       -3.17643152       0.14045546      -2.03920927
B       -3.12739686      -0.13028115       1.98804729
B        3.09082930       0.30691484      -2.12909462
B        3.05209619       0.17569548       2.12003452
