12
B12 random_3d_01; neutral charge=0; multiplicity=5; 3D initial geometry; nominal d=4.0 A; Random 3D B12 cloud with controlled minimum distance 01.
B       -3.89268245      -1.49789462       2.38055583
B        4.32720415      -4.84827573       3.56672658
B        1.18832753       2.04757179      -0.72671638
B        7.04139008       0.05072418       3.78938087
B       -6.15982647       1.66782310       1.61746147
B       -3.31490161      -3.59657452      -3.35834860
B       -6.09693582      -1.07066843       0.44100011
B       -3.44904279       3.24173014      -0.53527246
B        1.41072559       4.49653342      -6.03518019
B        4.23140701       2.23693842       1.55240759
B        3.13359260       2.79663191      -4.29446035
B        1.58074218      -5.52453966       1.60244552
