12
Coordinates from ORCA-job input E -297.238820600200
  B           1.00442057270180      0.19134262343101      0.98488141741927
  B           0.96842481880197      1.84061374211207      0.47442600649526
  B          -0.57330518192677      1.38421223871917      0.62951412144355
  B          -0.83366526079661     -0.27006111753605      0.87168934560849
  B          -0.94791920307373     -1.90515687814698      0.43808933275926
  B           0.55598324043117     -1.39179273709568      0.71339591273253
  B           1.83796830624017      0.96593631725283     -0.48981552972877
  B           0.18600735531238      0.99844561765204     -0.99199757257552
  B          -1.39578903871883      0.55202861548843     -0.70791040279231
  B          -1.90750667972608     -0.95061109621561     -0.42189158594050
  B          -0.27505444041553     -0.83852789461057     -0.86575969924655
  B           1.38043551117007     -0.57642943105065     -0.63462134617471
