12
Coordinates from ORCA-job input E -296.331940106601
  B       2.500000     -0.000000      0.775000
  B       1.250000      2.165064      0.775000
  B      -1.250000      2.165064      0.775000
  B      -2.500000      0.000000      0.775000
  B      -1.250000     -2.165064      0.775000
  B       1.250000     -2.165064      0.775000
  B       2.035160      1.175000     -0.775000
  B       0.000000      2.350000     -0.775000
  B      -2.035160      1.175000     -0.775000
  B      -2.035160     -1.175000     -0.775000
  B      -0.000000     -2.350000     -0.775000
  B       2.035160     -1.175000     -0.775000
12
Coordinates from ORCA-job input E -296.457088711837
  B       2.387363      0.000002      0.750338
  B       1.190961      2.119077      0.790075
  B      -1.190959      2.119077      0.790073
  B      -2.387363     -0.000002      0.750338
  B      -1.190961     -2.119077      0.790075
  B       1.190959     -2.119077      0.790073
  B       1.852594      1.127889     -0.779934
  B       0.000002      2.224189     -0.770620
  B      -1.852594      1.127886     -0.779933
  B      -1.852594     -1.127889     -0.779934
  B      -0.000002     -2.224189     -0.770620
  B       1.852594     -1.127886     -0.779933
12
Coordinates from ORCA-job input E -296.624922075274
  B       2.279256      0.000020      0.719561
  B       1.134684      2.082486      0.802622
  B      -1.134670      2.082507      0.802598
  B      -2.279258     -0.000019      0.719561
  B      -1.134683     -2.082488      0.802622
  B       1.134672     -2.082506      0.802598
  B       1.662295      1.086749     -0.780593
  B       0.000015      2.096459     -0.763607
  B      -1.662316      1.086742     -0.780581
  B      -1.662297     -1.086749     -0.780593
  B      -0.000014     -2.096459     -0.763607
  B       1.662316     -1.086741     -0.780581
12
Coordinates from ORCA-job input E -296.849294017615
  B       2.119856      0.001834      0.705555
  B       1.042544      1.968752      0.810168
  B      -1.042519      1.968765      0.810137
  B      -2.119853      0.001777      0.705556
  B      -1.048064     -1.972360      0.809469
  B       1.048039     -1.972378      0.809438
  B       1.422532      0.989323     -0.780687
  B       0.000026      1.848288     -0.766868
  B      -1.422553      0.989299     -0.780679
  B      -1.415327     -0.983845     -0.778792
  B      -0.000026     -1.855629     -0.764517
  B       1.415344     -0.983824     -0.778780
12
Coordinates from ORCA-job input E -297.005745377370
  B       1.957222      0.002125      0.800238
  B       0.924148      1.787458      0.777593
  B      -0.924129      1.787494      0.777632
  B      -1.957221      0.002066      0.800238
  B      -0.929575     -1.790241      0.776667
  B       0.929557     -1.790278      0.776703
  B       1.361209      0.817576     -0.763291
  B      -0.000044      1.617982     -0.829994
  B      -1.361236      0.817642     -0.763241
  B      -1.358168     -0.813713     -0.762372
  B       0.000041     -1.624333     -0.827853
  B       1.358195     -0.813777     -0.762319
12
Coordinates from ORCA-job input E -297.063389543600
  B       1.654249      0.040828      0.897695
  B       0.674939      1.397954      0.744923
  B      -0.674806      1.398152      0.745063
  B      -1.654353      0.040497      0.897699
  B      -0.769074     -1.475392      0.752470
  B       0.768999     -1.475489      0.752591
  B       1.415122      0.735471     -0.752725
  B      -0.000050      1.447342     -0.924549
  B      -1.415241      0.735681     -0.752511
  B      -1.446101     -0.678370     -0.734639
  B       0.000080     -1.488182     -0.891560
  B       1.446235     -0.678492     -0.734458
12
Coordinates from ORCA-job input E -297.132767925595
  B       1.698510      0.019271      0.755524
  B       0.885836      1.245943      0.782235
  B      -0.885889      1.246177      0.782405
  B      -1.698560      0.019137      0.755579
  B      -0.777125     -1.290906      0.801288
  B       0.777148     -1.291098      0.801428
  B       1.508972      0.835988     -0.807012
  B      -0.000091      1.590428     -0.746694
  B      -1.509160      0.836152     -0.806787
  B      -1.457381     -0.827378     -0.768096
  B       0.000119     -1.556036     -0.781956
  B       1.457621     -0.827678     -0.767914
12
Coordinates from ORCA-job input E -297.108871675288
  B       1.883087     -0.076270      0.673464
  B       0.865127      1.509964      0.796254
  B      -0.865779      1.510086      0.796082
  B      -1.882941     -0.075706      0.673565
  B      -0.907008     -1.449258      0.812298
  B       0.907446     -1.449612      0.812059
  B       1.491146      0.936670     -0.759981
  B      -0.000114      1.694065     -0.741257
  B      -1.491313      0.936721     -0.760243
  B      -1.444829     -0.944008     -0.794677
  B      -0.000038     -1.648313     -0.712637
  B       1.445218     -0.944338     -0.794928
12
Coordinates from ORCA-job input E -297.157417735516
  B       1.824609     -0.079958      0.671456
  B       0.800585      1.358651      0.796162
  B      -0.801568      1.358722      0.795832
  B      -1.824257     -0.079097      0.671651
  B      -0.860990     -1.268211      0.797102
  B       0.861587     -1.268830      0.796774
  B       1.489313      0.917827     -0.745084
  B      -0.000092      1.564323     -0.732369
  B      -1.489565      0.917736     -0.745584
  B      -1.473575     -0.925985     -0.798159
  B      -0.000075     -1.568589     -0.709236
  B       1.474031     -0.926590     -0.798546
12
Coordinates from ORCA-job input E -297.178832325679
  B       1.809420     -0.003893      0.697456
  B       0.808947      1.292422      0.782182
  B      -0.809437      1.292401      0.782116
  B      -1.809018     -0.003730      0.697696
  B      -0.789130     -1.283722      0.784906
  B       0.789128     -1.284294      0.784816
  B       1.493259      0.896827     -0.758715
  B      -0.000094      1.488468     -0.736658
  B      -1.493381      0.896545     -0.758835
  B      -1.497916     -0.874256     -0.760910
  B      -0.000123     -1.541838     -0.753128
  B       1.498344     -0.874930     -0.760925
12
Coordinates from ORCA-job input E -297.167650058252
  B       1.908887      0.008001      0.655791
  B       0.838792      1.198843      0.776551
  B      -0.838877      1.199659      0.777054
  B      -1.909922      0.007780      0.656252
  B      -0.877879     -1.244184      0.803005
  B       0.877590     -1.244002      0.802832
  B       1.565572      0.866622     -0.764925
  B      -0.000294      1.373244     -0.721082
  B      -1.565233      0.866339     -0.764432
  B      -1.512823     -0.822661     -0.761838
  B       0.000027     -1.385805     -0.697305
  B       1.514160     -0.823837     -0.761904
12
Coordinates from ORCA-job input E -297.180685300856
  B       1.783003     -0.006400      0.641820
  B       0.785995      1.261560      0.765154
  B      -0.786864      1.262055      0.765662
  B      -1.783399     -0.006280      0.642786
  B      -0.822165     -1.296635      0.794469
  B       0.821418     -1.296227      0.794337
  B       1.570961      0.914333     -0.743870
  B      -0.000633      1.503420     -0.728808
  B      -1.570390      0.913739     -0.743332
  B      -1.457499     -0.877726     -0.750760
  B       0.000066     -1.492018     -0.686650
  B       1.459507     -0.879821     -0.750808
12
Coordinates from ORCA-job input E -297.183531096053
  B       1.796599      0.003903      0.637711
  B       0.800292      1.309832      0.784170
  B      -0.800998      1.309324      0.784515
  B      -1.796116      0.003289      0.639426
  B      -0.820333     -1.303024      0.774046
  B       0.818204     -1.302582      0.774356
  B       1.522118      0.930236     -0.745339
  B      -0.000351      1.451161     -0.708020
  B      -1.521072      0.927655     -0.744525
  B      -1.517714     -0.885739     -0.745474
  B      -0.000029     -1.554767     -0.705770
  B       1.519401     -0.889288     -0.745096
12
Coordinates from ORCA-job input E -297.184260331642
  B       1.773472     -0.020279      0.666879
  B       0.819366      1.333392      0.769207
  B      -0.822215      1.334111      0.769292
  B      -1.773366     -0.019749      0.670322
  B      -0.784254     -1.311565      0.760996
  B       0.781221     -1.308852      0.760196
  B       1.585072      0.907431     -0.737764
  B      -0.000816      1.388313     -0.732935
  B      -1.581751      0.901753     -0.737179
  B      -1.519080     -0.873928     -0.725800
  B      -0.001288     -1.450389     -0.736534
  B       1.523641     -0.880236     -0.726681
12
Coordinates from ORCA-job input E -297.186696790840
  B       1.731345      0.002217      0.658759
  B       0.812557      1.316629      0.766963
  B      -0.815692      1.317808      0.768020
  B      -1.730879      0.001247      0.664405
  B      -0.820708     -1.337421      0.767964
  B       0.813993     -1.333113      0.768469
  B       1.573118      0.913581     -0.746813
  B      -0.001454      1.397008     -0.731249
  B      -1.567994      0.904907     -0.744601
  B      -1.504373     -0.857042     -0.727579
  B      -0.000747     -1.458776     -0.716573
  B       1.510833     -0.867045     -0.727765
12
Coordinates from ORCA-job input E -297.188377147880
  B       1.715202      0.002910      0.660158
  B       0.804056      1.359045      0.766209
  B      -0.809128      1.361448      0.767184
  B      -1.712457      0.000779      0.670237
  B      -0.825573     -1.365541      0.757421
  B       0.812137     -1.354533      0.758716
  B       1.571085      0.920502     -0.739696
  B      -0.001577      1.383316     -0.727025
  B      -1.562059      0.905636     -0.735859
  B      -1.514409     -0.867130     -0.726229
  B      -0.001317     -1.463692     -0.724467
  B       1.524039     -0.882740     -0.726650
12
Coordinates from ORCA-job input E -297.189616425920
  B       1.681046     -0.001150      0.669870
  B       0.806225      1.391834      0.757356
  B      -0.817591      1.396517      0.756702
  B      -1.674764     -0.002737      0.687606
  B      -0.823276     -1.396746      0.746508
  B       0.802388     -1.380864      0.748352
  B       1.584743      0.915000     -0.734885
  B      -0.002071      1.394161     -0.731478
  B      -1.570123      0.887965     -0.730065
  B      -1.516957     -0.853926     -0.716661
  B      -0.002465     -1.468461     -0.734392
  B       1.532845     -0.881593     -0.718913
12
Coordinates from ORCA-job input E -297.191637763712
  B       1.638755      0.001970      0.680493
  B       0.803648      1.422146      0.741388
  B      -0.824820      1.434358      0.741475
  B      -1.625265     -0.005925      0.717056
  B      -0.832134     -1.442967      0.730626
  B       0.785081     -1.406070      0.735832
  B       1.601108      0.915795     -0.732101
  B      -0.005431      1.375553     -0.736154
  B      -1.565664      0.861339     -0.720269
  B      -1.514039     -0.832311     -0.705616
  B      -0.007293     -1.440694     -0.743218
  B       1.546054     -0.883195     -0.709513
12
Coordinates from ORCA-job input E -297.193904076238
  B       1.577055      0.006146      0.689197
  B       0.794351      1.454587      0.721768
  B      -0.835613      1.484520      0.715167
  B      -1.541133     -0.004146      0.761127
  B      -0.856067     -1.515813      0.700819
  B       0.764050     -1.425017      0.722660
  B       1.613134      0.917595     -0.726214
  B      -0.001702      1.354041     -0.741764
  B      -1.551719      0.819601     -0.702499
  B      -1.514610     -0.798619     -0.692456
  B      -0.002076     -1.407824     -0.747845
  B       1.554331     -0.885072     -0.699961
12
Coordinates from ORCA-job input E -297.196573063671
  B       1.486431      0.034213      0.705853
  B       0.809278      1.502095      0.703918
  B      -0.818051      1.538237      0.686963
  B      -1.381057     -0.033125      0.774284
  B      -0.890937     -1.614515      0.665700
  B       0.722274     -1.426723      0.713470
  B       1.637606      0.915644     -0.710075
  B       0.016995      1.326384     -0.746834
  B      -1.539844      0.803832     -0.683400
  B      -1.553000     -0.831231     -0.678320
  B      -0.033062     -1.371420     -0.752255
  B       1.543366     -0.843390     -0.679305
12
Coordinates from ORCA-job input E -297.195176577882
  B       1.428856      0.027251      0.754032
  B       0.823166      1.521287      0.697323
  B      -0.795232      1.538680      0.653113
  B      -1.265849     -0.018716      0.761524
  B      -0.906847     -1.663159      0.644847
  B       0.764273     -1.443803      0.718099
  B       1.598054      0.880619     -0.684701
  B       0.038466      1.280205     -0.764094
  B      -1.533956      0.850159     -0.683914
  B      -1.617147     -0.880747     -0.675833
  B      -0.002095     -1.329468     -0.741907
  B       1.468310     -0.762309     -0.678489
12
Coordinates from ORCA-job input E -297.202309314785
  B       1.434547      0.040427      0.791204
  B       0.861206      1.644772      0.682287
  B      -0.791977      1.495405      0.619657
  B      -1.143545     -0.069473      0.767262
  B      -0.972358     -1.710003      0.626442
  B       0.690729     -1.434143      0.697778
  B       1.705511      0.971072     -0.631299
  B       0.067364      1.269396     -0.788761
  B      -1.487423      0.729623     -0.679833
  B      -1.684377     -0.892074     -0.626633
  B      -0.092765     -1.318510     -0.775422
  B       1.413088     -0.726492     -0.682684
12
Coordinates from ORCA-job input E -297.205987718106
  B       1.373846      0.083443      0.800965
  B       0.926220      1.677751      0.634991
  B      -0.751480      1.513083      0.629351
  B      -1.177947     -0.129778      0.826242
  B      -0.992973     -1.776234      0.589343
  B       0.624290     -1.371169      0.696286
  B       1.766991      0.961543     -0.623522
  B       0.105733      1.259613     -0.807560
  B      -1.476947      0.684059     -0.642472
  B      -1.706722     -0.920803     -0.614673
  B      -0.088024     -1.316806     -0.811927
  B       1.397014     -0.664703     -0.677023
12
Coordinates from ORCA-job input E -297.207425576829
  B       1.287488      0.055573      0.799134
  B       0.930791      1.716883      0.612003
  B      -0.726121      1.496129      0.649949
  B      -1.136050     -0.105730      0.811867
  B      -0.966068     -1.805159      0.588869
  B       0.604259     -1.343503      0.704766
  B       1.783400      0.948932     -0.590750
  B       0.098096      1.218872     -0.809230
  B      -1.471042      0.719757     -0.644498
  B      -1.719768     -0.945432     -0.594535
  B      -0.086704     -1.319596     -0.829648
  B       1.401719     -0.636726     -0.697925
12
Coordinates from ORCA-job input E -297.211566112984
  B       1.294497      0.098747      0.817503
  B       0.930891      1.735262      0.596178
  B      -0.682087      1.442272      0.657341
  B      -1.099576     -0.140655      0.805985
  B      -0.984789     -1.801271      0.566628
  B       0.576742     -1.349432      0.737011
  B       1.760126      0.973560     -0.592996
  B       0.121577      1.186065     -0.822530
  B      -1.455423      0.705856     -0.642594
  B      -1.744845     -0.927584     -0.600291
  B      -0.076524     -1.297277     -0.825395
  B       1.359411     -0.625541     -0.696839
12
Coordinates from ORCA-job input E -297.213696519145
  B       1.290218      0.100565      0.838303
  B       0.929223      1.741863      0.582330
  B      -0.690834      1.456760      0.643511
  B      -1.076123     -0.144694      0.829721
  B      -0.992932     -1.810093      0.552580
  B       0.574220     -1.354700      0.727885
  B       1.772023      0.967059     -0.568413
  B       0.123477      1.157877     -0.837495
  B      -1.457065      0.688329     -0.639825
  B      -1.744660     -0.914630     -0.584384
  B      -0.095325     -1.288143     -0.838264
  B       1.367779     -0.600193     -0.705949
12
Coordinates from ORCA-job input E -297.215428093762
  B       1.266935      0.097822      0.846486
  B       0.933432      1.761203      0.568845
  B      -0.689729      1.466096      0.637566
  B      -1.053970     -0.159169      0.835074
  B      -0.983488     -1.818122      0.540519
  B       0.559743     -1.351523      0.727073
  B       1.794917      0.967343     -0.546596
  B       0.134814      1.130338     -0.844492
  B      -1.464902      0.682075     -0.637493
  B      -1.760370     -0.918906     -0.563640
  B      -0.101510     -1.268071     -0.849354
  B       1.364128     -0.589087     -0.713988
12
Coordinates from ORCA-job input E -297.217962290395
  B       1.232410      0.102223      0.861269
  B       0.934672      1.782500      0.551874
  B      -0.677226      1.463172      0.623732
  B      -1.007908     -0.178525      0.843160
  B      -0.982199     -1.837256      0.520357
  B       0.540764     -1.339659      0.730113
  B       1.816617      0.972297     -0.517055
  B       0.164707      1.081022     -0.858504
  B      -1.458964      0.669618     -0.632703
  B      -1.782236     -0.927170     -0.538061
  B      -0.122889     -1.233702     -0.858856
  B       1.342252     -0.554520     -0.725325
12
Coordinates from ORCA-job input E -297.221485934361
  B       1.185197      0.105011      0.885191
  B       0.914528      1.795473      0.524637
  B      -0.665942      1.470879      0.600046
  B      -0.932995     -0.198211      0.852390
  B      -0.969209     -1.853875      0.484602
  B       0.525232     -1.345126      0.738345
  B       1.831842      0.970655     -0.479103
  B       0.192802      0.998450     -0.884053
  B      -1.461241      0.669703     -0.618705
  B      -1.806528     -0.924483     -0.502203
  B      -0.141428     -1.165789     -0.868989
  B       1.327741     -0.522688     -0.732158
12
Coordinates from ORCA-job input E -297.225320465088
  B       1.120526      0.115138      0.912716
  B       0.917467      1.825500      0.491222
  B      -0.658361      1.457870      0.563298
  B      -0.818816     -0.250229      0.844098
  B      -0.971879     -1.889349      0.444231
  B       0.503733     -1.361018      0.747082
  B       1.856279      0.984102     -0.437264
  B       0.236244      0.927859     -0.919650
  B      -1.440801      0.636808     -0.623108
  B      -1.859170     -0.929546     -0.443699
  B      -0.199522     -1.034181     -0.851962
  B       1.314301     -0.482954     -0.726965
12
Coordinates from ORCA-job input E -297.220808627602
  B       1.121868      0.109177      0.965263
  B       0.844339      1.812754      0.455176
  B      -0.637937      1.414217      0.521458
  B      -0.770876     -0.279807      0.869645
  B      -0.954759     -1.909746      0.382648
  B       0.541820     -1.470418      0.772978
  B       1.843688      1.015957     -0.429363
  B       0.242564      0.890023     -1.041765
  B      -1.404280      0.631960     -0.645568
  B      -1.915643     -0.899498     -0.402853
  B      -0.255477     -0.800263     -0.759983
  B       1.344692     -0.514357     -0.687638
12
Coordinates from ORCA-job input E -297.224225177802
  B       1.110965      0.153400      0.925589
  B       0.924550      1.836678      0.468736
  B      -0.687364      1.423303      0.622177
  B      -0.889608     -0.226201      0.902385
  B      -0.980520     -1.877571      0.448100
  B       0.583452     -1.471303      0.752533
  B       1.857450      0.992350     -0.488850
  B       0.166747      0.979362     -0.967413
  B      -1.436760      0.626104     -0.651817
  B      -1.877360     -0.902983     -0.478780
  B      -0.215758     -0.933613     -0.851954
  B       1.444206     -0.599524     -0.680706
12
Coordinates from ORCA-job input E -297.204244534312
  B       1.012152      0.114647      0.959650
  B       1.023066      1.842482      0.526933
  B      -0.663626      1.392560      0.580006
  B      -0.770465     -0.249235      0.856048
  B      -0.926407     -1.871999      0.486443
  B       0.473445     -1.336065      0.712171
  B       1.818812      0.933583     -0.439006
  B       0.298325      1.047567     -0.972353
  B      -1.359286      0.467704     -0.741863
  B      -1.921333     -1.033626     -0.364701
  B      -0.347605     -0.816323     -0.877653
  B       1.362921     -0.491296     -0.725675
12
Coordinates from ORCA-job input E -297.234821908596
  B       1.065430      0.170458      0.955256
  B       0.963493      1.814216      0.498140
  B      -0.612685      1.417017      0.616496
  B      -0.799370     -0.268003      0.853270
  B      -0.975139     -1.901615      0.439149
  B       0.522682     -1.367138      0.765728
  B       1.842049      0.973784     -0.469519
  B       0.159502      1.017563     -0.993580
  B      -1.400097      0.567902     -0.680043
  B      -1.902145     -0.953771     -0.440899
  B      -0.236325     -0.904299     -0.868695
  B       1.372605     -0.566114     -0.675303
12
Coordinates from ORCA-job input E -297.233553065757
  B       1.087542      0.137337      0.959758
  B       0.928609      1.812424      0.517403
  B      -0.623048      1.426984      0.579521
  B      -0.882960     -0.216048      0.887095
  B      -0.952692     -1.888847      0.466521
  B       0.588305     -1.428091      0.714918
  B       1.842608      0.995972     -0.457874
  B       0.237506      0.962280     -0.986221
  B      -1.419443      0.559630     -0.705128
  B      -1.911593     -0.948869     -0.425481
  B      -0.275587     -0.867112     -0.849489
  B       1.380753     -0.545661     -0.701023
12
Coordinates from ORCA-job input E -297.236955410343
  B       1.056983      0.178414      0.977435
  B       0.956821      1.848973      0.461168
  B      -0.586039      1.374346      0.622882
  B      -0.863198     -0.275930      0.886210
  B      -0.946695     -1.911081      0.421991
  B       0.533290     -1.393927      0.746547
  B       1.844791      0.971678     -0.499917
  B       0.198820      0.957503     -1.001675
  B      -1.409353      0.573305     -0.669855
  B      -1.907435     -0.953686     -0.452106
  B      -0.274399     -0.813204     -0.851088
  B       1.396415     -0.556392     -0.641591
12
Coordinates from ORCA-job input E -297.237451825601
  B       0.999335      0.176083      0.957170
  B       0.960097      1.832290      0.487584
  B      -0.583591      1.390331      0.616581
  B      -0.806273     -0.277876      0.869568
  B      -0.948593     -1.903556      0.442909
  B       0.533192     -1.382755      0.741433
  B       1.846975      0.979235     -0.475583
  B       0.189845      0.997857     -1.007666
  B      -1.383543      0.557956     -0.683294
  B      -1.899186     -0.948725     -0.426988
  B      -0.272976     -0.854402     -0.868265
  B       1.364718     -0.566438     -0.653447
12
Coordinates from ORCA-job input E -297.237426361904
  B       1.053309      0.170602      0.987370
  B       0.972291      1.814728      0.499898
  B      -0.613154      1.405283      0.605871
  B      -0.831217     -0.260702      0.851003
  B      -0.951200     -1.897794      0.451758
  B       0.564787     -1.390949      0.726146
  B       1.845867      0.959952     -0.478275
  B       0.181410      1.005064     -0.991803
  B      -1.388026      0.551856     -0.719170
  B      -1.914886     -0.964245     -0.417999
  B      -0.276191     -0.844096     -0.855973
  B       1.357009     -0.549699     -0.658826
12
Coordinates from ORCA-job input E -297.238200291916
  B       1.041147      0.169582      0.984674
  B       0.955979      1.827959      0.490109
  B      -0.592412      1.401348      0.608581
  B      -0.836660     -0.253146      0.866965
  B      -0.945537     -1.900777      0.440251
  B       0.555830     -1.395088      0.724450
  B       1.833633      0.969071     -0.482213
  B       0.203129      0.987083     -0.995436
  B      -1.416107      0.555703     -0.696820
  B      -1.903074     -0.953872     -0.423363
  B      -0.273810     -0.839579     -0.866282
  B       1.377881     -0.568285     -0.650915
12
Coordinates from ORCA-job input E -297.237976641760
  B       1.006752      0.192131      0.966084
  B       0.958270      1.844862      0.475510
  B      -0.569695      1.381684      0.623376
  B      -0.847935     -0.276512      0.887810
  B      -0.955495     -1.903033      0.442079
  B       0.544830     -1.391316      0.717469
  B       1.856363      0.986166     -0.479097
  B       0.202034      0.971287     -0.996783
  B      -1.375515      0.544084     -0.686957
  B      -1.913552     -0.953261     -0.426286
  B      -0.282119     -0.836013     -0.872324
  B       1.376062     -0.560077     -0.650879
12
Coordinates from ORCA-job input E -297.238045286240
  B       0.985265      0.190223      0.978919
  B       0.975302      1.839256      0.468521
  B      -0.579972      1.389818      0.629625
  B      -0.810748     -0.280297      0.855724
  B      -0.945460     -1.909172      0.436320
  B       0.553346     -1.393422      0.728705
  B       1.834717      0.957803     -0.486583
  B       0.179803      1.001122     -0.997343
  B      -1.396085      0.569759     -0.693271
  B      -1.905106     -0.950958     -0.424448
  B      -0.271420     -0.844157     -0.863623
  B       1.380358     -0.569975     -0.632547
12
Coordinates from ORCA-job input E -297.238333490043
  B       1.043641      0.179621      0.991968
  B       0.966872      1.830772      0.488323
  B      -0.592238      1.389831      0.616084
  B      -0.830259     -0.264981      0.862522
  B      -0.945240     -1.910784      0.438592
  B       0.549530     -1.381410      0.726603
  B       1.839102      0.967541     -0.491303
  B       0.190865      1.000235     -0.993997
  B      -1.406296      0.550991     -0.709508
  B      -1.902006     -0.951521     -0.424622
  B      -0.280947     -0.834347     -0.864205
  B       1.366976     -0.575948     -0.640458
12
Coordinates from ORCA-job input E -297.238248730941
  B       1.009915      0.183774      0.978352
  B       0.958620      1.838221      0.480807
  B      -0.576459      1.390835      0.620882
  B      -0.853526     -0.257348      0.881331
  B      -0.948755     -1.894034      0.442708
  B       0.565075     -1.400960      0.709761
  B       1.836364      0.967793     -0.481443
  B       0.198880      0.980452     -0.993885
  B      -1.400101      0.556892     -0.696758
  B      -1.908656     -0.957311     -0.420151
  B      -0.268448     -0.837460     -0.873042
  B       1.387092     -0.570855     -0.648561
12
Coordinates from ORCA-job input E -297.238711744873
  B       1.000147      0.191412      0.978359
  B       0.967134      1.838543      0.473829
  B      -0.573886      1.387157      0.627589
  B      -0.829881     -0.273698      0.869452
  B      -0.948107     -1.907131      0.439787
  B       0.550959     -1.392204      0.717620
  B       1.843036      0.969438     -0.488412
  B       0.187056      0.992981     -0.992745
  B      -1.389858      0.552744     -0.698516
  B      -1.908633     -0.950081     -0.424280
  B      -0.275966     -0.839942     -0.867172
  B       1.377999     -0.569219     -0.635513
12
Coordinates from ORCA-job input E -297.238749160153
  B       1.008588      0.189599      0.984183
  B       0.970514      1.842945      0.475133
  B      -0.576203      1.381901      0.626678
  B      -0.834144     -0.271293      0.869566
  B      -0.949531     -1.907581      0.435049
  B       0.557208     -1.391518      0.720659
  B       1.836628      0.967441     -0.488654
  B       0.189711      0.999197     -0.996045
  B      -1.397710      0.553729     -0.704860
  B      -1.906922     -0.952226     -0.421944
  B      -0.278059     -0.834276     -0.863181
  B       1.379920     -0.577918     -0.636581
12
Coordinates from ORCA-job input E -297.238762172119
  B       1.015173      0.186852      0.988369
  B       0.967001      1.835350      0.479884
  B      -0.579428      1.389099      0.624121
  B      -0.833350     -0.266971      0.869063
  B      -0.944821     -1.902874      0.440463
  B       0.553695     -1.387597      0.715210
  B       1.838387      0.964169     -0.487622
  B       0.186798      0.993867     -0.992406
  B      -1.399989      0.555168     -0.705194
  B      -1.905264     -0.952868     -0.421665
  B      -0.273679     -0.841283     -0.871841
  B       1.375476     -0.572911     -0.638381
12
Coordinates from ORCA-job input E -297.238778851799
  B       1.000241      0.191919      0.979775
  B       0.966050      1.840242      0.475926
  B      -0.574640      1.385811      0.627658
  B      -0.832611     -0.268287      0.871931
  B      -0.948068     -1.904934      0.439108
  B       0.556759     -1.395550      0.713571
  B       1.839859      0.965745     -0.489380
  B       0.187791      0.995104     -0.991085
  B      -1.394857      0.550445     -0.703904
  B      -1.907810     -0.949367     -0.422814
  B      -0.274534     -0.835768     -0.864482
  B       1.381820     -0.575361     -0.636302
12
Coordinates from ORCA-job input E -297.238792913828
  B       1.004239      0.191144      0.983648
  B       0.969720      1.842004      0.473055
  B      -0.570774      1.382452      0.629035
  B      -0.836177     -0.273154      0.871154
  B      -0.948676     -1.907156      0.437891
  B       0.554750     -1.391094      0.716473
  B       1.838036      0.969284     -0.488599
  B       0.188286      0.998235     -0.994922
  B      -1.393337      0.553799     -0.704586
  B      -1.908643     -0.951840     -0.422446
  B      -0.276969     -0.839620     -0.865518
  B       1.379545     -0.574055     -0.635186
12
Coordinates from ORCA-job input E -297.238812408416
  B       1.008009      0.189731      0.985767
  B       0.968422      1.839572      0.475728
  B      -0.576388      1.385924      0.628050
  B      -0.832333     -0.269088      0.870281
  B      -0.947798     -1.904478      0.437371
  B       0.555452     -1.390675      0.715451
  B       1.838127      0.965424     -0.489078
  B       0.185969      0.996604     -0.992298
  B      -1.397539      0.552630     -0.706589
  B      -1.906322     -0.951578     -0.421695
  B      -0.274769     -0.837662     -0.867094
  B       1.379170     -0.576403     -0.635892
12
Coordinates from ORCA-job input E -297.238816935910
  B       1.004980      0.191232      0.984150
  B       0.967745      1.840239      0.475778
  B      -0.573881      1.384334      0.628152
  B      -0.834063     -0.269758      0.871247
  B      -0.947475     -1.905529      0.438960
  B       0.555945     -1.391901      0.713850
  B       1.838225      0.965541     -0.489691
  B       0.187358      0.998336     -0.992381
  B      -1.395787      0.552529     -0.706670
  B      -1.907511     -0.950704     -0.422131
  B      -0.275349     -0.838813     -0.865794
  B       1.379811     -0.575506     -0.635471
12
Coordinates from ORCA-job input E -297.238818740933
  B       1.004104      0.191065      0.984336
  B       0.968637      1.840501      0.474240
  B      -0.573232      1.384600      0.629154
  B      -0.833953     -0.270096      0.871515
  B      -0.947774     -1.905171      0.438136
  B       0.555900     -1.392050      0.713995
  B       1.838178      0.966707     -0.489147
  B       0.186261      0.996854     -0.992196
  B      -1.395713      0.552081     -0.706705
  B      -1.907648     -0.950609     -0.422192
  B      -0.275172     -0.838092     -0.866005
  B       1.380411     -0.575791     -0.635132
12
Coordinates from ORCA-job input E -297.238819871391
  B       1.004902      0.191168      0.984701
  B       0.968363      1.840694      0.474586
  B      -0.573688      1.384330      0.629311
  B      -0.833397     -0.270226      0.871361
  B      -0.948246     -1.905170      0.437792
  B       0.555629     -1.391569      0.714109
  B       1.838151      0.966025     -0.489724
  B       0.186236      0.998384     -0.992322
  B      -1.395663      0.552217     -0.707281
  B      -1.907289     -0.951066     -0.421767
  B      -0.275106     -0.838461     -0.865936
  B       1.380110     -0.576326     -0.634829
12
Coordinates from ORCA-job input E -297.238820400699
  B       1.004865      0.191236      0.984969
  B       0.968459      1.840534      0.474686
  B      -0.573566      1.384315      0.629234
  B      -0.833705     -0.270026      0.871455
  B      -0.947796     -1.905232      0.438102
  B       0.556014     -1.391577      0.713657
  B       1.837970      0.965823     -0.489735
  B       0.186195      0.998231     -0.992058
  B      -1.396046      0.552220     -0.707696
  B      -1.907437     -0.950694     -0.421950
  B      -0.275157     -0.838517     -0.865846
  B       1.380204     -0.576313     -0.634816
12
Coordinates from ORCA-job input E -297.238820600200
  B       1.004421      0.191343      0.984881
  B       0.968425      1.840614      0.474426
  B      -0.573305      1.384212      0.629514
  B      -0.833665     -0.270061      0.871689
  B      -0.947919     -1.905157      0.438089
  B       0.555983     -1.391793      0.713396
  B       1.837968      0.965936     -0.489816
  B       0.186007      0.998446     -0.991998
  B      -1.395789      0.552029     -0.707910
  B      -1.907507     -0.950611     -0.421892
  B      -0.275054     -0.838528     -0.865760
  B       1.380436     -0.576429     -0.634621
