12
Optimized coordinates extracted from calculations/B12/bilayer_3d/d_2.5/mult_5/output.out
B        1.00442057       0.19134262       0.98488142
B        0.96842482       1.84061374       0.47442601
B       -0.57330518       1.38421224       0.62951412
B       -0.83366526      -0.27006112       0.87168935
B       -0.94791920      -1.90515688       0.43808933
B        0.55598324      -1.39179274       0.71339591
B        1.83796831       0.96593632      -0.48981553
B        0.18600736       0.99844562      -0.99199757
B       -1.39578904       0.55202862      -0.70791040
B       -1.90750668      -0.95061110      -0.42189159
B       -0.27505444      -0.83852789      -0.86575970
B        1.38043551      -0.57642943      -0.63462135
