12
B12 cuboctahedral_fragment; neutral charge=0; multiplicity=3; 3D initial geometry; nominal d=3.5 A; Cuboctahedron-like 12-vertex 3D structure.
B       -2.47487373      -2.47487373       0.00000000
B       -2.47487373       2.47487373       0.00000000
B        2.47487373      -2.47487373       0.00000000
B        2.47487373       2.47487373       0.00000000
B       -2.47487373       0.00000000      -2.47487373
B       -2.47487373       0.00000000       2.47487373
B        2.47487373       0.00000000      -2.47487373
B        2.47487373       0.00000000       2.47487373
B        0.00000000      -2.47487373      -2.47487373
B        0.00000000      -2.47487373       2.47487373
B        0.00000000       2.47487373      -2.47487373
B        0.00000000       2.47487373       2.47487373
