12
B12 quasi_planar_buckled_double_ring; neutral charge=0; multiplicity=1; quasi_planar initial geometry; nominal d=2.0 A; Low-amplitude buckled B6@B6 control motif.
B        2.00000000       0.00000000       0.16000000
B        1.00000000       1.73205081      -0.16000000
B       -1.00000000       1.73205081       0.16000000
B       -2.00000000       0.00000000      -0.16000000
B       -1.00000000      -1.73205081       0.16000000
B        1.00000000      -1.73205081      -0.16000000
B        3.00000000       1.73205081       0.24000000
B        0.00000000       3.46410162      -0.24000000
B       -3.00000000       1.73205081       0.24000000
B       -3.00000000      -1.73205081      -0.24000000
B       -0.00000000      -3.46410162       0.24000000
B        3.00000000      -1.73205081      -0.24000000
