12
B12 distorted_icosahedron_02; neutral charge=0; multiplicity=3; 3D initial geometry; nominal d=4.5 A; Low-symmetry distorted icosahedron variant 02.
B        0.01493921      -2.35101700      -3.76275170
B        0.13176103      -2.33069472       3.86568277
B       -0.02717888       2.04263812      -3.47065377
B        0.09094511       2.24893664       3.85547115
B       -2.39367204      -3.63590531       0.13124986
B       -2.48670480       3.57620147      -0.03467492
B        2.33855468      -3.74265985      -0.10972039
B        2.40842213       3.81261270      -0.11231142
B       -3.73313185       0.12254109      -2.29363152
B       -3.68339697       0.07790269       2.13637961
B        3.65751410       0.02717585      -2.38329511
B        3.68194828       0.15226832       2.17825543
