12
B12 distorted_icosahedron_01; neutral charge=0; multiplicity=3; 3d initial geometry; nominal d=3.5 A; Low-symmetry distorted icosahedron variant 01.
B       -0.03291043      -1.65027232      -2.78277343
B        0.04911490      -1.76768310       2.76701818
B        0.05418151       1.70200980      -2.71652387
B       -0.03316731       1.65366954       2.78430636
B       -1.71809615      -2.80729671       0.01472498
B       -1.76877267       2.82853728      -0.04357401
B        1.77942394      -2.69464071       0.01951372
B        1.79891975       2.91448747      -0.02280550
B       -2.76257011      -0.05810938      -1.75391420
B       -2.84504085      -0.05542355       1.78077721
B        2.76610612      -0.03241096      -1.78067970
B        2.71281130      -0.03286735       1.73393026
