12
B12 distorted_cage; neutral charge=0; multiplicity=1; 3d initial geometry; nominal d=4.5 A; Anisotropically deformed 3D cage.
B       -0.16062520      -2.03944929      -4.15840829
B       -0.17588615      -1.91199607       4.37629452
B        0.06045777       1.95172279      -4.36245304
B       -0.14157479       2.09696604       4.15017099
B       -2.04610634      -3.36772639      -0.16018390
B       -2.48329019       3.04920136       0.00853115
B        2.24566423      -3.44386317       0.13030261
B        2.90823580       3.03156450       0.09317436
B       -4.08398338       0.18058560      -2.62184049
B       -4.02093882      -0.16750433       2.55606080
B        3.97392338       0.39460479      -2.73740736
B        3.92412367       0.22589419       2.72575866
