12
B12 planar_triangular_patch; neutral charge=0; multiplicity=5; planar initial geometry; nominal d=2.5 A; Compact planar triangular-lattice B12 control motif.
B       -4.16666667      -2.16506351       0.00000000
B       -1.66666667      -2.16506351       0.00000000
B        0.83333333      -2.16506351       0.00000000
B        3.33333333      -2.16506351       0.00000000
B       -2.91666667       0.00000000       0.00000000
B       -0.41666667       0.00000000       0.00000000
B        2.08333333       0.00000000       0.00000000
B        4.58333333       0.00000000       0.00000000
B       -4.16666667       2.16506351       0.00000000
B       -1.66666667       2.16506351       0.00000000
B        0.83333333       2.16506351       0.00000000
B        3.33333333       2.16506351       0.00000000
