12
B12 distorted_icosahedron_01; neutral charge=0; multiplicity=5; 3D initial geometry; nominal d=4.5 A; Low-symmetry distorted icosahedron variant 01.
B       -0.04231341      -2.12177870      -3.57785156
B        0.06314772      -2.27273541       3.55759481
B        0.06966195       2.18829831      -3.49267355
B       -0.04264368       2.12614655       3.57982247
B       -2.20898077      -3.60938149       0.01893212
B       -2.27413629       3.63669079      -0.05602373
B        2.28783078      -3.46453806       0.02508907
B        2.31289682       3.74719818      -0.02932135
B       -3.55187585      -0.07471206      -2.25503254
B       -3.65790966      -0.07125886       2.28957070
B        3.55642216      -0.04167123      -2.28944533
B        3.48790024      -0.04225803       2.22933891
