12
B12 cuboctahedral_fragment; neutral charge=0; multiplicity=5; 3D initial geometry; nominal d=5.0 A; Cuboctahedron-like 12-vertex 3D structure.
B       -3.53553391      -3.53553391       0.00000000
B       -3.53553391       3.53553391       0.00000000
B        3.53553391      -3.53553391       0.00000000
B        3.53553391       3.53553391       0.00000000
B       -3.53553391       0.00000000      -3.53553391
B       -3.53553391       0.00000000       3.53553391
B        3.53553391       0.00000000      -3.53553391
B        3.53553391       0.00000000       3.53553391
B        0.00000000      -3.53553391      -3.53553391
B        0.00000000      -3.53553391       3.53553391
B        0.00000000       3.53553391      -3.53553391
B        0.00000000       3.53553391       3.53553391
