12
Coordinates from ORCA-job input E -295.286102222414
  B       0.000000      0.000000      4.026223
  B       3.034131      0.000000      1.840620
  B      -1.517065      2.622723      1.840620
  B      -1.517065     -2.622723      1.840620
  B       1.851334      3.034131     -0.087853
  B      -1.851334      3.034131     -0.087853
  B       1.851334     -3.034131     -0.087853
  B      -1.851334     -3.034131     -0.087853
  B       2.879853      0.000000     -2.042039
  B      -2.879853      0.000000     -2.042039
  B       0.000000      2.519871     -2.556298
  B       0.000000     -2.519871     -2.556298
12
Coordinates from ORCA-job input E -295.308481684082
  B      -0.009860     -0.000350      3.973086
  B       3.022499     -0.000017      1.832085
  B      -1.514474      2.608757      1.788977
  B      -1.514749     -2.609310      1.789128
  B       1.849108      3.025305     -0.089608
  B      -1.831002      3.008121     -0.070369
  B       1.849487     -3.025563     -0.089661
  B      -1.830780     -3.007999     -0.070143
  B       2.867057      0.000224     -2.029335
  B      -2.876329      0.000319     -2.006007
  B      -0.005297      2.514277     -2.514860
  B      -0.005659     -2.513762     -2.513292
12
Coordinates from ORCA-job input E -295.330492021541
  B      -0.022901     -0.000732      3.918131
  B       3.013503     -0.000096      1.822676
  B      -1.512342      2.595449      1.734206
  B      -1.512838     -2.596642      1.734586
  B       1.848820      3.018804     -0.089641
  B      -1.811076      2.983457     -0.051704
  B       1.849689     -3.019446     -0.089837
  B      -1.810512     -2.983163     -0.051167
  B       2.855360      0.000496     -2.017381
  B      -2.873621      0.000722     -1.966114
  B      -0.011609      2.510189     -2.473601
  B      -0.012474     -2.509036     -2.470154
12
Coordinates from ORCA-job input E -295.360717284942
  B      -0.040402     -0.001256      3.837236
  B       2.995722     -0.000235      1.807806
  B      -1.505593      2.572605      1.656800
  B      -1.506350     -2.574698      1.657594
  B       1.845500      3.007352     -0.090293
  B      -1.780181      2.945191     -0.030469
  B       1.847050     -3.008558     -0.090728
  B      -1.779172     -2.944764     -0.029594
  B       2.835465      0.000921     -1.997692
  B      -2.867927      0.001326     -1.907967
  B      -0.021256      2.503172     -2.409489
  B      -0.022857     -2.501056     -2.403204
12
Coordinates from ORCA-job input E -295.399938183059
  B      -0.052962     -0.001907      3.731742
  B       2.953138     -0.000293      1.786007
  B      -1.484499      2.529053      1.568641
  B      -1.485585     -2.532218      1.570003
  B       1.828665      2.981836     -0.096293
  B      -1.731841      2.883970     -0.025056
  B       1.830849     -2.983513     -0.096866
  B      -1.730584     -2.883752     -0.024187
  B       2.798955      0.001442     -1.963219
  B      -2.854434      0.002077     -1.839125
  B      -0.034625      2.487435     -2.310788
  B      -0.037076     -2.484132     -2.300858
12
Coordinates from ORCA-job input E -295.440369894823
  B      -0.051733     -0.002566      3.645694
  B       2.898564     -0.000175      1.766040
  B      -1.454649      2.478191      1.508307
  B      -1.456098     -2.482295      1.509866
  B       1.802084      2.950368     -0.106720
  B      -1.682682      2.821515     -0.043941
  B       1.804635     -2.952166     -0.107116
  B      -1.681452     -2.821694     -0.043332
  B       2.757576      0.001803     -1.925486
  B      -2.838029      0.002716     -1.791537
  B      -0.047554      2.467753     -2.212493
  B      -0.050660     -2.463450     -2.199280
12
Coordinates from ORCA-job input E -295.485238067385
  B      -0.043986     -0.003247      3.573208
  B       2.841149      0.000053      1.748170
  B      -1.422476      2.427351      1.462367
  B      -1.424321     -2.432320      1.463698
  B       1.771317      2.917161     -0.119410
  B      -1.633531      2.760878     -0.071474
  B       1.774105     -2.918879     -0.119401
  B      -1.632309     -2.761441     -0.071245
  B       2.715744      0.001978     -1.888440
  B      -2.820829      0.003319     -1.758850
  B      -0.060600      2.446566     -2.117477
  B      -0.064263     -2.441419     -2.101145
12
Coordinates from ORCA-job input E -295.536735220923
  B      -0.035542     -0.003990      3.510474
  B       2.784331      0.000275      1.730186
  B      -1.389110      2.378091      1.423372
  B      -1.391340     -2.383972      1.424273
  B       1.738971      2.885520     -0.132963
  B      -1.583179      2.703469     -0.103597
  B       1.741979     -2.887152     -0.132508
  B      -1.581772     -2.704341     -0.103883
  B       2.674552      0.002043     -1.853748
  B      -2.804101      0.003988     -1.736154
  B      -0.075290      2.426013     -2.022663
  B      -0.079498     -2.419945     -2.002788
12
Coordinates from ORCA-job input E -295.595288811509
  B      -0.032988     -0.004896      3.455867
  B       2.729852      0.000504      1.709573
  B      -1.355304      2.330161      1.387364
  B      -1.358349     -2.337310      1.388351
  B       1.706579      2.856644     -0.147207
  B      -1.530608      2.649418     -0.136981
  B       1.709600     -2.858059     -0.146583
  B      -1.529476     -2.650720     -0.136857
  B       2.635614      0.002263     -1.824391
  B      -2.788444      0.004612     -1.719273
  B      -0.091158      2.406266     -1.926449
  B      -0.095318     -2.398883     -1.903415
12
Coordinates from ORCA-job input E -295.670695461570
  B      -0.041394     -0.005806      3.409847
  B       2.677957      0.000686      1.685635
  B      -1.321637      2.281776      1.354757
  B      -1.325549     -2.290246      1.356096
  B       1.674351      2.828801     -0.163093
  B      -1.475536      2.597584     -0.169000
  B       1.677328     -2.830115     -0.162495
  B      -1.474530     -2.599190     -0.168368
  B       2.599043      0.002425     -1.802793
  B      -2.773676      0.005232     -1.705508
  B      -0.106242      2.385683     -1.830618
  B      -0.110114     -2.376830     -1.804459
12
Coordinates from ORCA-job input E -295.719964470942
  B      -0.039379     -0.010829      3.384731
  B       2.649281      0.005847      1.675118
  B      -1.298283      2.243396      1.348093
  B      -1.306633     -2.256406      1.345850
  B       1.653638      2.809488     -0.173015
  B      -1.439708      2.561444     -0.201176
  B       1.649663     -2.804444     -0.172561
  B      -1.442397     -2.565090     -0.196353
  B       2.577486      0.005896     -1.789267
  B      -2.765000      0.003185     -1.707023
  B      -0.115430      2.368264     -1.773137
  B      -0.123238     -2.360752     -1.741261
12
Coordinates from ORCA-job input E -295.753367667686
  B      -0.042131     -0.013929      3.365401
  B       2.630678      0.009475      1.667344
  B      -1.282091      2.217105      1.340364
  B      -1.293815     -2.233774      1.337750
  B       1.640455      2.798181     -0.178996
  B      -1.414160      2.537924     -0.220724
  B       1.631405     -2.788644     -0.178684
  B      -1.419800     -2.543650     -0.214077
  B       2.561804      0.008683     -1.780907
  B      -2.758555      0.001803     -1.704011
  B      -0.121561      2.357705     -1.734351
  B      -0.132231     -2.350880     -1.699107
12
Coordinates from ORCA-job input E -295.804024578202
  B      -0.050599     -0.017875      3.327919
  B       2.603047      0.014631      1.655896
  B      -1.258874      2.178599      1.320544
  B      -1.275936     -2.201032      1.318530
  B       1.620095      2.780024     -0.188343
  B      -1.373149      2.501401     -0.242372
  B       1.603785     -2.764202     -0.188223
  B      -1.383518     -2.510510     -0.233116
  B       2.536393      0.013141     -1.768850
  B      -2.747451     -0.000185     -1.692862
  B      -0.129589      2.341389     -1.674121
  B      -0.144204     -2.335381     -1.635003
12
Coordinates from ORCA-job input E -295.877995228912
  B      -0.066697     -0.019487      3.257214
  B       2.559772      0.017730      1.641956
  B      -1.227120      2.125684      1.283531
  B      -1.248594     -2.152531      1.286545
  B       1.583546      2.747172     -0.203260
  B      -1.310644      2.448575     -0.262950
  B       1.562268     -2.727856     -0.203572
  B      -1.325042     -2.460910     -0.252929
  B       2.493170      0.017010     -1.750731
  B      -2.726186     -0.001388     -1.667579
  B      -0.139092      2.317401     -1.583726
  B      -0.155381     -2.311401     -1.544498
12
Coordinates from ORCA-job input E -295.947877166126
  B      -0.086901     -0.020420      3.194489
  B       2.511247      0.018370      1.623694
  B      -1.196525      2.062003      1.274463
  B      -1.221532     -2.091993      1.285454
  B       1.539705      2.710560     -0.224507
  B      -1.254446      2.399854     -0.291980
  B       1.516259     -2.688883     -0.226089
  B      -1.273162     -2.414840     -0.280129
  B       2.452586      0.019474     -1.738365
  B      -2.698030     -0.001634     -1.650185
  B      -0.137411      2.294623     -1.501753
  B      -0.151789     -2.287116     -1.465091
12
Coordinates from ORCA-job input E -296.010592092928
  B      -0.118815     -0.022084      3.111445
  B       2.449593      0.019061      1.594206
  B      -1.169544      1.988249      1.262070
  B      -1.198213     -2.021831      1.278161
  B       1.489967      2.664069     -0.249336
  B      -1.205465      2.346227     -0.294906
  B       1.464123     -2.639383     -0.251846
  B      -1.229345     -2.363726     -0.278168
  B       2.416153      0.023045     -1.729032
  B      -2.655958     -0.002189     -1.612926
  B      -0.114731      2.267143     -1.432060
  B      -0.127765     -2.258580     -1.397607
12
Coordinates from ORCA-job input E -296.072610149197
  B      -0.148374     -0.023571      3.029550
  B       2.383844      0.019960      1.562563
  B      -1.146815      1.909240      1.262365
  B      -1.177840     -1.946159      1.283431
  B       1.438498      2.611982     -0.277502
  B      -1.168057      2.292464     -0.289021
  B       1.408480     -2.583885     -0.280556
  B      -1.194941     -2.313021     -0.271404
  B       2.386769      0.026849     -1.722218
  B      -2.609385     -0.003076     -1.579543
  B      -0.079085      2.238295     -1.376224
  B      -0.093094     -2.229079     -1.341442
12
Coordinates from ORCA-job input E -296.133172841708
  B      -0.177192     -0.025018      2.944309
  B       2.317157      0.020283      1.530492
  B      -1.125396      1.826306      1.265563
  B      -1.158244     -1.866091      1.290267
  B       1.386205      2.556121     -0.305550
  B      -1.135994      2.238001     -0.278527
  B       1.354770     -2.525485     -0.307668
  B      -1.166561     -2.261249     -0.259074
  B       2.361273      0.030345     -1.715879
  B      -2.563127     -0.003390     -1.545366
  B      -0.038905      2.208281     -1.326183
  B      -0.053986     -2.198102     -1.292385
12
Coordinates from ORCA-job input E -296.190194843797
  B      -0.202040     -0.026156      2.841816
  B       2.252863      0.020274      1.501482
  B      -1.103594      1.728500      1.270415
  B      -1.135154     -1.769497      1.296658
  B       1.340698      2.492776     -0.326725
  B      -1.114550      2.174653     -0.261471
  B       1.311676     -2.461965     -0.324549
  B      -1.145691     -2.199776     -0.243792
  B       2.338744      0.032785     -1.705660
  B      -2.523157     -0.002828     -1.511706
  B       0.000293      2.171571     -1.284636
  B      -0.020087     -2.160338     -1.251833
12
Coordinates from ORCA-job input E -296.242524755972
  B      -0.214543     -0.027597      2.725583
  B       2.196690      0.020671      1.481787
  B      -1.077292      1.620820      1.270067
  B      -1.109038     -1.663744      1.296764
  B       1.308660      2.428629     -0.333647
  B      -1.099126      2.103580     -0.247777
  B       1.284028     -2.397555     -0.327205
  B      -1.134785     -2.130658     -0.227460
  B       2.315690      0.035890     -1.686787
  B      -2.495348     -0.002076     -1.481722
  B       0.024415      2.128309     -1.249657
  B       0.000649     -2.116269     -1.219945
12
Coordinates from ORCA-job input E -296.294797816460
  B      -0.223218     -0.028617      2.606132
  B       2.144262      0.020838      1.466065
  B      -1.050152      1.510320      1.268907
  B      -1.080345     -1.554471      1.295147
  B       1.281536      2.365152     -0.336139
  B      -1.091310      2.031635     -0.232481
  B       1.260610     -2.334293     -0.325164
  B      -1.128717     -2.060428     -0.211395
  B       2.294213      0.038650     -1.664547
  B      -2.472525     -0.001405     -1.451787
  B       0.047309      2.085164     -1.221228
  B       0.018335     -2.072547     -1.193510
12
Coordinates from ORCA-job input E -296.349530970052
  B      -0.231578     -0.030007      2.487676
  B       2.095492      0.020963      1.452193
  B      -1.021439      1.396269      1.267842
  B      -1.050405     -1.441793      1.293252
  B       1.258633      2.301060     -0.334960
  B      -1.089467      1.959003     -0.216399
  B       1.242540     -2.270327     -0.319455
  B      -1.130253     -1.989290     -0.192299
  B       2.275592      0.041848     -1.640209
  B      -2.453524     -0.000480     -1.421583
  B       0.068964      2.042814     -1.200361
  B       0.035445     -2.030060     -1.175696
12
Coordinates from ORCA-job input E -296.395944327042
  B      -0.259033     -0.030169      2.401967
  B       2.062752      0.020738      1.436879
  B      -0.998523      1.310474      1.267036
  B      -1.026150     -1.355960      1.292239
  B       1.247790      2.257267     -0.330162
  B      -1.082019      1.909284     -0.203475
  B       1.232898     -2.226677     -0.313937
  B      -1.123557     -1.940364     -0.178687
  B       2.265706      0.043660     -1.631632
  B      -2.441261     -0.000682     -1.394189
  B       0.078346      2.014085     -1.184836
  B       0.043052     -2.001654     -1.161203
12
Coordinates from ORCA-job input E -296.429169144006
  B      -0.283099     -0.029060      2.347282
  B       2.032605      0.020388      1.421017
  B      -0.984152      1.256107      1.268139
  B      -1.010745     -1.300813      1.292491
  B       1.244802      2.228676     -0.325127
  B      -1.075903      1.878290     -0.192457
  B       1.229915     -2.198529     -0.309940
  B      -1.117321     -1.909926     -0.167890
  B       2.261207      0.044553     -1.630077
  B      -2.429729     -0.001263     -1.370958
  B       0.083964      1.995990     -1.177642
  B       0.048456     -1.984413     -1.154840
12
Coordinates from ORCA-job input E -296.481122522362
  B      -0.315769     -0.026102      2.269913
  B       1.989107      0.019062      1.402604
  B      -0.961040      1.179542      1.271195
  B      -0.985195     -1.221473      1.293470
  B       1.258752      2.197535     -0.302585
  B      -1.071157      1.838925     -0.178701
  B       1.243464     -2.168926     -0.290641
  B      -1.109752     -1.870753     -0.156785
  B       2.256791      0.045051     -1.627318
  B      -2.420120     -0.002542     -1.336733
  B       0.075207      1.975835     -1.183821
  B       0.039711     -1.966154     -1.160599
12
Coordinates from ORCA-job input E -296.529554479854
  B      -0.334261     -0.023761      2.157884
  B       1.910227      0.017628      1.377421
  B      -0.921872      1.068427      1.258606
  B      -0.944533     -1.107682      1.279485
  B       1.258313      2.133029     -0.282465
  B      -1.062996      1.766212     -0.161650
  B       1.242940     -2.105637     -0.273259
  B      -1.103640     -1.798941     -0.137845
  B       2.231610      0.047989     -1.599052
  B      -2.395678     -0.004066     -1.281806
  B       0.077029      1.933063     -1.178900
  B       0.042861     -1.926262     -1.158421
12
Coordinates from ORCA-job input E -296.561120145033
  B      -0.263482     -0.019166      2.132124
  B       1.870667      0.019492      1.404240
  B      -0.878008      1.024310      1.233380
  B      -0.902828     -1.063564      1.248039
  B       1.282835      2.076441     -0.241920
  B      -1.075186      1.715027     -0.182887
  B       1.265908     -2.049603     -0.232528
  B      -1.114488     -1.749669     -0.164442
  B       2.176572      0.049397     -1.526820
  B      -2.392366     -0.006565     -1.265866
  B       0.034763      1.885496     -1.212509
  B      -0.004388     -1.881595     -1.190812
12
Coordinates from ORCA-job input E -296.590471253012
  B      -0.216801     -0.021827      2.115442
  B       1.824882      0.019756      1.410495
  B      -0.852924      0.993566      1.210642
  B      -0.875726     -1.030861      1.228546
  B       1.269266      2.018318     -0.239644
  B      -1.081090      1.676021     -0.194169
  B       1.249576     -1.990130     -0.230594
  B      -1.123867     -1.711389     -0.172862
  B       2.140398      0.052094     -1.479742
  B      -2.373783     -0.008059     -1.243599
  B       0.040118      1.849145     -1.212396
  B      -0.000050     -1.846635     -1.192119
12
Coordinates from ORCA-job input E -296.634804183811
  B      -0.135368     -0.019016      2.093413
  B       1.763879      0.022479      1.425065
  B      -0.809509      0.946627      1.184248
  B      -0.835131     -0.984819      1.196635
  B       1.254112      1.932223     -0.230783
  B      -1.094371      1.615890     -0.216475
  B       1.230200     -1.902426     -0.221063
  B      -1.140757     -1.654333     -0.196280
  B       2.082468      0.055146     -1.402959
  B      -2.354153     -0.011366     -1.220677
  B       0.041455      1.791607     -1.214853
  B      -0.002825     -1.792013     -1.196270
12
Coordinates from ORCA-job input E -296.681175055320
  B      -0.045559     -0.025414      2.072929
  B       1.706577      0.021033      1.442317
  B      -0.771575      0.907848      1.150825
  B      -0.789229     -0.942022      1.171344
  B       1.242425      1.850351     -0.218848
  B      -1.113124      1.559659     -0.244474
  B       1.214756     -1.818102     -0.208970
  B      -1.161993     -1.597622     -0.219436
  B       2.022183      0.058928     -1.321741
  B      -2.340975     -0.013593     -1.201292
  B       0.042279      1.737811     -1.220925
  B      -0.005765     -1.738877     -1.201730
12
Coordinates from ORCA-job input E -296.728032321234
  B       0.065380     -0.027370      2.100216
  B       1.643693      0.020481      1.455317
  B      -0.750257      0.913986      1.129648
  B      -0.763589     -0.943726      1.151434
  B       1.232451      1.789527     -0.220482
  B      -1.142188      1.534673     -0.275622
  B       1.197198     -1.754447     -0.213558
  B      -1.196170     -1.573590     -0.247987
  B       1.967679      0.062103     -1.246009
  B      -2.326732     -0.018631     -1.184063
  B       0.061432      1.711134     -1.234028
  B       0.011103     -1.714140     -1.214866
12
Coordinates from ORCA-job input E -296.774618932815
  B       0.096255     -0.019604      2.087779
  B       1.573705      0.023520      1.419385
  B      -0.722172      0.875091      1.121839
  B      -0.744713     -0.908671      1.127109
  B       1.229219      1.703296     -0.224964
  B      -1.145077      1.478418     -0.287968
  B       1.190449     -1.666127     -0.215430
  B      -1.199615     -1.520618     -0.266843
  B       1.905030      0.064838     -1.180876
  B      -2.288241     -0.023713     -1.137145
  B       0.082058      1.657623     -1.230178
  B       0.023103     -1.664051     -1.212707
12
Coordinates from ORCA-job input E -296.824366596724
  B       0.082355     -0.019867      2.105863
  B       1.496867      0.020068      1.345029
  B      -0.722637      0.861031      1.127385
  B      -0.742246     -0.889946      1.129355
  B       1.240316      1.631274     -0.238526
  B      -1.142677      1.443478     -0.293605
  B       1.197932     -1.593449     -0.232279
  B      -1.197468     -1.482562     -0.271133
  B       1.850884      0.067833     -1.137241
  B      -2.230644     -0.028347     -1.069597
  B       0.113101      1.623682     -1.240990
  B       0.054218     -1.633195     -1.224262
12
Coordinates from ORCA-job input E -296.874571082345
  B       0.071883     -0.019468      2.124739
  B       1.432078      0.017181      1.268832
  B      -0.727102      0.853947      1.136147
  B      -0.741666     -0.875034      1.138041
  B       1.259205      1.561376     -0.240807
  B      -1.140786      1.408366     -0.300632
  B       1.215414     -1.521509     -0.239350
  B      -1.195603     -1.445840     -0.279767
  B       1.797001      0.067815     -1.092740
  B      -2.175512     -0.034041     -1.011932
  B       0.133093      1.586184     -1.257416
  B       0.071994     -1.598977     -1.245114
12
Coordinates from ORCA-job input E -296.919931463250
  B       0.068137     -0.017932      2.143127
  B       1.374166      0.014347      1.184320
  B      -0.735594      0.856152      1.146406
  B      -0.746665     -0.872265      1.143184
  B       1.272312      1.498874     -0.243730
  B      -1.139190      1.373922     -0.311779
  B       1.230394     -1.454666     -0.247652
  B      -1.189268     -1.410094     -0.291789
  B       1.740197      0.062805     -1.048631
  B      -2.118618     -0.035928     -0.961019
  B       0.153585      1.547009     -1.261713
  B       0.090542     -1.562224     -1.250723
12
Coordinates from ORCA-job input E -296.959008618740
  B       0.075297     -0.017761      2.145146
  B       1.323053      0.010087      1.102136
  B      -0.744915      0.863672      1.155871
  B      -0.747478     -0.869674      1.155329
  B       1.288396      1.458246     -0.229730
  B      -1.149721      1.341988     -0.329643
  B       1.252268     -1.407892     -0.249790
  B      -1.195501     -1.377258     -0.304667
  B       1.686666      0.051211     -1.002228
  B      -2.068846     -0.033416     -0.913975
  B       0.168473      1.520535     -1.268025
  B       0.112310     -1.539739     -1.260425
12
Coordinates from ORCA-job input E -296.990651369316
  B       0.083349     -0.011939      2.137481
  B       1.275833      0.010687      1.002640
  B      -0.744941      0.874661      1.163077
  B      -0.749487     -0.880034      1.155937
  B       1.292342      1.427453     -0.217382
  B      -1.153837      1.313940     -0.342435
  B       1.265365     -1.370024     -0.247311
  B      -1.192669     -1.355725     -0.317354
  B       1.627963      0.044022     -0.957297
  B      -2.028425     -0.027112     -0.882260
  B       0.194716      1.493886     -1.250128
  B       0.129791     -1.519815     -1.244968
12
Coordinates from ORCA-job input E -297.015673692742
  B       0.098287     -0.011475      2.123390
  B       1.238480      0.009008      0.924426
  B      -0.740020      0.891827      1.168804
  B      -0.744323     -0.888175      1.170794
  B       1.316085      1.437204     -0.180066
  B      -1.168135      1.300479     -0.363890
  B       1.283439     -1.377029     -0.238488
  B      -1.212950     -1.344339     -0.330218
  B       1.579440      0.044948     -0.921782
  B      -2.007965     -0.027679     -0.859471
  B       0.206216      1.496854     -1.249843
  B       0.151445     -1.531623     -1.243658
12
Coordinates from ORCA-job input E -297.036661016992
  B       0.119234     -0.006547      2.115605
  B       1.207885      0.015534      0.855388
  B      -0.722288      0.903991      1.166370
  B      -0.732616     -0.907317      1.170811
  B       1.318528      1.454071     -0.162344
  B      -1.172374      1.280025     -0.387914
  B       1.299605     -1.381944     -0.226094
  B      -1.218670     -1.341040     -0.353286
  B       1.511330      0.053176     -0.889091
  B      -1.996940     -0.018958     -0.856376
  B       0.239447      1.480527     -1.215600
  B       0.146857     -1.531518     -1.217470
12
Coordinates from ORCA-job input E -297.054300262797
  B       0.129967      0.000467      2.105528
  B       1.182091      0.015583      0.816223
  B      -0.694066      0.919102      1.156854
  B      -0.720454     -0.916979      1.162871
  B       1.346463      1.489117     -0.119310
  B      -1.172543      1.277223     -0.408808
  B       1.314877     -1.407575     -0.224986
  B      -1.234780     -1.334329     -0.369986
  B       1.448234      0.053314     -0.873352
  B      -2.012532     -0.033615     -0.848853
  B       0.246511      1.477862     -1.199907
  B       0.166232     -1.540169     -1.196275
12
Coordinates from ORCA-job input E -297.068378167816
  B       0.136995     -0.008725      2.102278
  B       1.171183      0.016930      0.809419
  B      -0.679318      0.914252      1.131308
  B      -0.692684     -0.926706      1.160712
  B       1.366802      1.515163     -0.090012
  B      -1.193762      1.260381     -0.441957
  B       1.356615     -1.423845     -0.209411
  B      -1.243039     -1.332371     -0.377000
  B       1.387898      0.066084     -0.870247
  B      -2.044487      0.002645     -0.840309
  B       0.270900      1.461634     -1.192834
  B       0.162898     -1.545442     -1.181948
12
Coordinates from ORCA-job input E -297.080526558119
  B       0.134066      0.000643      2.104812
  B       1.167156      0.019711      0.806205
  B      -0.647326      0.921269      1.115994
  B      -0.686393     -0.929127      1.139538
  B       1.387485      1.524180     -0.064130
  B      -1.172834      1.259661     -0.453410
  B       1.391505     -1.416901     -0.209159
  B      -1.258918     -1.319356     -0.398623
  B       1.315133      0.069199     -0.875046
  B      -2.078940     -0.031835     -0.837472
  B       0.288398      1.426610     -1.167653
  B       0.160667     -1.524056     -1.161055
12
Coordinates from ORCA-job input E -297.089828279482
  B       0.116383      0.001442      2.099249
  B       1.165036     -0.001746      0.803939
  B      -0.642804      0.923263      1.095670
  B      -0.668961     -0.933953      1.118375
  B       1.404338      1.522535     -0.040503
  B      -1.185351      1.265136     -0.468447
  B       1.428975     -1.417634     -0.224346
  B      -1.232192     -1.296830     -0.399966
  B       1.248157      0.029331     -0.883826
  B      -2.105707      0.001867     -0.824776
  B       0.269297      1.403440     -1.163219
  B       0.202829     -1.496851     -1.112152
12
Coordinates from ORCA-job input E -297.097709310774
  B       0.096365     -0.007588      2.088216
  B       1.171537     -0.008812      0.806831
  B      -0.645395      0.920527      1.071279
  B      -0.666575     -0.936155      1.115207
  B       1.415233      1.522526     -0.029573
  B      -1.201267      1.271013     -0.477117
  B       1.506376     -1.444439     -0.221220
  B      -1.252108     -1.264781     -0.408306
  B       1.205232      0.027021     -0.896273
  B      -2.129564      0.014986     -0.795283
  B       0.274100      1.404339     -1.165739
  B       0.226067     -1.498637     -1.088021
12
Coordinates from ORCA-job input E -297.101367865316
  B       0.082192     -0.006702      2.073111
  B       1.186569     -0.015959      0.796552
  B      -0.640801      0.932265      1.051681
  B      -0.651097     -0.962889      1.113963
  B       1.432178      1.488876     -0.015565
  B      -1.215065      1.323835     -0.487025
  B       1.568154     -1.436989     -0.218507
  B      -1.253825     -1.285246     -0.423118
  B       1.167533      0.016888     -0.892957
  B      -2.184668      0.028774     -0.793645
  B       0.271927      1.425895     -1.161544
  B       0.236904     -1.508747     -1.042947
12
Coordinates from ORCA-job input E -297.105725170917
  B       0.084715      0.018422      2.072494
  B       1.212782     -0.019893      0.806519
  B      -0.635430      0.910334      1.040222
  B      -0.657578     -0.964739      1.092151
  B       1.438658      1.471229     -0.006154
  B      -1.231793      1.301113     -0.494574
  B       1.592981     -1.429841     -0.229392
  B      -1.267176     -1.250568     -0.444679
  B       1.126561      0.004278     -0.899250
  B      -2.153214      0.030374     -0.790652
  B       0.257644      1.422751     -1.145758
  B       0.231850     -1.493458     -1.000927
12
Coordinates from ORCA-job input E -297.109185319395
  B       0.080299     -0.011162      2.034378
  B       1.212637     -0.050313      0.826532
  B      -0.646730      0.909094      1.003804
  B      -0.644690     -0.960541      1.095576
  B       1.447175      1.487492     -0.018008
  B      -1.232080      1.305506     -0.509836
  B       1.595701     -1.415051     -0.235191
  B      -1.287517     -1.246666     -0.437458
  B       1.122238      0.006832     -0.906083
  B      -2.141665      0.022671     -0.770877
  B       0.263700      1.470856     -1.127110
  B       0.230930     -1.518717     -0.955728
12
Coordinates from ORCA-job input E -297.113482985259
  B       0.033316      0.015154      2.042874
  B       1.204092     -0.044718      0.816577
  B      -0.659482      0.921092      1.006834
  B      -0.667237     -0.986019      1.096972
  B       1.457440      1.487283     -0.027673
  B      -1.206039      1.334315     -0.501724
  B       1.603813     -1.412845     -0.263990
  B      -1.278717     -1.311576     -0.423474
  B       1.109140      0.030440     -0.945918
  B      -2.097607      0.036116     -0.747339
  B       0.275215      1.514995     -1.107010
  B       0.226067     -1.584237     -0.946128
12
Coordinates from ORCA-job input E -297.118167811867
  B       0.062208      0.026073      2.042710
  B       1.233763     -0.023474      0.822037
  B      -0.648276      0.897755      0.986446
  B      -0.657484     -0.965288      1.082485
  B       1.476314      1.444206      0.005097
  B      -1.222048      1.335967     -0.529154
  B       1.596900     -1.359248     -0.276228
  B      -1.309179     -1.347284     -0.437580
  B       1.084240      0.040116     -0.940639
  B      -2.123213      0.033496     -0.762471
  B       0.295201      1.518710     -1.075468
  B       0.211575     -1.601028     -0.917235
12
Coordinates from ORCA-job input E -297.123157386085
  B       0.039349      0.026287      2.047933
  B       1.232454     -0.022093      0.827483
  B      -0.656438      0.897300      0.975974
  B      -0.659477     -0.965428      1.072149
  B       1.503423      1.444961      0.018332
  B      -1.218928      1.355888     -0.543262
  B       1.592954     -1.330390     -0.310450
  B      -1.310538     -1.371162     -0.431955
  B       1.056124      0.026873     -0.961623
  B      -2.085112      0.010094     -0.741575
  B       0.311442      1.550265     -1.064900
  B       0.194748     -1.622595     -0.888105
12
Coordinates from ORCA-job input E -297.127855371049
  B       0.018545      0.020667      2.026752
  B       1.220843     -0.012366      0.839148
  B      -0.650704      0.896091      0.949733
  B      -0.667248     -0.968853      1.062812
  B       1.506794      1.437761      0.036659
  B      -1.187360      1.368463     -0.562894
  B       1.593319     -1.299619     -0.347967
  B      -1.321993     -1.392489     -0.408961
  B       1.012521      0.026922     -0.978692
  B      -2.025901      0.006234     -0.714126
  B       0.308411      1.563053     -1.041724
  B       0.192773     -1.645863     -0.860739
12
Coordinates from ORCA-job input E -297.132675143077
  B      -0.001545      0.013206      2.029464
  B       1.212898     -0.005248      0.848260
  B      -0.650874      0.885952      0.935219
  B      -0.675019     -0.975336      1.064732
  B       1.526927      1.428612      0.042615
  B      -1.182632      1.389094     -0.583229
  B       1.586328     -1.269759     -0.376769
  B      -1.325713     -1.426244     -0.397499
  B       0.972431      0.045460     -1.007012
  B      -1.975141     -0.002627     -0.695962
  B       0.331917      1.588873     -1.031403
  B       0.180423     -1.671983     -0.828416
12
Coordinates from ORCA-job input E -297.137551034236
  B      -0.014585      0.011946      2.044032
  B       1.202308     -0.002286      0.857730
  B      -0.636117      0.868775      0.921470
  B      -0.692221     -0.984701      1.073065
  B       1.537547      1.417831      0.043550
  B      -1.177183      1.417316     -0.603756
  B       1.583866     -1.225915     -0.392943
  B      -1.341244     -1.468735     -0.386870
  B       0.932775      0.055308     -1.040950
  B      -1.923478     -0.003182     -0.684150
  B       0.351245      1.621067     -1.020540
  B       0.177086     -1.707423     -0.810638
12
Coordinates from ORCA-job input E -297.142753276396
  B      -0.022304      0.007282      2.051306
  B       1.189680     -0.002676      0.871073
  B      -0.618378      0.853727      0.892021
  B      -0.702373     -0.995635      1.080956
  B       1.544299      1.386220      0.049420
  B      -1.170408      1.447144     -0.626007
  B       1.577292     -1.182922     -0.405046
  B      -1.340410     -1.496823     -0.374402
  B       0.871585      0.073209     -1.066446
  B      -1.865786     -0.006720     -0.673969
  B       0.361348      1.644196     -1.011015
  B       0.175455     -1.727002     -0.787893
12
Coordinates from ORCA-job input E -297.148542056649
  B      -0.022649      0.006981      2.060424
  B       1.168261     -0.016271      0.891511
  B      -0.594765      0.831700      0.854755
  B      -0.710018     -0.999929      1.098793
  B       1.542132      1.336530      0.049948
  B      -1.164616      1.476099     -0.647583
  B       1.570331     -1.138499     -0.406079
  B      -1.327059     -1.508750     -0.364486
  B       0.799160      0.089841     -1.090102
  B      -1.805604     -0.005780     -0.667717
  B       0.359122      1.664809     -1.003117
  B       0.185706     -1.736732     -0.776345
12
Coordinates from ORCA-job input E -297.155174918757
  B      -0.022791      0.013906      2.064144
  B       1.148295     -0.042436      0.912579
  B      -0.581084      0.817344      0.816362
  B      -0.711797     -0.996206      1.114574
  B       1.539523      1.273527      0.044115
  B      -1.160233      1.497827     -0.663705
  B       1.568520     -1.093615     -0.406192
  B      -1.303432     -1.509167     -0.358622
  B       0.720596      0.093413     -1.100136
  B      -1.756149     -0.002190     -0.661608
  B       0.351691      1.680271     -0.990484
  B       0.206862     -1.732673     -0.771028
12
Coordinates from ORCA-job input E -297.162813559220
  B      -0.025660      0.026221      2.062485
  B       1.126058     -0.083890      0.933852
  B      -0.577101      0.812767      0.782660
  B      -0.707777     -0.979367      1.130231
  B       1.534087      1.199591      0.026524
  B      -1.154910      1.505666     -0.669977
  B       1.571800     -1.050131     -0.403251
  B      -1.267440     -1.491546     -0.356685
  B       0.643803      0.079102     -1.098057
  B      -1.719415      0.003806     -0.656987
  B       0.336115      1.688427     -0.973701
  B       0.240441     -1.710646     -0.777094
12
Coordinates from ORCA-job input E -297.171428940932
  B      -0.030104      0.034788      2.068317
  B       1.107587     -0.115516      0.949782
  B      -0.573600      0.812040      0.764941
  B      -0.707765     -0.969037      1.143350
  B       1.532207      1.135299      0.003771
  B      -1.147367      1.511955     -0.681176
  B       1.573871     -0.995423     -0.406748
  B      -1.243100     -1.487097     -0.356523
  B       0.570113      0.065111     -1.086864
  B      -1.683110      0.006071     -0.655962
  B       0.335645      1.695930     -0.960403
  B       0.265623     -1.694121     -0.782485
12
Coordinates from ORCA-job input E -297.180606518377
  B      -0.062595      0.045396      2.072743
  B       1.096394     -0.148839      0.950555
  B      -0.582636      0.835594      0.789076
  B      -0.713365     -0.946677      1.147648
  B       1.538345      1.095107     -0.043337
  B      -1.138234      1.494919     -0.670870
  B       1.578959     -0.939167     -0.419441
  B      -1.223473     -1.485080     -0.359830
  B       0.526530      0.018421     -1.072149
  B      -1.665995      0.004714     -0.654435
  B       0.351405      1.698133     -0.941764
  B       0.294664     -1.672522     -0.798195
12
Coordinates from ORCA-job input E -297.191062558309
  B      -0.053494      0.052362      2.090422
  B       1.088815     -0.177193      0.970036
  B      -0.572842      0.839857      0.788457
  B      -0.720745     -0.952591      1.155626
  B       1.531381      1.039136     -0.076970
  B      -1.143522      1.511953     -0.686888
  B       1.592773     -0.888583     -0.405254
  B      -1.209702     -1.485909     -0.371338
  B       0.465013      0.011749     -1.051443
  B      -1.631228      0.010342     -0.663919
  B       0.346270      1.704174     -0.942259
  B       0.307280     -1.665299     -0.806470
12
Coordinates from ORCA-job input E -297.200248156753
  B      -0.062595      0.077721      2.096058
  B       1.114681     -0.186497      0.994651
  B      -0.563528      0.897321      0.848692
  B      -0.753367     -0.994564      1.132831
  B       1.545918      1.039092     -0.125161
  B      -1.165565      1.546743     -0.683241
  B       1.631441     -0.876675     -0.399165
  B      -1.231461     -1.545585     -0.394897
  B       0.447920      0.035130     -1.051962
  B      -1.621016     -0.002976     -0.674808
  B       0.362574      1.723666     -0.943658
  B       0.294998     -1.713378     -0.799340
12
Coordinates from ORCA-job input E -297.213187308100
  B      -0.068549      0.064908      2.083707
  B       1.098355     -0.212127      1.011374
  B      -0.553762      0.929961      0.834713
  B      -0.745499     -0.986351      1.130499
  B       1.542879      0.964446     -0.155164
  B      -1.159064      1.524757     -0.687350
  B       1.637677     -0.838686     -0.404124
  B      -1.211679     -1.528245     -0.391154
  B       0.410987      0.042894     -1.011402
  B      -1.623842     -0.011883     -0.679188
  B       0.357018      1.726505     -0.936889
  B       0.315477     -1.676179     -0.795024
12
Coordinates from ORCA-job input E -297.223518199035
  B      -0.102631      0.037559      2.058966
  B       1.077945     -0.225688      1.006561
  B      -0.531326      0.965296      0.838254
  B      -0.757332     -0.984654      1.128125
  B       1.552823      0.925891     -0.200790
  B      -1.134604      1.479167     -0.682310
  B       1.635075     -0.797596     -0.423100
  B      -1.214054     -1.532194     -0.368531
  B       0.399454      0.068339     -0.981989
  B      -1.617682     -0.031406     -0.680284
  B       0.367295      1.740410     -0.924115
  B       0.325037     -1.645124     -0.770787
12
Coordinates from ORCA-job input E -297.232310488489
  B      -0.126484      0.034387      2.058579
  B       1.060349     -0.234855      1.007670
  B      -0.492353      0.999389      0.855292
  B      -0.780590     -0.991874      1.125211
  B       1.573690      0.906826     -0.241247
  B      -1.116238      1.444184     -0.682277
  B       1.647728     -0.766772     -0.443158
  B      -1.226474     -1.558679     -0.359675
  B       0.383345      0.088091     -0.960072
  B      -1.619669     -0.062106     -0.696827
  B       0.377216      1.773741     -0.907722
  B       0.319480     -1.632332     -0.755774
12
Coordinates from ORCA-job input E -297.241332443212
  B      -0.158800      0.019468      2.043027
  B       1.033997     -0.234068      0.985564
  B      -0.442526      1.019373      0.866360
  B      -0.813060     -1.004967      1.123663
  B       1.609399      0.940438     -0.271568
  B      -1.082193      1.389955     -0.680805
  B       1.648167     -0.767364     -0.473814
  B      -1.256010     -1.596066     -0.326024
  B       0.382730      0.132715     -0.959669
  B      -1.620528     -0.104102     -0.715615
  B       0.394414      1.820618     -0.878196
  B       0.304410     -1.616002     -0.712925
12
Coordinates from ORCA-job input E -297.249581606554
  B      -0.169602      0.016178      2.069798
  B       0.996906     -0.233891      0.972997
  B      -0.384526      1.017954      0.877411
  B      -0.843858     -1.024318      1.145563
  B       1.626190      0.944660     -0.303872
  B      -1.052531      1.363064     -0.704009
  B       1.641454     -0.734615     -0.495223
  B      -1.273754     -1.635060     -0.306256
  B       0.361511      0.167368     -0.962365
  B      -1.596591     -0.135968     -0.750260
  B       0.408673      1.856016     -0.851669
  B       0.286130     -1.601387     -0.692115
12
Coordinates from ORCA-job input E -297.256723776753
  B      -0.179416      0.008356      2.085776
  B       0.953843     -0.243988      0.950881
  B      -0.335216      1.012956      0.872926
  B      -0.869873     -1.033956      1.168994
  B       1.632717      0.933520     -0.333020
  B      -1.034955      1.341110     -0.724015
  B       1.640215     -0.715496     -0.513168
  B      -1.278469     -1.652984     -0.274630
  B       0.337962      0.198029     -0.973193
  B      -1.569348     -0.164355     -0.783523
  B       0.418253      1.887547     -0.811812
  B       0.284286     -1.570739     -0.665217
12
Coordinates from ORCA-job input E -297.262821571802
  B      -0.170182      0.008966      2.098951
  B       0.917334     -0.256958      0.929844
  B      -0.318479      1.005110      0.862363
  B      -0.884137     -1.041443      1.190903
  B       1.631022      0.922047     -0.340899
  B      -1.035635      1.355913     -0.755428
  B       1.638186     -0.707493     -0.533375
  B      -1.272302     -1.668596     -0.242634
  B       0.298706      0.212355     -0.997652
  B      -1.523850     -0.177435     -0.811779
  B       0.430831      1.898880     -0.760462
  B       0.288506     -1.551347     -0.639832
12
Coordinates from ORCA-job input E -297.265597926160
  B      -0.164057      0.017308      2.096961
  B       0.895048     -0.271108      0.906303
  B      -0.321985      1.008593      0.850513
  B      -0.893761     -1.027190      1.208090
  B       1.621463      0.893883     -0.339848
  B      -1.049275      1.367444     -0.768099
  B       1.645363     -0.706271     -0.545122
  B      -1.253809     -1.658894     -0.220614
  B       0.263672      0.215546     -1.020541
  B      -1.495767     -0.184236     -0.824923
  B       0.439126      1.889107     -0.706070
  B       0.313982     -1.544184     -0.636651
12
Coordinates from ORCA-job input E -297.266332701197
  B      -0.158231      0.021043      2.087976
  B       0.899048     -0.273335      0.907325
  B      -0.336671      1.012670      0.843838
  B      -0.895328     -1.021894      1.214946
  B       1.621411      0.893169     -0.324796
  B      -1.050250      1.371545     -0.773933
  B       1.646858     -0.710059     -0.557251
  B      -1.252173     -1.657774     -0.215137
  B       0.259043      0.218132     -1.025743
  B      -1.492969     -0.180375     -0.821629
  B       0.438326      1.884405     -0.693672
  B       0.320934     -1.557528     -0.641923
12
Coordinates from ORCA-job input E -297.266672010932
  B      -0.151561      0.031635      2.079571
  B       0.901083     -0.282770      0.907542
  B      -0.341092      1.024408      0.847695
  B      -0.906823     -1.011211      1.223691
  B       1.611423      0.885416     -0.322198
  B      -1.057141      1.370188     -0.765015
  B       1.660061     -0.716227     -0.550880
  B      -1.236927     -1.636214     -0.214357
  B       0.263729      0.212531     -1.032660
  B      -1.507422     -0.173961     -0.826669
  B       0.425765      1.872901     -0.682234
  B       0.338905     -1.576695     -0.664487
12
Coordinates from ORCA-job input E -297.266722844603
  B      -0.171073      0.021799      2.070379
  B       0.909979     -0.283384      0.907941
  B      -0.340996      1.024206      0.845951
  B      -0.930829     -1.020915      1.239544
  B       1.618227      0.889350     -0.313901
  B      -1.038026      1.358328     -0.782242
  B       1.637692     -0.689135     -0.581515
  B      -1.234452     -1.642393     -0.198598
  B       0.254274      0.228253     -1.045905
  B      -1.488144     -0.168355     -0.803757
  B       0.437926      1.876359     -0.679763
  B       0.345422     -1.594112     -0.658136
12
Coordinates from ORCA-job input E -297.267553730720
  B      -0.160882      0.026098      2.076931
  B       0.908441     -0.292690      0.908474
  B      -0.337352      1.025564      0.846515
  B      -0.922171     -1.025635      1.241574
  B       1.615243      0.892067     -0.315068
  B      -1.046224      1.367457     -0.787205
  B       1.645117     -0.703223     -0.571291
  B      -1.235123     -1.644822     -0.208079
  B       0.259018      0.223319     -1.043123
  B      -1.504860     -0.166893     -0.815287
  B       0.433207      1.883729     -0.681297
  B       0.345586     -1.584972     -0.652144
12
Coordinates from ORCA-job input E -297.268096587987
  B      -0.158953      0.030475      2.075049
  B       0.899443     -0.302302      0.907975
  B      -0.318672      1.031837      0.842948
  B      -0.918382     -1.028820      1.239761
  B       1.607673      0.892255     -0.312303
  B      -1.050943      1.369279     -0.792287
  B       1.650335     -0.704939     -0.567210
  B      -1.225382     -1.638753     -0.212014
  B       0.258278      0.216225     -1.036765
  B      -1.514211     -0.166656     -0.817376
  B       0.427233      1.885961     -0.676930
  B       0.343583     -1.584564     -0.650848
12
Coordinates from ORCA-job input E -297.269294207075
  B      -0.167648      0.039289      2.075733
  B       0.883833     -0.329665      0.899304
  B      -0.271419      1.048616      0.839986
  B      -0.922819     -1.034264      1.252536
  B       1.591452      0.892694     -0.303272
  B      -1.054544      1.366283     -0.809972
  B       1.656468     -0.706322     -0.570884
  B      -1.207179     -1.629962     -0.216791
  B       0.258961      0.210115     -1.037294
  B      -1.534606     -0.162280     -0.817702
  B       0.411364      1.889516     -0.663411
  B       0.356136     -1.584019     -0.648233
12
Coordinates from ORCA-job input E -297.271240087328
  B      -0.187126      0.054084      2.071645
  B       0.865457     -0.360962      0.884061
  B      -0.195395      1.067196      0.834334
  B      -0.933892     -1.040901      1.266100
  B       1.568008      0.896085     -0.279941
  B      -1.058841      1.361313     -0.834724
  B       1.658019     -0.701804     -0.581411
  B      -1.185883     -1.622342     -0.218163
  B       0.260015      0.202504     -1.042551
  B      -1.552423     -0.156887     -0.807856
  B       0.389183      1.894475     -0.643973
  B       0.372878     -1.592760     -0.647518
12
Coordinates from ORCA-job input E -297.273461572008
  B      -0.216242      0.073626      2.064126
  B       0.848448     -0.389203      0.864572
  B      -0.115020      1.080424      0.833403
  B      -0.945014     -1.044439      1.277675
  B       1.544974      0.895686     -0.248572
  B      -1.059166      1.355549     -0.858588
  B       1.653608     -0.689505     -0.599798
  B      -1.171338     -1.621842     -0.212719
  B       0.263905      0.198253     -1.051257
  B      -1.558460     -0.155084     -0.791587
  B       0.365591      1.899575     -0.626827
  B       0.388715     -1.603038     -0.650429
12
Coordinates from ORCA-job input E -297.275267447536
  B      -0.248019      0.096989      2.050267
  B       0.840383     -0.418390      0.842135
  B      -0.064894      1.095257      0.847242
  B      -0.949357     -1.047189      1.288889
  B       1.528805      0.888581     -0.207034
  B      -1.049442      1.351743     -0.884386
  B       1.638252     -0.667235     -0.631600
  B      -1.172107     -1.636334     -0.191724
  B       0.268718      0.205259     -1.065923
  B      -1.541461     -0.161921     -0.772637
  B       0.351968      1.908719     -0.616825
  B       0.397152     -1.615480     -0.658405
12
Coordinates from ORCA-job input E -297.276350994856
  B      -0.259970      0.117654      2.042181
  B       0.816263     -0.453747      0.830404
  B      -0.011893      1.121869      0.837000
  B      -0.945690     -1.053890      1.307143
  B       1.510973      0.877769     -0.177097
  B      -1.056415      1.345881     -0.910177
  B       1.644705     -0.667272     -0.650164
  B      -1.156861     -1.633164     -0.191054
  B       0.266905      0.213667     -1.066958
  B      -1.552101     -0.167021     -0.769681
  B       0.337574      1.917091     -0.592020
  B       0.406510     -1.618838     -0.659579
12
Coordinates from ORCA-job input E -297.277333922715
  B      -0.273918      0.102226      2.045997
  B       0.801693     -0.460270      0.831370
  B      -0.033701      1.152891      0.856712
  B      -0.928738     -1.069628      1.323610
  B       1.520743      0.862638     -0.171095
  B      -1.056853      1.352224     -0.928878
  B       1.648848     -0.674293     -0.672179
  B      -1.161835     -1.644094     -0.171170
  B       0.271045      0.236314     -1.077604
  B      -1.533156     -0.176486     -0.767341
  B       0.349441      1.930394     -0.606321
  B       0.396430     -1.611915     -0.663103
12
Coordinates from ORCA-job input E -297.278237465617
  B      -0.282992      0.119472      2.025154
  B       0.792292     -0.472500      0.824781
  B      -0.013243      1.166559      0.863714
  B      -0.938106     -1.091299      1.337041
  B       1.514107      0.862321     -0.167676
  B      -1.056056      1.356151     -0.929251
  B       1.645111     -0.668626     -0.670808
  B      -1.154019     -1.653138     -0.164222
  B       0.271699      0.242082     -1.084552
  B      -1.523921     -0.175783     -0.760322
  B       0.348753      1.931485     -0.603756
  B       0.396373     -1.616722     -0.670102
12
Coordinates from ORCA-job input E -297.279108579290
  B      -0.312510      0.128023      2.002947
  B       0.764843     -0.472673      0.808267
  B       0.027667      1.182382      0.866750
  B      -0.947871     -1.114723      1.354966
  B       1.514556      0.860144     -0.170871
  B      -1.061029      1.357977     -0.920291
  B       1.647303     -0.666488     -0.666740
  B      -1.142097     -1.659964     -0.150365
  B       0.279377      0.250802     -1.093381
  B      -1.515083     -0.178401     -0.747055
  B       0.345973      1.927713     -0.602008
  B       0.398872     -1.614791     -0.682220
12
Coordinates from ORCA-job input E -297.279923919116
  B      -0.348013      0.143880      1.976721
  B       0.733368     -0.475267      0.797996
  B       0.052169      1.213015      0.870594
  B      -0.946684     -1.145018      1.374307
  B       1.528469      0.858441     -0.180188
  B      -1.062996      1.354987     -0.899980
  B       1.647041     -0.670208     -0.660950
  B      -1.129142     -1.669773     -0.143286
  B       0.286895      0.263585     -1.096551
  B      -1.508225     -0.184550     -0.728878
  B       0.350906      1.927053     -0.605275
  B       0.396212     -1.616145     -0.704510
12
Coordinates from ORCA-job input E -297.280866162840
  B      -0.403140      0.159548      1.947022
  B       0.688778     -0.486039      0.775802
  B       0.081505      1.235619      0.870773
  B      -0.932470     -1.176913      1.393774
  B       1.542264      0.859267     -0.183170
  B      -1.061349      1.357656     -0.884130
  B       1.647944     -0.673654     -0.661400
  B      -1.114737     -1.680042     -0.129330
  B       0.296486      0.273502     -1.102735
  B      -1.500926     -0.187593     -0.692986
  B       0.357423      1.935667     -0.612110
  B       0.398222     -1.617019     -0.721511
12
Coordinates from ORCA-job input E -297.282060347588
  B      -0.469920      0.184429      1.909515
  B       0.643327     -0.498198      0.760505
  B       0.088850      1.246860      0.853879
  B      -0.904395     -1.203506      1.411270
  B       1.566285      0.858027     -0.194419
  B      -1.054152      1.361665     -0.849496
  B       1.649671     -0.674188     -0.657440
  B      -1.100005     -1.692276     -0.122361
  B       0.301509      0.279053     -1.101502
  B      -1.499962     -0.187783     -0.643809
  B       0.375057      1.944180     -0.619601
  B       0.403737     -1.618262     -0.746540
12
Coordinates from ORCA-job input E -297.282954107397
  B      -0.519747      0.200756      1.888397
  B       0.613604     -0.516386      0.747048
  B       0.078664      1.240223      0.832247
  B      -0.880493     -1.222129      1.421714
  B       1.576600      0.866161     -0.200407
  B      -1.038232      1.368531     -0.825003
  B       1.653170     -0.675360     -0.656019
  B      -1.090609     -1.697657     -0.117999
  B       0.298359      0.280173     -1.099272
  B      -1.492663     -0.178057     -0.597149
  B       0.391144      1.954390     -0.634199
  B       0.410202     -1.620646     -0.759358
12
Coordinates from ORCA-job input E -297.283426428110
  B      -0.529879      0.204089      1.886189
  B       0.610147     -0.526049      0.747386
  B       0.061305      1.223945      0.813124
  B      -0.885310     -1.228207      1.430850
  B       1.572984      0.866466     -0.205257
  B      -1.030654      1.377339     -0.816830
  B       1.657974     -0.668528     -0.655738
  B      -1.083125     -1.698590     -0.116853
  B       0.291455      0.280076     -1.099457
  B      -1.487430     -0.166671     -0.575821
  B       0.403946      1.956902     -0.642939
  B       0.418588     -1.620773     -0.764654
12
Coordinates from ORCA-job input E -297.283675204324
  B      -0.525296      0.205651      1.889506
  B       0.605540     -0.535871      0.742152
  B       0.054472      1.216483      0.806875
  B      -0.891420     -1.225018      1.432208
  B       1.563003      0.865453     -0.198346
  B      -1.029267      1.378483     -0.820844
  B       1.661583     -0.665711     -0.658734
  B      -1.074516     -1.694801     -0.115839
  B       0.286682      0.281703     -1.098852
  B      -1.481752     -0.159232     -0.565097
  B       0.407580      1.954472     -0.647085
  B       0.423392     -1.621612     -0.765945
12
Coordinates from ORCA-job input E -297.283814823293
  B      -0.514815      0.201429      1.895722
  B       0.607525     -0.533209      0.742328
  B       0.042595      1.212443      0.801597
  B      -0.903191     -1.221031      1.430089
  B       1.561250      0.866370     -0.195010
  B      -1.029287      1.378296     -0.819538
  B       1.663618     -0.665763     -0.657493
  B      -1.068407     -1.692568     -0.115424
  B       0.284746      0.282196     -1.097305
  B      -1.482844     -0.156104     -0.559275
  B       0.412608      1.948678     -0.653682
  B       0.426201     -1.620739     -0.772010
12
Coordinates from ORCA-job input E -297.283938934050
  B      -0.513985      0.204402      1.891240
  B       0.587707     -0.542679      0.731070
  B       0.047603      1.218573      0.799903
  B      -0.910714     -1.220423      1.437161
  B       1.558748      0.859840     -0.186313
  B      -1.031923      1.377445     -0.820930
  B       1.667388     -0.661206     -0.657236
  B      -1.055735     -1.694534     -0.110048
  B       0.286114      0.286382     -1.096719
  B      -1.480709     -0.155622     -0.545460
  B       0.414801      1.945692     -0.658673
  B       0.430706     -1.617870     -0.783996
12
Coordinates from ORCA-job input E -297.284053676727
  B      -0.506936      0.202134      1.894831
  B       0.584655     -0.538282      0.730722
  B       0.048110      1.221632      0.802672
  B      -0.915978     -1.215987      1.433138
  B       1.560645      0.862394     -0.185999
  B      -1.031690      1.375452     -0.819351
  B       1.666041     -0.663874     -0.654989
  B      -1.055655     -1.698663     -0.111295
  B       0.285781      0.284466     -1.095003
  B      -1.478320     -0.160100     -0.546284
  B       0.414040      1.946987     -0.661135
  B       0.429307     -1.616158     -0.787306
12
Coordinates from ORCA-job input E -297.284146232583
  B      -0.503481      0.201441      1.891025
  B       0.576498     -0.538572      0.727188
  B       0.049856      1.227086      0.801864
  B      -0.923137     -1.215218      1.430333
  B       1.566342      0.866032     -0.189852
  B      -1.031432      1.375964     -0.811787
  B       1.668450     -0.665085     -0.650230
  B      -1.056592     -1.706144     -0.109758
  B       0.286080      0.281165     -1.091809
  B      -1.475574     -0.164739     -0.542355
  B       0.413579      1.948805     -0.663934
  B       0.429411     -1.610735     -0.790687
12
Coordinates from ORCA-job input E -297.284194928867
  B      -0.502061      0.200963      1.891485
  B       0.568827     -0.539138      0.725000
  B       0.051710      1.225857      0.801636
  B      -0.929392     -1.212941      1.430400
  B       1.567666      0.868501     -0.193940
  B      -1.031350      1.377236     -0.807158
  B       1.669162     -0.663233     -0.647693
  B      -1.055231     -1.711214     -0.109851
  B       0.286309      0.279225     -1.091511
  B      -1.468563     -0.167004     -0.539020
  B       0.413945      1.951068     -0.666694
  B       0.428977     -1.609320     -0.792654
12
Coordinates from ORCA-job input E -297.284258075893
  B      -0.500367      0.200970      1.890302
  B       0.559709     -0.543656      0.720197
  B       0.051809      1.223761      0.799715
  B      -0.937847     -1.212353      1.431870
  B       1.570407      0.871701     -0.199714
  B      -1.030948      1.378848     -0.801986
  B       1.670869     -0.660195     -0.646484
  B      -1.054264     -1.715606     -0.106852
  B       0.286682      0.280159     -1.092327
  B      -1.460908     -0.169092     -0.536045
  B       0.414857      1.952464     -0.667468
  B       0.430000     -1.607003     -0.791208
12
Coordinates from ORCA-job input E -297.284343956826
  B      -0.497146      0.199285      1.891896
  B       0.547021     -0.549749      0.714641
  B       0.047531      1.217827      0.796178
  B      -0.948393     -1.212119      1.433983
  B       1.575225      0.877161     -0.210326
  B      -1.030994      1.381833     -0.794634
  B       1.673041     -0.656062     -0.645588
  B      -1.052286     -1.718505     -0.102439
  B       0.289952      0.282805     -1.094881
  B      -1.451428     -0.169264     -0.534443
  B       0.416096      1.954396     -0.668236
  B       0.431382     -1.607609     -0.786150
12
Coordinates from ORCA-job input E -297.284398273552
  B      -0.492821      0.197554      1.895614
  B       0.537318     -0.553606      0.709513
  B       0.042472      1.212975      0.794555
  B      -0.957314     -1.212319      1.439642
  B       1.580446      0.881272     -0.217534
  B      -1.029402      1.382490     -0.792945
  B       1.672029     -0.652649     -0.647839
  B      -1.049980     -1.719130     -0.096702
  B       0.291611      0.288237     -1.099299
  B      -1.444664     -0.170649     -0.538521
  B       0.417473      1.956563     -0.664585
  B       0.432832     -1.610738     -0.781901
12
Coordinates from ORCA-job input E -297.284426495837
  B      -0.488693      0.195273      1.900138
  B       0.533145     -0.553782      0.708126
  B       0.035958      1.209750      0.793463
  B      -0.958599     -1.212701      1.441105
  B       1.584282      0.883323     -0.221858
  B      -1.029180      1.383158     -0.793603
  B       1.671127     -0.652778     -0.649090
  B      -1.049139     -1.717072     -0.094252
  B       0.294244      0.290444     -1.099799
  B      -1.443868     -0.169609     -0.543191
  B       0.417527      1.958502     -0.662428
  B       0.433197     -1.614509     -0.778611
12
Coordinates from ORCA-job input E -297.284440208846
  B      -0.487178      0.194742      1.902148
  B       0.530406     -0.554057      0.706192
  B       0.032162      1.209247      0.793316
  B      -0.958131     -1.213705      1.444706
  B       1.585748      0.883282     -0.222289
  B      -1.028392      1.383841     -0.796461
  B       1.670186     -0.653319     -0.650275
  B      -1.047371     -1.715503     -0.092098
  B       0.294355      0.291545     -1.099834
  B      -1.443624     -0.168907     -0.545876
  B       0.418008      1.959492     -0.660082
  B       0.433829     -1.616658     -0.779446
12
Coordinates from ORCA-job input E -297.284449931192
  B      -0.485501      0.193744      1.904163
  B       0.529316     -0.553149      0.704923
  B       0.028439      1.208326      0.792984
  B      -0.956738     -1.215011      1.446638
  B       1.586978      0.883244     -0.223023
  B      -1.027743      1.384884     -0.799876
  B       1.669861     -0.653782     -0.650703
  B      -1.047172     -1.714521     -0.090847
  B       0.293975      0.291103     -1.097377
  B      -1.443427     -0.168080     -0.548140
  B       0.418548      1.960299     -0.658855
  B       0.433464     -1.617058     -0.779887
12
Coordinates from ORCA-job input E -297.284456699394
  B      -0.485802      0.193405      1.904433
  B       0.526043     -0.553383      0.702681
  B       0.024973      1.207151      0.792131
  B      -0.956380     -1.216669      1.449086
  B       1.588106      0.883903     -0.225381
  B      -1.027392      1.386964     -0.800980
  B       1.670316     -0.654236     -0.650029
  B      -1.045833     -1.714334     -0.089048
  B       0.293777      0.290042     -1.095508
  B      -1.441209     -0.166926     -0.547468
  B       0.419830      1.960860     -0.658355
  B       0.433572     -1.616777     -0.781562
12
Coordinates from ORCA-job input E -297.284462428918
  B      -0.485995      0.192740      1.904582
  B       0.522103     -0.553755      0.700307
  B       0.022788      1.205418      0.791016
  B      -0.958149     -1.218266      1.450447
  B       1.590518      0.885861     -0.229353
  B      -1.026507      1.388364     -0.800913
  B       1.671035     -0.653297     -0.649155
  B      -1.045509     -1.715767     -0.087338
  B       0.293468      0.289341     -1.092914
  B      -1.437980     -0.166756     -0.545970
  B       0.421155      1.961546     -0.658717
  B       0.433072     -1.615430     -0.781994
12
Coordinates from ORCA-job input E -297.284477283463
  B      -0.487777      0.191838      1.903432
  B       0.511019     -0.555910      0.694576
  B       0.018732      1.201810      0.788503
  B      -0.964226     -1.221424      1.453367
  B       1.596702      0.890920     -0.239663
  B      -1.024988      1.391458     -0.798211
  B       1.672424     -0.651222     -0.647075
  B      -1.043321     -1.719928     -0.083042
  B       0.293638      0.288853     -1.089049
  B      -1.429540     -0.166665     -0.540056
  B       0.424397      1.963486     -0.659708
  B       0.432939     -1.613214     -0.783075
12
Coordinates from ORCA-job input E -297.284513254504
  B      -0.489760      0.190609      1.902160
  B       0.497267     -0.558473      0.687350
  B       0.013738      1.197839      0.785417
  B      -0.971842     -1.225008      1.456939
  B       1.604690      0.896846     -0.251602
  B      -1.022847      1.394688     -0.794922
  B       1.673548     -0.648594     -0.645296
  B      -1.040312     -1.724968     -0.077658
  B       0.294070      0.289189     -1.084686
  B      -1.419578     -0.166734     -0.533033
  B       0.428106      1.966166     -0.660683
  B       0.432922     -1.611561     -0.783986
12
Coordinates from ORCA-job input E -297.284686021639
  B      -0.493933      0.187805      1.899588
  B       0.469707     -0.563032      0.672195
  B       0.003118      1.189373      0.779201
  B      -0.986334     -1.232439      1.464214
  B       1.620476      0.908447     -0.275700
  B      -1.018498      1.401551     -0.788463
  B       1.675711     -0.643159     -0.641409
  B      -1.034457     -1.734879     -0.066503
  B       0.294864      0.289565     -1.075663
  B      -1.399165     -0.166740     -0.519244
  B       0.435945      1.971509     -0.662655
  B       0.432565     -1.608001     -0.785562
12
Coordinates from ORCA-job input E -297.285171062681
  B      -0.505093      0.185919      1.892932
  B       0.444019     -0.565391      0.658098
  B      -0.005121      1.181634      0.773266
  B      -1.000260     -1.243265      1.469559
  B       1.638848      0.922449     -0.303242
  B      -1.012964      1.408494     -0.778918
  B       1.675959     -0.637514     -0.638113
  B      -1.030826     -1.748713     -0.055230
  B       0.295595      0.290623     -1.065809
  B      -1.375642     -0.167838     -0.501404
  B       0.445250      1.977979     -0.665752
  B       0.430235     -1.604377     -0.785387
12
Coordinates from ORCA-job input E -297.285827275306
  B      -0.516851      0.184852      1.885551
  B       0.426170     -0.567678      0.648796
  B      -0.007997      1.177598      0.770281
  B      -1.012348     -1.252591      1.472291
  B       1.652716      0.933453     -0.324340
  B      -1.008423      1.413692     -0.771175
  B       1.674768     -0.632683     -0.637665
  B      -1.027737     -1.760995     -0.045862
  B       0.295972      0.292782     -1.060288
  B      -1.357634     -0.168584     -0.485937
  B       0.452292      1.983556     -0.668019
  B       0.429072     -1.603402     -0.783635
12
Coordinates from ORCA-job input E -297.286480886743
  B      -0.526122      0.184502      1.879629
  B       0.414166     -0.570014      0.643084
  B      -0.008761      1.175576      0.769119
  B      -1.022022     -1.258967      1.473590
  B       1.662716      0.941400     -0.339347
  B      -1.005216      1.416782     -0.765517
  B       1.673476     -0.629131     -0.638493
  B      -1.024437     -1.770039     -0.038803
  B       0.296148      0.294678     -1.057222
  B      -1.345915     -0.168366     -0.474687
  B       0.456993      1.987618     -0.669138
  B       0.428973     -1.604040     -0.782214
12
Coordinates from ORCA-job input E -297.287075089918
  B      -0.533547      0.184525      1.874978
  B       0.405278     -0.572309      0.639144
  B      -0.008932      1.174212      0.768598
  B      -1.029583     -1.263065      1.473946
  B       1.669907      0.947264     -0.350203
  B      -1.002900      1.418454     -0.761082
  B       1.672148     -0.626482     -0.639848
  B      -1.021239     -1.776609     -0.033241
  B       0.296029      0.296229     -1.055357
  B      -1.336603     -0.167881     -0.465961
  B       0.460387      1.990603     -0.669768
  B       0.429055     -1.604939     -0.781205
12
Coordinates from ORCA-job input E -297.287728954683
  B      -0.541051      0.184546      1.870276
  B       0.396320     -0.574750      0.635114
  B      -0.008782      1.172455      0.767888
  B      -1.037328     -1.266540      1.474291
  B       1.676658      0.952869     -0.361013
  B      -1.000694      1.420005     -0.756492
  B       1.670854     -0.623533     -0.641188
  B      -1.017906     -1.782938     -0.027812
  B       0.295822      0.297671     -1.053362
  B      -1.326788     -0.167630     -0.457057
  B       0.463737      1.993333     -0.670339
  B       0.429160     -1.605486     -0.780306
12
Coordinates from ORCA-job input E -297.288432622153
  B      -0.548465      0.184468      1.865627
  B       0.387447     -0.577271      0.631103
  B      -0.008130      1.170513      0.767083
  B      -1.045294     -1.269774      1.474608
  B       1.683054      0.958521     -0.371748
  B      -0.998631      1.421587     -0.751962
  B       1.669684     -0.620543     -0.642369
  B      -1.014548     -1.789184     -0.022439
  B       0.295566      0.298962     -1.051279
  B      -1.316938     -0.167353     -0.448184
  B       0.466930      1.995969     -0.670946
  B       0.429325     -1.605896     -0.779493
12
Coordinates from ORCA-job input E -297.289172704196
  B      -0.555712      0.184352      1.861082
  B       0.378644     -0.579905      0.627187
  B      -0.006875      1.168428      0.766261
  B      -1.053414     -1.272772      1.474908
  B       1.689146      0.964172     -0.382421
  B      -0.996753      1.423183     -0.747560
  B       1.668716     -0.617518     -0.643323
  B      -1.011091     -1.795371     -0.017179
  B       0.295294      0.300098     -1.049106
  B      -1.307505     -0.166950     -0.439496
  B       0.469926      1.998492     -0.671550
  B       0.429625     -1.606208     -0.778803
12
Coordinates from ORCA-job input E -297.290258196871
  B      -0.565619      0.184098      1.854877
  B       0.365617     -0.583433      0.621150
  B      -0.004475      1.164488      0.764659
  B      -1.065097     -1.276351      1.475560
  B       1.697346      0.971814     -0.398329
  B      -0.994279      1.425858     -0.741111
  B       1.668170     -0.612648     -0.643534
  B      -1.006322     -1.804001     -0.010377
  B       0.294767      0.301085     -1.045131
  B      -1.294386     -0.166896     -0.427147
  B       0.474078      2.001494     -0.672515
  B       0.430201     -1.605511     -0.778103
12
Coordinates from ORCA-job input E -297.291797089273
  B      -0.578432      0.183135      1.847195
  B       0.346794     -0.588016      0.612198
  B      -0.000220      1.158009      0.762215
  B      -1.081566     -1.280923      1.476281
  B       1.708288      0.982869     -0.421399
  B      -0.991277      1.430125     -0.732444
  B       1.668947     -0.606125     -0.641781
  B      -0.999639     -1.815462     -0.001410
  B       0.293724      0.301073     -1.038375
  B      -1.277356     -0.166462     -0.410201
  B       0.479440      2.005183     -0.674421
  B       0.431298     -1.603406     -0.777860
12
Coordinates from ORCA-job input E -297.294625333671
  B      -0.602975      0.182975      1.831728
  B       0.318301     -0.601837      0.603228
  B       0.014748      1.152531      0.762437
  B      -1.113066     -1.288292      1.474114
  B       1.726694      1.005340     -0.457223
  B      -0.988312      1.435796     -0.720129
  B       1.665163     -0.598025     -0.645474
  B      -0.983960     -1.836243      0.017341
  B       0.292717      0.305210     -1.033652
  B      -1.252435     -0.161262     -0.382248
  B       0.486198      2.013486     -0.674180
  B       0.436928     -1.609679     -0.775940
12
Coordinates from ORCA-job input E -297.298464945050
  B      -0.633220      0.188097      1.812654
  B       0.281170     -0.623694      0.596900
  B       0.039175      1.143571      0.763855
  B      -1.159285     -1.288433      1.464798
  B       1.753274      1.032240     -0.506809
  B      -0.988448      1.435246     -0.701492
  B       1.664888     -0.588032     -0.651726
  B      -0.952993     -1.861524      0.038606
  B       0.292620      0.308144     -1.022357
  B      -1.237867     -0.148351     -0.345687
  B       0.491554      2.021361     -0.670552
  B       0.449133     -1.618626     -0.778189
12
Coordinates from ORCA-job input E -297.303127723869
  B      -0.665276      0.194717      1.792287
  B       0.253579     -0.643469      0.598325
  B       0.080284      1.125909      0.766950
  B      -1.217106     -1.277376      1.440296
  B       1.776333      1.062468     -0.568058
  B      -0.992646      1.431796     -0.682029
  B       1.674939     -0.580012     -0.654494
  B      -0.917224     -1.890059      0.050193
  B       0.291053      0.301343     -0.999047
  B      -1.243966     -0.130060     -0.297092
  B       0.492382      2.024586     -0.667738
  B       0.467648     -1.619844     -0.779592
12
Coordinates from ORCA-job input E -297.307798693070
  B      -0.691389      0.206456      1.780585
  B       0.238239     -0.663058      0.610645
  B       0.117479      1.112286      0.771811
  B      -1.254959     -1.252619      1.400434
  B       1.784756      1.072968     -0.610609
  B      -1.001950      1.426059     -0.670583
  B       1.691753     -0.575999     -0.658440
  B      -0.878283     -1.911523      0.050072
  B       0.288313      0.290564     -0.978085
  B      -1.272869     -0.104644     -0.245420
  B       0.489572      2.018523     -0.664741
  B       0.489337     -1.619013     -0.785668
12
Coordinates from ORCA-job input E -297.311824202251
  B      -0.716357      0.209433      1.766241
  B       0.242391     -0.660004      0.622184
  B       0.145071      1.084179      0.768936
  B      -1.288595     -1.231299      1.356826
  B       1.780649      1.079196     -0.656572
  B      -1.001057      1.429285     -0.656692
  B       1.712273     -0.564878     -0.650809
  B      -0.860024     -1.938997      0.039876
  B       0.278985      0.271516     -0.948864
  B      -1.287721     -0.089210     -0.185493
  B       0.492586      2.009229     -0.673413
  B       0.501799     -1.598450     -0.782221
12
Coordinates from ORCA-job input E -297.315128487512
  B      -0.720048      0.195024      1.766319
  B       0.264863     -0.684323      0.638312
  B       0.157197      1.080656      0.781132
  B      -1.312988     -1.207868      1.317499
  B       1.762127      1.075414     -0.664741
  B      -1.002432      1.439948     -0.676670
  B       1.723243     -0.564147     -0.655575
  B      -0.831562     -1.953386      0.038655
  B       0.262554      0.256725     -0.944135
  B      -1.322071     -0.042110     -0.139133
  B       0.492188      2.000655     -0.682545
  B       0.526929     -1.596588     -0.779117
12
Coordinates from ORCA-job input E -297.316398780085
  B      -0.757581      0.211160      1.730881
  B       0.256519     -0.709000      0.639746
  B       0.177541      1.079601      0.770903
  B      -1.340396     -1.205261      1.281064
  B       1.766932      1.082348     -0.679638
  B      -1.000679      1.437487     -0.661144
  B       1.721882     -0.556079     -0.656719
  B      -0.800486     -1.976723      0.043709
  B       0.245513      0.249398     -0.926597
  B      -1.302050     -0.013385     -0.057308
  B       0.495008      2.004540     -0.695885
  B       0.537795     -1.604084     -0.789012
12
Coordinates from ORCA-job input E -297.317558316145
  B      -0.733209      0.184393      1.760563
  B       0.272497     -0.706331      0.649221
  B       0.167752      1.065015      0.780928
  B      -1.357859     -1.203081      1.271934
  B       1.763509      1.078441     -0.690985
  B      -0.993767      1.452657     -0.691816
  B       1.710700     -0.538579     -0.655085
  B      -0.796900     -1.987630      0.046020
  B       0.228397      0.242508     -0.915457
  B      -1.303154      0.012508     -0.076360
  B       0.496587      2.012473     -0.701300
  B       0.545446     -1.612376     -0.777663
12
Coordinates from ORCA-job input E -297.317896545895
  B      -0.715864      0.172362      1.764329
  B       0.276716     -0.714016      0.627006
  B       0.155696      1.069588      0.783366
  B      -1.358204     -1.188354      1.267053
  B       1.757339      1.081387     -0.676711
  B      -0.993568      1.455081     -0.701319
  B       1.711460     -0.549457     -0.642401
  B      -0.791593     -1.986787      0.039646
  B       0.228243      0.237833     -0.917144
  B      -1.321250      0.026675     -0.052322
  B       0.494767      2.011526     -0.714060
  B       0.556258     -1.615839     -0.777444
12
Coordinates from ORCA-job input E -297.318106110029
  B      -0.724157      0.178688      1.756459
  B       0.284620     -0.714124      0.638480
  B       0.153699      1.078740      0.777941
  B      -1.347297     -1.192185      1.262156
  B       1.759609      1.076103     -0.668523
  B      -0.993129      1.457841     -0.696222
  B       1.699603     -0.549658     -0.642124
  B      -0.790093     -1.997683      0.038125
  B       0.227709      0.243722     -0.919530
  B      -1.322779      0.032943     -0.044064
  B       0.495692      2.012538     -0.716937
  B       0.556523     -1.626925     -0.785760
12
Coordinates from ORCA-job input E -297.318123698992
  B      -0.718021      0.169599      1.763892
  B       0.263647     -0.718695      0.623851
  B       0.145991      1.078563      0.769505
  B      -1.346035     -1.201137      1.265499
  B       1.759080      1.067739     -0.664203
  B      -0.991342      1.467567     -0.703146
  B       1.700932     -0.538764     -0.633268
  B      -0.779789     -1.998396      0.045614
  B       0.220305      0.243273     -0.917194
  B      -1.317854      0.049107     -0.034947
  B       0.501296      2.012586     -0.725341
  B       0.561790     -1.631442     -0.790261
12
Coordinates from ORCA-job input E -297.318326206027
  B      -0.711499      0.165820      1.764095
  B       0.272384     -0.716413      0.626608
  B       0.143862      1.075357      0.768799
  B      -1.352617     -1.201050      1.259764
  B       1.762950      1.079666     -0.671760
  B      -0.995333      1.467604     -0.701988
  B       1.700180     -0.546764     -0.632602
  B      -0.784663     -2.001897      0.041208
  B       0.223876      0.243021     -0.913342
  B      -1.321721      0.054434     -0.034929
  B       0.499850      2.014469     -0.725624
  B       0.562731     -1.634247     -0.780229
12
Coordinates from ORCA-job input E -297.318363937268
  B      -0.707305      0.169134      1.765044
  B       0.274107     -0.712225      0.624402
  B       0.147895      1.079319      0.772899
  B      -1.349455     -1.190926      1.256550
  B       1.759313      1.071395     -0.662507
  B      -0.997344      1.464494     -0.700876
  B       1.701123     -0.548371     -0.632142
  B      -0.784460     -2.007292      0.034969
  B       0.222877      0.245131     -0.918015
  B      -1.328264      0.050512     -0.033235
  B       0.496431      2.009311     -0.726454
  B       0.565083     -1.630481     -0.780636
12
Coordinates from ORCA-job input E -297.318433257224
  B      -0.708907      0.166144      1.766173
  B       0.270819     -0.713727      0.623283
  B       0.141005      1.078228      0.770137
  B      -1.346166     -1.197041      1.258157
  B       1.759298      1.072500     -0.663399
  B      -0.995768      1.470283     -0.704340
  B       1.700528     -0.547835     -0.630548
  B      -0.782222     -2.008245      0.038407
  B       0.221515      0.244515     -0.917745
  B      -1.327311      0.058565     -0.028890
  B       0.500886      2.010012     -0.728425
  B       0.566323     -1.633400     -0.782811
12
Coordinates from ORCA-job input E -297.318449328620
  B      -0.707376      0.164386      1.767347
  B       0.267942     -0.713505      0.619614
  B       0.141356      1.079863      0.769034
  B      -1.347723     -1.198142      1.256003
  B       1.761287      1.073477     -0.662524
  B      -0.996916      1.470828     -0.704893
  B       1.701858     -0.547546     -0.630607
  B      -0.780764     -2.011199      0.039324
  B       0.222012      0.243848     -0.916234
  B      -1.327992      0.064387     -0.025595
  B       0.499388      2.009989     -0.729820
  B       0.566928     -1.636386     -0.781649
12
Coordinates from ORCA-job input E -297.318466710472
  B      -0.706532      0.163712      1.768512
  B       0.266029     -0.712424      0.619044
  B       0.138755      1.079872      0.769173
  B      -1.347371     -1.198089      1.254981
  B       1.760933      1.072521     -0.662059
  B      -0.996218      1.472001     -0.705806
  B       1.701706     -0.548325     -0.631500
  B      -0.778516     -2.014180      0.039797
  B       0.220621      0.244618     -0.917735
  B      -1.329522      0.067532     -0.023312
  B       0.501191      2.009352     -0.729893
  B       0.568923     -1.636589     -0.781202
12
Coordinates from ORCA-job input E -297.318476321267
  B      -0.706533      0.163742      1.768955
  B       0.265331     -0.710302      0.617174
  B       0.136224      1.081234      0.769968
  B      -1.345105     -1.198275      1.255062
  B       1.760645      1.071386     -0.659911
  B      -0.995157      1.473386     -0.707188
  B       1.702622     -0.549569     -0.633088
  B      -0.777228     -2.017976      0.040614
  B       0.220618      0.243749     -0.919084
  B      -1.332526      0.070124     -0.021716
  B       0.502103      2.008722     -0.729189
  B       0.569006     -1.636221     -0.781598
12
Coordinates from ORCA-job input E -297.318480163956
  B      -0.706280      0.163253      1.769934
  B       0.264174     -0.709617      0.617147
  B       0.135665      1.081421      0.770145
  B      -1.346871     -1.196901      1.252954
  B       1.760585      1.071318     -0.660229
  B      -0.994654      1.473098     -0.707005
  B       1.703242     -0.549891     -0.634874
  B      -0.775193     -2.019642      0.041974
  B       0.220353      0.243216     -0.919407
  B      -1.332849      0.071300     -0.020609
  B       0.502250      2.009066     -0.728500
  B       0.569576     -1.636621     -0.781529
12
Coordinates from ORCA-job input E -297.318482106453
  B      -0.706840      0.163772      1.769496
  B       0.263965     -0.709504      0.616886
  B       0.135477      1.081695      0.769962
  B      -1.347321     -1.197529      1.253991
  B       1.760920      1.071150     -0.659856
  B      -0.993809      1.472685     -0.706838
  B       1.703198     -0.549914     -0.636520
  B      -0.774521     -2.020062      0.043085
  B       0.220535      0.242999     -0.919822
  B      -1.332962      0.070977     -0.021659
  B       0.502400      2.009864     -0.727297
  B       0.568960     -1.636133     -0.781428
12
Coordinates from ORCA-job input E -297.318482778779
  B      -0.706926      0.163885      1.769406
  B       0.264386     -0.709647      0.616993
  B       0.135409      1.081606      0.769772
  B      -1.347178     -1.197187      1.253730
  B       1.760700      1.071262     -0.659598
  B      -0.993733      1.472771     -0.706917
  B       1.703267     -0.549843     -0.636712
  B      -0.774623     -2.020085      0.043567
  B       0.220710      0.242531     -0.919656
  B      -1.332700      0.070449     -0.021913
  B       0.502370      2.010186     -0.726997
  B       0.568317     -1.635928     -0.781675
