12
Coordinates from ORCA-job input E -297.318482778779
  B          -0.70692607159254      0.16388489544235      1.76940576775756
  B           0.26438626107754     -0.70964679008339      0.61699320883989
  B           0.13540870472992      1.08160597008080      0.76977202300212
  B          -1.34717826680774     -1.19718717510091      1.25373039383179
  B           1.76070035405497      1.07126176777149     -0.65959791804875
  B          -0.99373289553506      1.47277115316256     -0.70691657690312
  B           1.70326686654885     -0.54984311400350     -0.63671209000359
  B          -0.77462313141559     -2.02008477555740      0.04356701191533
  B           0.22071027035390      0.24253127939247     -0.91965638545329
  B          -1.33269973641902      0.07044856235226     -0.02191275196350
  B           0.50237020105214      2.01018585679994     -0.72699726495222
  B           0.56831744395261     -1.63592763025666     -0.78167539802222
