12
Optimized coordinates extracted from calculations\B12\compact_3d\d_2.0\mult_1\output.out
B       -0.70692607       0.16388490       1.76940577
B        0.26438626      -0.70964679       0.61699321
B        0.13540870       1.08160597       0.76977202
B       -1.34717827      -1.19718718       1.25373039
B        1.76070035       1.07126177      -0.65959792
B       -0.99373290       1.47277115      -0.70691658
B        1.70326687      -0.54984311      -0.63671209
B       -0.77462313      -2.02008478       0.04356701
B        0.22071027       0.24253128      -0.91965639
B       -1.33269974       0.07044856      -0.02191275
B        0.50237020       2.01018586      -0.72699726
B        0.56831744      -1.63592763      -0.78167540
