12
B12 random_3d_03; neutral charge=0; multiplicity=5; 3d initial geometry; nominal d=5.0 A; Random 3D B12 cloud with controlled minimum distance 03.
B        0.46332395       5.42453449      -6.66870519
B       -4.41243019       0.24215599       6.13533189
B       -5.37064989      -5.85387071       7.14874620
B        7.67782655      -1.25576931       1.15862461
B       -4.75396685       3.62772686      -7.06919990
B       -0.33100345       3.72642259      -2.90266338
B        3.58040424       7.57582346      -1.58977164
B        5.88496189      -7.55672861       4.53613282
B        5.39154518      -0.43247496      -4.24177535
B       -3.15158853       8.49526998       7.75978098
B       -5.07416607      -6.63169357      -6.32362996
B        0.09574316      -7.36139620       2.05712893
