12
B12 planar_double_ring; neutral charge=0; multiplicity=3; planar initial geometry; nominal d=3.5 A; Planar B6@B6 double-ring control motif.
B        3.50000000       0.00000000       0.00000000
B        1.75000000       3.03108891       0.00000000
B       -1.75000000       3.03108891       0.00000000
B       -3.50000000       0.00000000       0.00000000
B       -1.75000000      -3.03108891       0.00000000
B        1.75000000      -3.03108891       0.00000000
B        5.25000000       3.03108891       0.00000000
B        0.00000000       6.06217783       0.00000000
B       -5.25000000       3.03108891       0.00000000
B       -5.25000000      -3.03108891       0.00000000
B       -0.00000000      -6.06217783       0.00000000
B        5.25000000      -3.03108891       0.00000000
