12
Coordinates from ORCA-job input E -295.387204600796
  B       0.000000      0.000000      4.026223
  B       3.034131      0.000000      1.840620
  B      -1.517065      2.622723      1.840620
  B      -1.517065     -2.622723      1.840620
  B       1.851334      3.034131     -0.087853
  B      -1.851334      3.034131     -0.087853
  B       1.851334     -3.034131     -0.087853
  B      -1.851334     -3.034131     -0.087853
  B       2.879853      0.000000     -2.042039
  B      -2.879853      0.000000     -2.042039
  B       0.000000      2.519871     -2.556298
  B       0.000000     -2.519871     -2.556298
12
Coordinates from ORCA-job input E -295.409361973673
  B      -0.019500     -0.000285      3.970314
  B       3.036720     -0.000258      1.828861
  B      -1.520275      2.620921      1.786349
  B      -1.520576     -2.621615      1.786710
  B       1.848429      3.027377     -0.091783
  B      -1.832831      3.021365     -0.063106
  B       1.848694     -3.027681     -0.092030
  B      -1.832836     -3.021427     -0.062762
  B       2.873589      0.000548     -2.037055
  B      -2.872595      0.000304     -2.005967
  B      -0.004307      2.519692     -2.510814
  B      -0.004512     -2.518941     -2.508718
12
Coordinates from ORCA-job input E -295.431809998846
  B      -0.038854     -0.000566      3.914968
  B       3.038852     -0.000526      1.817279
  B      -1.522743      2.618577      1.732240
  B      -1.523355     -2.619963      1.732964
  B       1.845103      3.020614     -0.095586
  B      -1.814029      3.008126     -0.039144
  B       1.845614     -3.021235     -0.096095
  B      -1.814011     -3.008255     -0.038481
  B       2.866880      0.001103     -2.032084
  B      -2.865364      0.000614     -1.970298
  B      -0.008847      2.519771     -2.465011
  B      -0.009245     -2.518261     -2.460753
12
Coordinates from ORCA-job input E -295.470960557804
  B      -0.066553     -0.000873      3.836794
  B       3.038255     -0.000906      1.799733
  B      -1.523791      2.612915      1.653162
  B      -1.524904     -2.615282      1.654441
  B       1.837508      3.009213     -0.102250
  B      -1.784457      2.987115     -0.007229
  B       1.838280     -3.010273     -0.103199
  B      -1.784398     -2.987430     -0.006272
  B       2.854440      0.001924     -2.024255
  B      -2.852561      0.001048     -1.917876
  B      -0.015595      2.519893     -2.395225
  B      -0.016223     -2.517344     -2.387824
12
Coordinates from ORCA-job input E -295.503311625107
  B      -0.086709      0.003107      3.728546
  B       3.017086      0.008247      1.768684
  B      -1.527025      2.622707      1.545592
  B      -1.526430     -2.619914      1.541578
  B       1.829866      2.988193     -0.109217
  B      -1.743876      2.962199      0.025470
  B       1.829458     -2.992222     -0.128647
  B      -1.742112     -2.959357      0.023469
  B       2.826870     -0.004704     -1.996414
  B      -2.826123      0.002046     -1.839008
  B      -0.026564      2.514436     -2.282997
  B      -0.024441     -2.524737     -2.277056
12
Coordinates from ORCA-job input E -295.535541746387
  B      -0.085433      0.005351      3.676149
  B       2.982647      0.013865      1.739681
  B      -1.507675      2.603206      1.512518
  B      -1.506905     -2.598865      1.509519
  B       1.795098      2.957249     -0.128540
  B      -1.703408      2.938832     -0.006754
  B       1.792429     -2.962103     -0.160099
  B      -1.702853     -2.936163     -0.012532
  B       2.788837     -0.007883     -1.968950
  B      -2.792995      0.002556     -1.815884
  B      -0.032372      2.507435     -2.176420
  B      -0.027370     -2.523480     -2.168686
12
Coordinates from ORCA-job input E -295.573185622946
  B      -0.084184      0.006095      3.623504
  B       2.947848      0.018274      1.710526
  B      -1.486829      2.582706      1.480821
  B      -1.486580     -2.578445      1.475818
  B       1.757814      2.927732     -0.148701
  B      -1.659546      2.915208     -0.043871
  B       1.752694     -2.932769     -0.191181
  B      -1.659646     -2.912089     -0.048306
  B       2.748921     -0.010695     -1.939647
  B      -2.759754      0.003211     -1.792672
  B      -0.039546      2.502571     -2.069080
  B      -0.031192     -2.521800     -2.057212
12
Coordinates from ORCA-job input E -295.615487464998
  B      -0.083601      0.006922      3.572048
  B       2.914131      0.021234      1.682068
  B      -1.465866      2.562422      1.447349
  B      -1.466388     -2.559490      1.443877
  B       1.719934      2.900610     -0.168758
  B      -1.613024      2.890836     -0.080966
  B       1.711735     -2.905479     -0.220688
  B      -1.614021     -2.888675     -0.084180
  B       2.708633     -0.012843     -1.909636
  B      -2.727837      0.004124     -1.769278
  B      -0.048037      2.499833     -1.963585
  B      -0.035659     -2.519494     -1.948251
12
Coordinates from ORCA-job input E -295.663021993909
  B      -0.084205      0.007154      3.522077
  B       2.881218      0.022830      1.654116
  B      -1.445167      2.542296      1.413558
  B      -1.446465     -2.541543      1.411608
  B       1.681316      2.875409     -0.188758
  B      -1.564308      2.865956     -0.117814
  B       1.669960     -2.879988     -0.248147
  B      -1.565465     -2.864705     -0.118501
  B       2.668189     -0.014514     -1.879604
  B      -2.697183      0.005364     -1.745100
  B      -0.057216      2.498101     -1.861357
  B      -0.040674     -2.516362     -1.842078
12
Coordinates from ORCA-job input E -295.716437999692
  B      -0.086016      0.007175      3.473802
  B       2.848612      0.023209      1.626564
  B      -1.424767      2.522377      1.379382
  B      -1.426548     -2.523829      1.379392
  B       1.641964      2.851529     -0.208167
  B      -1.513583      2.840461     -0.153437
  B       1.627574     -2.856035     -0.273030
  B      -1.514144     -2.839898     -0.151520
  B       2.627487     -0.015975     -1.849897
  B      -2.667421      0.006852     -1.719896
  B      -0.067139      2.496414     -1.762891
  B      -0.046020     -2.512281     -1.740303
12
Coordinates from ORCA-job input E -295.786062204801
  B      -0.088307      0.007074      3.426084
  B       2.814887      0.022020      1.599070
  B      -1.404049      2.502158      1.345453
  B      -1.405719     -2.505335      1.347525
  B       1.601282      2.828241     -0.226232
  B      -1.461028      2.814368     -0.187969
  B       1.584569     -2.833293     -0.293791
  B      -1.459896     -2.813898     -0.183653
  B       2.586135     -0.017286     -1.820153
  B      -2.637671      0.008651     -1.693351
  B      -0.078120      2.494077     -1.668805
  B      -0.052083     -2.506777     -1.644180
12
Coordinates from ORCA-job input E -295.834623944471
  B      -0.093450     -0.003042      3.388874
  B       2.795210      0.018294      1.587082
  B      -1.390493      2.485684      1.318462
  B      -1.390363     -2.488666      1.335568
  B       1.573249      2.813650     -0.235452
  B      -1.423794      2.795914     -0.214943
  B       1.557583     -2.819341     -0.302829
  B      -1.418572     -2.792539     -0.203678
  B       2.563457     -0.015470     -1.807909
  B      -2.621114      0.013388     -1.674747
  B      -0.089824      2.493497     -1.607895
  B      -0.061889     -2.501369     -1.582530
12
Coordinates from ORCA-job input E -295.863743683880
  B      -0.098418     -0.009851      3.363733
  B       2.779900      0.016008      1.578073
  B      -1.383419      2.477312      1.298764
  B      -1.379726     -2.478010      1.328577
  B       1.554903      2.804614     -0.241556
  B      -1.396152      2.782998     -0.229197
  B       1.539162     -2.810407     -0.308805
  B      -1.389543     -2.779058     -0.216962
  B       2.547891     -0.015031     -1.800115
  B      -2.608178      0.016293     -1.660191
  B      -0.098080      2.494035     -1.568745
  B      -0.068340     -2.498905     -1.543577
12
Coordinates from ORCA-job input E -295.906948294003
  B      -0.104990     -0.020575      3.323962
  B       2.754814      0.012545      1.563725
  B      -1.372016      2.463058      1.270015
  B      -1.363220     -2.460711      1.314718
  B       1.525685      2.790581     -0.249841
  B      -1.354161      2.762763     -0.250262
  B       1.510018     -2.795871     -0.316298
  B      -1.345711     -2.757267     -0.233653
  B       2.524225     -0.014476     -1.787250
  B      -2.587304      0.020559     -1.636444
  B      -0.109931      2.493574     -1.512259
  B      -0.077408     -2.494179     -1.486413
12
Coordinates from ORCA-job input E -295.967126059000
  B      -0.107640     -0.025440      3.268466
  B       2.712307      0.011303      1.533620
  B      -1.356115      2.441603      1.242725
  B      -1.344380     -2.440646      1.277731
  B       1.479335      2.766948     -0.265453
  B      -1.294261      2.732860     -0.285680
  B       1.462098     -2.770860     -0.329618
  B      -1.284564     -2.725705     -0.258753
  B       2.488765     -0.015666     -1.761395
  B      -2.547454      0.023157     -1.597347
  B      -0.121515      2.486739     -1.428546
  B      -0.086575     -2.484292     -1.395749
12
Coordinates from ORCA-job input E -296.014142933292
  B      -0.107644     -0.024738      3.204053
  B       2.655694      0.011093      1.491890
  B      -1.350167      2.416533      1.218679
  B      -1.334587     -2.414530      1.252175
  B       1.417353      2.727061     -0.291988
  B      -1.249538      2.699662     -0.293748
  B       1.404717     -2.733899     -0.350439
  B      -1.231768     -2.690648     -0.273261
  B       2.461856     -0.018560     -1.734975
  B      -2.490202      0.026690     -1.551086
  B      -0.101678      2.469206     -1.352624
  B      -0.074036     -2.467870     -1.318676
12
Coordinates from ORCA-job input E -296.058756875127
  B      -0.097095     -0.034547      3.131385
  B       2.586651      0.010783      1.442555
  B      -1.353891      2.381196      1.212681
  B      -1.333322     -2.378410      1.251028
  B       1.346451      2.672918     -0.325425
  B      -1.219027      2.661999     -0.295356
  B       1.350019     -2.681857     -0.371831
  B      -1.206470     -2.651652     -0.267390
  B       2.447820     -0.019272     -1.706551
  B      -2.423013      0.034722     -1.512740
  B      -0.059968      2.442850     -1.292709
  B      -0.038155     -2.438730     -1.265647
12
Coordinates from ORCA-job input E -296.090427663397
  B      -0.090505     -0.040648      3.066916
  B       2.510090      0.014517      1.385441
  B      -1.355896      2.361240      1.214855
  B      -1.330007     -2.356898      1.252355
  B       1.272992      2.617286     -0.359763
  B      -1.184885      2.637970     -0.289805
  B       1.289677     -2.631007     -0.392905
  B      -1.171361     -2.625405     -0.262785
  B       2.428587     -0.021055     -1.676711
  B      -2.355371      0.040823     -1.482157
  B      -0.011656      2.421725     -1.238748
  B      -0.001664     -2.418549     -1.216692
12
Coordinates from ORCA-job input E -296.115738957863
  B      -0.110467     -0.066062      2.976311
  B       2.438982      0.010752      1.299793
  B      -1.353823      2.303526      1.216264
  B      -1.303304     -2.278394      1.278843
  B       1.249453      2.551083     -0.354217
  B      -1.166928      2.591104     -0.289046
  B       1.279331     -2.576436     -0.382191
  B      -1.146528     -2.568067     -0.260030
  B       2.405514     -0.023640     -1.629200
  B      -2.295630      0.051065     -1.447627
  B       0.000566      2.380507     -1.213666
  B       0.002833     -2.375437     -1.195236
12
Coordinates from ORCA-job input E -296.141917349325
  B      -0.124327     -0.089970      2.891107
  B       2.362898      0.006472      1.216932
  B      -1.351728      2.246388      1.224089
  B      -1.272806     -2.196557      1.314436
  B       1.226703      2.485802     -0.346016
  B      -1.149969      2.546457     -0.293727
  B       1.268695     -2.524817     -0.372400
  B      -1.123014     -2.513498     -0.263658
  B       2.381276     -0.027078     -1.576483
  B      -2.233953      0.061521     -1.416105
  B       0.009629      2.342341     -1.194839
  B       0.006597     -2.337060     -1.183336
12
Coordinates from ORCA-job input E -296.160664868578
  B      -0.136049     -0.109578      2.835168
  B       2.310640      0.002038      1.163107
  B      -1.350582      2.207374      1.230111
  B      -1.246506     -2.134557      1.346278
  B       1.212605      2.442351     -0.338948
  B      -1.140394      2.518232     -0.296603
  B       1.261636     -2.491795     -0.366141
  B      -1.107405     -2.477696     -0.267660
  B       2.365056     -0.029798     -1.540820
  B      -2.194663      0.068623     -1.396955
  B       0.016034      2.319327     -1.186253
  B       0.009629     -2.314521     -1.181284
12
Coordinates from ORCA-job input E -296.173656050672
  B      -0.145705     -0.123751      2.796552
  B       2.276362     -0.001253      1.126923
  B      -1.349111      2.180254      1.231987
  B      -1.227666     -2.091905      1.363686
  B       1.202992      2.412777     -0.334152
  B      -1.132637      2.498636     -0.297971
  B       1.256449     -2.468821     -0.361614
  B      -1.096866     -2.452873     -0.267259
  B       2.353908     -0.031255     -1.517549
  B      -2.169655      0.073251     -1.383081
  B       0.019837      2.303801     -1.179278
  B       0.012091     -2.298861     -1.178242
12
Coordinates from ORCA-job input E -296.192888872682
  B      -0.160521     -0.142951      2.738937
  B       2.225878     -0.006465      1.072790
  B      -1.346514      2.138207      1.234611
  B      -1.198359     -2.026594      1.386247
  B       1.188176      2.367107     -0.327459
  B      -1.121508      2.468009     -0.299334
  B       1.248196     -2.433557     -0.354379
  B      -1.080124     -2.414589     -0.267420
  B       2.337139     -0.033833     -1.482306
  B      -2.133205      0.080012     -1.361629
  B       0.025985      2.279438     -1.167830
  B       0.014858     -2.274783     -1.172230
12
Coordinates from ORCA-job input E -296.218849291650
  B      -0.170603     -0.177656      2.660723
  B       2.150087     -0.012069      0.997832
  B      -1.349355      2.089160      1.236935
  B      -1.157155     -1.940033      1.413593
  B       1.163980      2.306905     -0.320296
  B      -1.106361      2.430509     -0.299648
  B       1.239700     -2.385971     -0.340702
  B      -1.055987     -2.363649     -0.267227
  B       2.308786     -0.040241     -1.431095
  B      -2.074152      0.091151     -1.332853
  B       0.037807      2.244609     -1.153803
  B       0.013253     -2.242715     -1.163459
12
Coordinates from ORCA-job input E -296.248041103955
  B      -0.188159     -0.202782      2.591343
  B       2.088901     -0.021668      0.933732
  B      -1.340991      2.019488      1.237437
  B      -1.112864     -1.840966      1.443962
  B       1.148838      2.240999     -0.308346
  B      -1.094399      2.383612     -0.308339
  B       1.228236     -2.333349     -0.329415
  B      -1.039002     -2.307784     -0.271598
  B       2.288795     -0.042545     -1.381367
  B      -2.035359      0.100493     -1.304583
  B       0.039803      2.211359     -1.141780
  B       0.016202     -2.206857     -1.161046
12
Coordinates from ORCA-job input E -296.273423284320
  B      -0.210798     -0.224333      2.534343
  B       2.051234     -0.031213      0.892795
  B      -1.335677      1.960046      1.237214
  B      -1.076634     -1.757881      1.467864
  B       1.141063      2.194277     -0.301713
  B      -1.092838      2.348118     -0.310437
  B       1.221580     -2.297447     -0.320977
  B      -1.028150     -2.263224     -0.271988
  B       2.281089     -0.044775     -1.351489
  B      -2.015802      0.108295     -1.281395
  B       0.045248      2.188798     -1.134945
  B       0.019685     -2.180662     -1.159272
12
Coordinates from ORCA-job input E -296.292582957830
  B      -0.227921     -0.231087      2.498142
  B       2.027999     -0.036300      0.868077
  B      -1.327961      1.914839      1.238889
  B      -1.054038     -1.701580      1.479236
  B       1.137329      2.161963     -0.297121
  B      -1.091796      2.322137     -0.311666
  B       1.217760     -2.273296     -0.315258
  B      -1.022312     -2.233524     -0.272501
  B       2.277092     -0.046366     -1.332363
  B      -2.005722      0.112900     -1.264439
  B       0.046864      2.174338     -1.130583
  B       0.022705     -2.164024     -1.160413
12
Coordinates from ORCA-job input E -296.320772553270
  B      -0.254945     -0.232627      2.444562
  B       1.993918     -0.042672      0.831932
  B      -1.314043      1.842384      1.245040
  B      -1.020410     -1.614327      1.493274
  B       1.130857      2.112202     -0.290734
  B      -1.090833      2.280999     -0.311334
  B       1.210727     -2.237263     -0.306893
  B      -1.010997     -2.189173     -0.276915
  B       2.270757     -0.049959     -1.304042
  B      -1.990870      0.119119     -1.239892
  B       0.049877      2.151307     -1.122821
  B       0.025961     -2.139990     -1.162177
12
Coordinates from ORCA-job input E -296.360224010671
  B      -0.287638     -0.212240      2.373914
  B       1.945646     -0.047551      0.782479
  B      -1.287634      1.730108      1.255558
  B      -0.975533     -1.485034      1.506387
  B       1.119373      2.032703     -0.280134
  B      -1.090483      2.213641     -0.307208
  B       1.196678     -2.182413     -0.296555
  B      -0.994910     -2.125883     -0.292387
  B       2.259149     -0.057098     -1.258806
  B      -1.967838      0.126247     -1.204692
  B       0.051984      2.113122     -1.107739
  B       0.031207     -2.105602     -1.170816
12
Coordinates from ORCA-job input E -296.431852142789
  B      -0.313054     -0.184264      2.334107
  B       1.909923     -0.053551      0.756692
  B      -1.253101      1.607525      1.262669
  B      -0.940296     -1.357692      1.493177
  B       1.126946      1.961033     -0.267222
  B      -1.115295      2.155061     -0.305065
  B       1.194122     -2.139258     -0.281807
  B      -1.005664     -2.063311     -0.296301
  B       2.270249     -0.067716     -1.222423
  B      -1.967505      0.133551     -1.159349
  B       0.044265      2.092476     -1.112341
  B       0.049412     -2.083853     -1.202135
12
Coordinates from ORCA-job input E -296.499117940933
  B      -0.326763     -0.154083      2.307273
  B       1.884980     -0.054279      0.741311
  B      -1.234464      1.555990      1.255757
  B      -0.955728     -1.334788      1.450323
  B       1.163343      1.928000     -0.246063
  B      -1.139803      2.123149     -0.282351
  B       1.203257     -2.108329     -0.276436
  B      -1.020063     -2.030360     -0.254535
  B       2.278681     -0.070601     -1.221702
  B      -1.969213      0.134421     -1.120319
  B       0.041782      2.078928     -1.134825
  B       0.073991     -2.068047     -1.218433
12
Coordinates from ORCA-job input E -296.590234762524
  B      -0.347823     -0.114041      2.227361
  B       1.842604     -0.050040      0.702863
  B      -1.198047      1.459784      1.241923
  B      -0.952498     -1.277988      1.383601
  B       1.192511      1.857156     -0.215435
  B      -1.157431      2.061839     -0.251408
  B       1.219140     -2.045911     -0.250010
  B      -1.022534     -1.968453     -0.204491
  B       2.274903     -0.076523     -1.192231
  B      -1.964851      0.143560     -1.061728
  B       0.035885      2.049308     -1.148742
  B       0.078143     -2.038690     -1.231704
12
Coordinates from ORCA-job input E -296.661979178807
  B      -0.370317     -0.067432      2.124452
  B       1.827373     -0.035503      0.658977
  B      -1.160139      1.382111      1.226626
  B      -0.957127     -1.242823      1.297463
  B       1.214041      1.788300     -0.190215
  B      -1.166778      2.012380     -0.214484
  B       1.233904     -1.991468     -0.221446
  B      -1.028228     -1.919660     -0.153200
  B       2.259525     -0.077549     -1.147857
  B      -1.953724      0.143361     -0.995880
  B       0.027574      2.023915     -1.150537
  B       0.073896     -2.015633     -1.233899
12
Coordinates from ORCA-job input E -296.706872981657
  B      -0.387831     -0.026448      2.059768
  B       1.801643     -0.024482      0.623248
  B      -1.127457      1.314804      1.234810
  B      -0.954054     -1.196253      1.265130
  B       1.221703      1.731457     -0.177280
  B      -1.170289      1.973467     -0.195977
  B       1.235672     -1.946675     -0.205454
  B      -1.028036     -1.889544     -0.144239
  B       2.243909     -0.078686     -1.115130
  B      -1.936824      0.140149     -0.960626
  B       0.026040      2.002239     -1.146473
  B       0.075524     -2.000028     -1.237777
12
Coordinates from ORCA-job input E -296.760519420411
  B      -0.406562      0.030186      1.974509
  B       1.767705     -0.007621      0.570415
  B      -1.086762      1.236938      1.240794
  B      -0.957399     -1.156418      1.206785
  B       1.233649      1.648986     -0.161364
  B      -1.177086      1.925415     -0.167564
  B       1.244014     -1.880042     -0.180012
  B      -1.028070     -1.850861     -0.125569
  B       2.219724     -0.080118     -1.068154
  B      -1.909309      0.138312     -0.906703
  B       0.025759      1.973174     -1.143009
  B       0.074338     -1.977951     -1.240128
12
Coordinates from ORCA-job input E -296.810071105267
  B      -0.388395      0.058551      1.969304
  B       1.709763     -0.009152      0.528678
  B      -1.083445      1.219109      1.216425
  B      -0.938061     -1.112458      1.195569
  B       1.223684      1.541677     -0.159361
  B      -1.200709      1.874577     -0.156164
  B       1.238505     -1.800086     -0.174881
  B      -1.013042     -1.811965     -0.154368
  B       2.184980     -0.092565     -1.015281
  B      -1.855751      0.143975     -0.849272
  B       0.036817      1.933121     -1.139165
  B       0.085653     -1.944784     -1.261483
12
Coordinates from ORCA-job input E -296.842704722018
  B      -0.378132      0.080497      1.989987
  B       1.668951     -0.009132      0.515653
  B      -1.080435      1.212374      1.221343
  B      -0.940573     -1.110662      1.187609
  B       1.216775      1.477968     -0.166939
  B      -1.208250      1.848584     -0.165930
  B       1.236777     -1.738460     -0.175320
  B      -1.006842     -1.794149     -0.173571
  B       2.155916     -0.099872     -0.999516
  B      -1.806432      0.150702     -0.816029
  B       0.045881      1.905748     -1.142628
  B       0.096367     -1.923600     -1.274659
12
Coordinates from ORCA-job input E -296.887296600259
  B      -0.361632      0.086997      2.017087
  B       1.607370     -0.023768      0.512917
  B      -1.075187      1.179530      1.227505
  B      -0.931277     -1.069259      1.209373
  B       1.199543      1.392817     -0.178650
  B      -1.216251      1.799637     -0.197472
  B       1.222400     -1.648194     -0.181208
  B      -0.996280     -1.750149     -0.209347
  B       2.106675     -0.110530     -0.980262
  B      -1.728703      0.162401     -0.772234
  B       0.053633      1.866913     -1.152065
  B       0.119709     -1.886395     -1.295645
12
Coordinates from ORCA-job input E -296.927714150247
  B      -0.321688      0.083244      2.057341
  B       1.552759     -0.043201      0.523629
  B      -1.081472      1.191021      1.211782
  B      -0.933674     -1.086196      1.200251
  B       1.181684      1.327956     -0.194655
  B      -1.228691      1.767913     -0.224100
  B       1.215884     -1.567345     -0.180390
  B      -0.987751     -1.711524     -0.228938
  B       2.051337     -0.120918     -0.962971
  B      -1.645327      0.173948     -0.721394
  B       0.062089      1.836860     -1.168924
  B       0.134850     -1.851756     -1.311632
12
Coordinates from ORCA-job input E -296.963924029975
  B      -0.314133      0.088949      2.075315
  B       1.498385     -0.066454      0.562058
  B      -1.061320      1.161688      1.223764
  B      -0.936535     -1.050722      1.205482
  B       1.166552      1.287802     -0.215703
  B      -1.231488      1.721557     -0.248117
  B       1.201985     -1.501170     -0.186849
  B      -0.982299     -1.651189     -0.254878
  B       1.989963     -0.133927     -0.964904
  B      -1.555368      0.162854     -0.673435
  B       0.060607      1.802271     -1.184831
  B       0.163651     -1.821660     -1.337901
12
Coordinates from ORCA-job input E -296.993679589459
  B      -0.279839      0.083412      2.075110
  B       1.444154     -0.082225      0.611867
  B      -1.043781      1.167271      1.216655
  B      -0.934852     -1.032969      1.198160
  B       1.165398      1.250535     -0.223465
  B      -1.239529      1.707469     -0.266193
  B       1.185517     -1.453665     -0.189714
  B      -0.973046     -1.597813     -0.280768
  B       1.919458     -0.136369     -0.956705
  B      -1.472723      0.120893     -0.631534
  B       0.050258      1.779386     -1.193123
  B       0.178984     -1.805925     -1.360290
12
Coordinates from ORCA-job input E -297.019232122756
  B      -0.241077      0.081466      2.048083
  B       1.391513     -0.090217      0.673630
  B      -1.027952      1.169609      1.193749
  B      -0.929110     -1.018461      1.188293
  B       1.163634      1.232107     -0.233721
  B      -1.257534      1.688225     -0.280821
  B       1.175542     -1.438563     -0.190103
  B      -0.965730     -1.552367     -0.297447
  B       1.857036     -0.135687     -0.948290
  B      -1.398048      0.115053     -0.579389
  B       0.037399      1.761056     -1.184602
  B       0.194327     -1.812224     -1.389380
12
Coordinates from ORCA-job input E -297.041681155627
  B      -0.197271      0.080961      1.986506
  B       1.332348     -0.102081      0.717309
  B      -1.006809      1.192034      1.174019
  B      -0.921394     -1.027743      1.173045
  B       1.174834      1.215329     -0.239186
  B      -1.285078      1.717067     -0.288479
  B       1.164423     -1.430583     -0.184464
  B      -0.948099     -1.542630     -0.314160
  B       1.794794     -0.139525     -0.928613
  B      -1.335365      0.102028     -0.534848
  B       0.013915      1.766796     -1.165382
  B       0.213702     -1.831652     -1.395745
12
Coordinates from ORCA-job input E -297.063105921576
  B      -0.158816      0.087674      1.931707
  B       1.278152     -0.109117      0.761225
  B      -0.995410      1.207141      1.143110
  B      -0.913626     -1.038516      1.157683
  B       1.185809      1.213496     -0.256030
  B      -1.327603      1.734576     -0.289783
  B       1.157435     -1.452149     -0.178052
  B      -0.926439     -1.537959     -0.331977
  B       1.758468     -0.145953     -0.918447
  B      -1.283179      0.130183     -0.482933
  B      -0.006118      1.774715     -1.133745
  B       0.231328     -1.864093     -1.402758
12
Coordinates from ORCA-job input E -297.082293090916
  B      -0.141698      0.107829      1.877715
  B       1.223164     -0.117112      0.776553
  B      -0.986636      1.237472      1.123617
  B      -0.914107     -1.054056      1.147242
  B       1.202620      1.212955     -0.284493
  B      -1.367022      1.777025     -0.281593
  B       1.152428     -1.477370     -0.173140
  B      -0.895791     -1.549783     -0.352213
  B       1.729976     -0.160678     -0.911988
  B      -1.234711      0.144227     -0.435368
  B      -0.030168      1.786373     -1.077946
  B       0.261945     -1.906883     -1.408386
12
Coordinates from ORCA-job input E -297.099641336179
  B      -0.158716      0.132670      1.854216
  B       1.185810     -0.130159      0.774771
  B      -0.994637      1.257137      1.115603
  B      -0.907305     -1.058361      1.133826
  B       1.228026      1.197790     -0.328459
  B      -1.414946      1.817023     -0.267303
  B       1.147661     -1.511013     -0.172821
  B      -0.845327     -1.552817     -0.373642
  B       1.713805     -0.183015     -0.913445
  B      -1.193260      0.179565     -0.387571
  B      -0.055115      1.798562     -1.027523
  B       0.294004     -1.947383     -1.407652
12
Coordinates from ORCA-job input E -297.136335331179
  B      -0.241383      0.233357      1.794929
  B       1.055380     -0.151753      0.717512
  B      -1.037858      1.360014      1.122212
  B      -0.881958     -1.029446      1.093112
  B       1.242179      1.135488     -0.453316
  B      -1.493395      1.946979     -0.209794
  B       1.159823     -1.599686     -0.163392
  B      -0.692995     -1.558705     -0.426745
  B       1.678508     -0.291169     -0.925891
  B      -1.062128      0.257432     -0.253641
  B      -0.150521      1.800179     -0.819676
  B       0.424350     -2.102690     -1.475309
12
Coordinates from ORCA-job input E -297.147283186144
  B      -0.247951      0.235073      1.811070
  B       1.029060     -0.182804      0.719080
  B      -1.085431      1.394391      1.151990
  B      -0.842371     -1.018581      1.061156
  B       1.250188      1.106512     -0.502081
  B      -1.562512      1.989421     -0.196992
  B       1.153697     -1.639930     -0.157339
  B      -0.643341     -1.524777     -0.443103
  B       1.680348     -0.334480     -0.938351
  B      -1.047219      0.277302     -0.228261
  B      -0.141325      1.805243     -0.811886
  B       0.456857     -2.107370     -1.465282
12
Coordinates from ORCA-job input E -297.154089976579
  B      -0.254995      0.219680      1.801994
  B       1.006429     -0.209664      0.700664
  B      -1.107809      1.427789      1.171476
  B      -0.812024     -1.048517      1.063386
  B       1.238347      1.080349     -0.530562
  B      -1.562971      2.014356     -0.205759
  B       1.152909     -1.657265     -0.137152
  B      -0.621593     -1.512324     -0.438851
  B       1.664941     -0.347607     -0.934843
  B      -1.033440      0.322042     -0.216778
  B      -0.159123      1.804774     -0.807987
  B       0.489329     -2.093613     -1.465587
12
Coordinates from ORCA-job input E -297.165193675240
  B      -0.297444      0.243076      1.798118
  B       0.981227     -0.240473      0.673803
  B      -1.146730      1.487421      1.201143
  B      -0.777644     -1.071896      1.066574
  B       1.210016      1.056248     -0.571374
  B      -1.569613      2.035124     -0.191371
  B       1.168475     -1.695318     -0.098320
  B      -0.593276     -1.494117     -0.443839
  B       1.666091     -0.400959     -0.950441
  B      -1.002424      0.350008     -0.187704
  B      -0.171768      1.810168     -0.793899
  B       0.533089     -2.079281     -1.502689
12
Coordinates from ORCA-job input E -297.175480184112
  B      -0.332656      0.270320      1.764333
  B       0.943675     -0.254525      0.646846
  B      -1.176007      1.524280      1.222932
  B      -0.741047     -1.059112      1.060051
  B       1.182982      1.000294     -0.605178
  B      -1.577231      2.041263     -0.162543
  B       1.168763     -1.738523     -0.060848
  B      -0.548458     -1.461175     -0.450514
  B       1.651961     -0.453906     -0.956656
  B      -0.961457      0.371304     -0.152714
  B      -0.190798      1.797028     -0.775732
  B       0.580274     -2.037248     -1.529977
12
Coordinates from ORCA-job input E -297.184458324254
  B      -0.374441      0.289940      1.751049
  B       0.912408     -0.273272      0.614968
  B      -1.192431      1.551711      1.254433
  B      -0.722260     -1.070546      1.074565
  B       1.154236      0.975121     -0.641517
  B      -1.577192      2.052139     -0.149255
  B       1.171940     -1.786534     -0.031446
  B      -0.509517     -1.441957     -0.459839
  B       1.627848     -0.515198     -0.971783
  B      -0.919440      0.385051     -0.127763
  B      -0.203525      1.808151     -0.780574
  B       0.632373     -1.974607     -1.532839
12
Coordinates from ORCA-job input E -297.191442989878
  B      -0.404720      0.288221      1.753041
  B       0.882945     -0.282090      0.596886
  B      -1.197277      1.552449      1.268738
  B      -0.720099     -1.084890      1.093924
  B       1.131235      0.948282     -0.690398
  B      -1.574097      2.061156     -0.137448
  B       1.164328     -1.821896      0.025264
  B      -0.488075     -1.420687     -0.466374
  B       1.600025     -0.536053     -0.996527
  B      -0.871255      0.377412     -0.101517
  B      -0.198118      1.828275     -0.803571
  B       0.675109     -1.910179     -1.542017
12
Coordinates from ORCA-job input E -297.193799957256
  B      -0.409765      0.263047      1.760474
  B       0.836661     -0.285790      0.586311
  B      -1.206269      1.562538      1.275171
  B      -0.699497     -1.106754      1.086115
  B       1.094104      0.937950     -0.727569
  B      -1.573288      2.090516     -0.135915
  B       1.157082     -1.848053      0.053290
  B      -0.462855     -1.399728     -0.469457
  B       1.562681     -0.584727     -1.011513
  B      -0.824570      0.387116     -0.073785
  B      -0.203400      1.858210     -0.818341
  B       0.729117     -1.874325     -1.524780
12
Coordinates from ORCA-job input E -297.196962747839
  B      -0.422472      0.254905      1.786944
  B       0.816255     -0.244996      0.587449
  B      -1.197588      1.558797      1.283146
  B      -0.709023     -1.137914      1.088896
  B       1.100439      0.959776     -0.747127
  B      -1.555421      2.096480     -0.137571
  B       1.147766     -1.846301      0.062296
  B      -0.476586     -1.424795     -0.483770
  B       1.551263     -0.540084     -1.024648
  B      -0.798554      0.348922     -0.065737
  B      -0.183646      1.884112     -0.835955
  B       0.727568     -1.908901     -1.513924
12
Coordinates from ORCA-job input E -297.199183899695
  B      -0.396927      0.230625      1.785681
  B       0.837373     -0.250725      0.595472
  B      -1.178256      1.517328      1.262063
  B      -0.716870     -1.126834      1.069384
  B       1.092090      0.958214     -0.745676
  B      -1.566404      2.109098     -0.126804
  B       1.142026     -1.814265      0.083396
  B      -0.490409     -1.414551     -0.501701
  B       1.543498     -0.540925     -1.017993
  B      -0.812836      0.370267     -0.065075
  B      -0.191337      1.912030     -0.842727
  B       0.738053     -1.950261     -1.496020
12
Coordinates from ORCA-job input E -297.201985627699
  B      -0.405635      0.232488      1.787405
  B       0.840725     -0.242077      0.585278
  B      -1.177193      1.530736      1.276557
  B      -0.720585     -1.134129      1.044914
  B       1.068812      0.940864     -0.758022
  B      -1.556679      2.123808     -0.106917
  B       1.139286     -1.804018      0.089528
  B      -0.486109     -1.412440     -0.527064
  B       1.509051     -0.548346     -1.024574
  B      -0.801968      0.385147     -0.056220
  B      -0.194810      1.903219     -0.837554
  B       0.785103     -1.975254     -1.473332
12
Coordinates from ORCA-job input E -297.205670671128
  B      -0.410749      0.221011      1.797375
  B       0.824007     -0.230657      0.586319
  B      -1.182745      1.539732      1.304674
  B      -0.709739     -1.114987      0.999888
  B       1.016950      0.929993     -0.779117
  B      -1.542741      2.149751     -0.086536
  B       1.125723     -1.806627      0.104753
  B      -0.459714     -1.389317     -0.567046
  B       1.472235     -0.571505     -1.042752
  B      -0.770765      0.400508     -0.045030
  B      -0.212518      1.915742     -0.828087
  B       0.850056     -2.043644     -1.444439
12
Coordinates from ORCA-job input E -297.208772089507
  B      -0.415657      0.209274      1.797391
  B       0.836637     -0.218462      0.593114
  B      -1.183713      1.540444      1.333236
  B      -0.710862     -1.113265      0.964397
  B       0.977226      0.914007     -0.803660
  B      -1.535289      2.169879     -0.055855
  B       1.107861     -1.798244      0.138676
  B      -0.439123     -1.368146     -0.613947
  B       1.437742     -0.586972     -1.061269
  B      -0.753881      0.414083     -0.042517
  B      -0.222793      1.937415     -0.834749
  B       0.901852     -2.100012     -1.414816
12
Coordinates from ORCA-job input E -297.211658802976
  B      -0.434551      0.195894      1.809078
  B       0.864330     -0.203585      0.618464
  B      -1.188330      1.525897      1.349066
  B      -0.710680     -1.110473      0.942186
  B       0.942131      0.898493     -0.835268
  B      -1.521576      2.174184     -0.027662
  B       1.089888     -1.798528      0.162118
  B      -0.418488     -1.325431     -0.649332
  B       1.417094     -0.598616     -1.087147
  B      -0.740426      0.425689     -0.045050
  B      -0.230629      1.957682     -0.850577
  B       0.931238     -2.141206     -1.385877
12
Coordinates from ORCA-job input E -297.213477278610
  B      -0.440391      0.178762      1.781415
  B       0.893813     -0.181745      0.632219
  B      -1.211690      1.513014      1.383370
  B      -0.692033     -1.114654      0.924332
  B       0.918403      0.886646     -0.860416
  B      -1.506318      2.168351     -0.000098
  B       1.049426     -1.794024      0.192182
  B      -0.404205     -1.288992     -0.670396
  B       1.403272     -0.608155     -1.099407
  B      -0.730225      0.428882     -0.048104
  B      -0.226544      1.976356     -0.875803
  B       0.946491     -2.164441     -1.359294
12
Coordinates from ORCA-job input E -297.214675270695
  B      -0.464167      0.166432      1.805807
  B       0.904349     -0.168634      0.660570
  B      -1.228490      1.495323      1.389635
  B      -0.666579     -1.125597      0.921285
  B       0.894994      0.861111     -0.893922
  B      -1.489693      2.163725      0.007381
  B       1.028272     -1.795596      0.203207
  B      -0.388072     -1.233574     -0.679883
  B       1.407178     -0.621606     -1.126438
  B      -0.718056      0.443146     -0.052944
  B      -0.226068      1.978819     -0.889705
  B       0.946333     -2.163548     -1.344994
12
Coordinates from ORCA-job input E -297.215414152177
  B      -0.465439      0.162130      1.804057
  B       0.910918     -0.148773      0.659039
  B      -1.249880      1.479946      1.397053
  B      -0.648220     -1.123543      0.921395
  B       0.885935      0.853569     -0.905249
  B      -1.474326      2.153234      0.015586
  B       1.004614     -1.794184      0.212066
  B      -0.394014     -1.211375     -0.686279
  B       1.420176     -0.632100     -1.136603
  B      -0.714601      0.440636     -0.054513
  B      -0.219569      1.978282     -0.893675
  B       0.944406     -2.157821     -1.332876
12
Coordinates from ORCA-job input E -297.216204311521
  B      -0.462546      0.160932      1.801362
  B       0.904869     -0.128428      0.647370
  B      -1.284628      1.469535      1.411754
  B      -0.605467     -1.126767      0.915390
  B       0.876697      0.836385     -0.919958
  B      -1.465025      2.152512      0.026954
  B       0.966780     -1.786802      0.223345
  B      -0.394849     -1.191741     -0.700848
  B       1.441100     -0.645994     -1.150094
  B      -0.712960      0.447807     -0.053327
  B      -0.209400      1.977462     -0.886946
  B       0.945428     -2.164899     -1.315003
12
Coordinates from ORCA-job input E -297.216643049533
  B      -0.459442      0.168879      1.811268
  B       0.895768     -0.117939      0.632790
  B      -1.295695      1.458973      1.415501
  B      -0.600263     -1.117335      0.923562
  B       0.876804      0.826160     -0.927348
  B      -1.463124      2.147751      0.030191
  B       0.955745     -1.786448      0.223689
  B      -0.403805     -1.186891     -0.714672
  B       1.455132     -0.649587     -1.157184
  B      -0.711453      0.439400     -0.051753
  B      -0.199820      1.978083     -0.879104
  B       0.950153     -2.161048     -1.306941
12
Coordinates from ORCA-job input E -297.216985078608
  B      -0.451160      0.167535      1.814696
  B       0.896102     -0.114034      0.622682
  B      -1.291083      1.457355      1.414764
  B      -0.601455     -1.118909      0.921911
  B       0.870757      0.824805     -0.929380
  B      -1.468410      2.146131      0.032430
  B       0.940480     -1.788882      0.230986
  B      -0.394917     -1.177343     -0.725749
  B       1.456879     -0.650859     -1.161744
  B      -0.716850      0.441732     -0.054966
  B      -0.198813      1.981564     -0.870473
  B       0.958470     -2.169094     -1.295157
12
Coordinates from ORCA-job input E -297.217443962654
  B      -0.441502      0.172849      1.815269
  B       0.895948     -0.110647      0.617924
  B      -1.280893      1.458342      1.413668
  B      -0.598833     -1.120640      0.922482
  B       0.866746      0.817669     -0.931549
  B      -1.482071      2.137511      0.032959
  B       0.919410     -1.793394      0.239927
  B      -0.383707     -1.158225     -0.739148
  B       1.458935     -0.652853     -1.168738
  B      -0.726591      0.437555     -0.061097
  B      -0.195618      1.989757     -0.855445
  B       0.968176     -2.177922     -1.286252
12
Coordinates from ORCA-job input E -297.218075536944
  B      -0.422362      0.180499      1.815453
  B       0.893805     -0.107530      0.616097
  B      -1.265765      1.462311      1.412165
  B      -0.594509     -1.122755      0.928127
  B       0.861235      0.811853     -0.931095
  B      -1.502434      2.122318      0.025326
  B       0.891389     -1.806743      0.244713
  B      -0.370085     -1.123192     -0.752943
  B       1.458625     -0.653056     -1.175360
  B      -0.744044      0.429491     -0.073632
  B      -0.188315      1.993931     -0.832932
  B       0.982460     -2.187128     -1.275919
12
Coordinates from ORCA-job input E -297.218788970675
  B      -0.399563      0.194964      1.805403
  B       0.889614     -0.100477      0.616472
  B      -1.254200      1.470068      1.406647
  B      -0.574263     -1.128484      0.940454
  B       0.859180      0.802664     -0.926284
  B      -1.526992      2.101412      0.013727
  B       0.854315     -1.825840      0.246282
  B      -0.362315     -1.080730     -0.764129
  B       1.461948     -0.657803     -1.181219
  B      -0.766678      0.418327     -0.086010
  B      -0.177957      1.997917     -0.800593
  B       0.996911     -2.192018     -1.270750
12
Coordinates from ORCA-job input E -297.219319182829
  B      -0.385431      0.210505      1.793152
  B       0.885519     -0.100542      0.620653
  B      -1.245062      1.484081      1.395772
  B      -0.558497     -1.130005      0.958691
  B       0.866371      0.803721     -0.915047
  B      -1.548131      2.091448     -0.002155
  B       0.839885     -1.851167      0.232939
  B      -0.363591     -1.062618     -0.765059
  B       1.457875     -0.657529     -1.178132
  B      -0.786212      0.412762     -0.087928
  B      -0.172343      1.995645     -0.773342
  B       1.009617     -2.196300     -1.279544
12
Coordinates from ORCA-job input E -297.219890248333
  B      -0.382994      0.215756      1.786941
  B       0.886152     -0.090170      0.620823
  B      -1.254161      1.483355      1.388082
  B      -0.515377     -1.141524      0.979849
  B       0.869221      0.802180     -0.916571
  B      -1.555781      2.082045     -0.017658
  B       0.799757     -1.868153      0.226971
  B      -0.365630     -1.031243     -0.764947
  B       1.450491     -0.662586     -1.182910
  B      -0.796585      0.408962     -0.084159
  B      -0.158809      1.997450     -0.756000
  B       1.023717     -2.196073     -1.280422
12
Coordinates from ORCA-job input E -297.220579515117
  B      -0.391306      0.221615      1.785616
  B       0.891439     -0.086770      0.615856
  B      -1.263539      1.485912      1.371792
  B      -0.493661     -1.142191      1.005423
  B       0.886285      0.811969     -0.912486
  B      -1.557830      2.085966     -0.031252
  B       0.788298     -1.887672      0.211299
  B      -0.378763     -1.038333     -0.754417
  B       1.445252     -0.660207     -1.179945
  B      -0.802186      0.408609     -0.067246
  B      -0.155066      1.993097     -0.746577
  B       1.031077     -2.191994     -1.298063
12
Coordinates from ORCA-job input E -297.221198758604
  B      -0.387382      0.228493      1.792943
  B       0.896924     -0.071877      0.603090
  B      -1.266261      1.486202      1.353621
  B      -0.464302     -1.148958      1.036609
  B       0.905047      0.820265     -0.908282
  B      -1.569976      2.082909     -0.050721
  B       0.754778     -1.913835      0.197599
  B      -0.385373     -1.026131     -0.751283
  B       1.441977     -0.653698     -1.180172
  B      -0.821549      0.398987     -0.064951
  B      -0.145155      1.992657     -0.722938
  B       1.041273     -2.195015     -1.305516
12
Coordinates from ORCA-job input E -297.221885779386
  B      -0.389065      0.234699      1.798091
  B       0.889475     -0.056264      0.587184
  B      -1.259388      1.490907      1.333288
  B      -0.425533     -1.161506      1.069837
  B       0.928595      0.833588     -0.901572
  B      -1.583548      2.091601     -0.068815
  B       0.726881     -1.944473      0.189810
  B      -0.394261     -1.031690     -0.751376
  B       1.432574     -0.647607     -1.174354
  B      -0.843232      0.388402     -0.063085
  B      -0.135461      1.993284     -0.700428
  B       1.052964     -2.190941     -1.318579
12
Coordinates from ORCA-job input E -297.223023158790
  B      -0.397914      0.240226      1.807350
  B       0.876301     -0.037677      0.573523
  B      -1.248603      1.493075      1.307709
  B      -0.373137     -1.175556      1.112852
  B       0.962998      0.853243     -0.894755
  B      -1.593608      2.100469     -0.086683
  B       0.702530     -1.982584      0.179073
  B      -0.411682     -1.041947     -0.745846
  B       1.434546     -0.631677     -1.165885
  B      -0.871134      0.370118     -0.074593
  B      -0.125846      1.990570     -0.680395
  B       1.045549     -2.178260     -1.332351
12
Coordinates from ORCA-job input E -297.225286588606
  B      -0.420326      0.233265      1.816147
  B       0.846304     -0.008383      0.560809
  B      -1.233172      1.488614      1.289152
  B      -0.311796     -1.194624      1.159192
  B       0.993310      0.873380     -0.894426
  B      -1.592528      2.124735     -0.088921
  B       0.691929     -2.029807      0.182534
  B      -0.421890     -1.066644     -0.746696
  B       1.438089     -0.611697     -1.156430
  B      -0.893162      0.351080     -0.107533
  B      -0.117107      1.994637     -0.676417
  B       1.020351     -2.154556     -1.337411
12
Coordinates from ORCA-job input E -297.228576009422
  B      -0.442423      0.214182      1.814592
  B       0.808673      0.025520      0.555159
  B      -1.221079      1.475353      1.280864
  B      -0.252185     -1.218990      1.195632
  B       1.005005      0.884933     -0.902799
  B      -1.583822      2.149186     -0.075433
  B       0.685341     -2.076402      0.205235
  B      -0.413505     -1.078934     -0.755807
  B       1.446037     -0.595847     -1.156676
  B      -0.903561      0.341580     -0.155676
  B      -0.110217      2.006983     -0.683118
  B       0.981736     -2.127564     -1.321972
12
Coordinates from ORCA-job input E -297.233797338834
  B      -0.460292      0.180041      1.796114
  B       0.768063      0.050262      0.549819
  B      -1.209672      1.455838      1.278009
  B      -0.212841     -1.254379      1.230785
  B       0.997044      0.894721     -0.920561
  B      -1.567165      2.169187     -0.053639
  B       0.684458     -2.124179      0.243814
  B      -0.380014     -1.077731     -0.765458
  B       1.448868     -0.583230     -1.169258
  B      -0.896213      0.351692     -0.203889
  B      -0.109443      2.028607     -0.701550
  B       0.937207     -2.090829     -1.284185
12
Coordinates from ORCA-job input E -297.240469700226
  B      -0.482227      0.145816      1.787944
  B       0.736892      0.059856      0.517662
  B      -1.201231      1.438805      1.282882
  B      -0.187950     -1.294837      1.263509
  B       0.973682      0.896360     -0.946727
  B      -1.554311      2.191807     -0.038756
  B       0.672246     -2.179603      0.287963
  B      -0.340534     -1.053217     -0.766744
  B       1.449140     -0.573634     -1.190520
  B      -0.880897      0.376026     -0.235363
  B      -0.110770      2.050382     -0.717938
  B       0.925961     -2.057761     -1.243910
12
Coordinates from ORCA-job input E -297.248634761689
  B      -0.496193      0.106466      1.758655
  B       0.748289      0.013860      0.444976
  B      -1.200469      1.437003      1.286359
  B      -0.199934     -1.355158      1.298340
  B       0.935300      0.907456     -0.974189
  B      -1.543177      2.207030     -0.048501
  B       0.656718     -2.238323      0.328688
  B      -0.308851     -0.993817     -0.731656
  B       1.447049     -0.565156     -1.220323
  B      -0.874676      0.451516     -0.217918
  B      -0.127528      2.057994     -0.728101
  B       0.963472     -2.028870     -1.196331
12
Coordinates from ORCA-job input E -297.253242644273
  B      -0.486138      0.094550      1.733404
  B       0.767662     -0.000241      0.423448
  B      -1.201962      1.432767      1.266286
  B      -0.164302     -1.372818      1.324674
  B       0.976658      0.945210     -0.977097
  B      -1.548704      2.199472     -0.065757
  B       0.625022     -2.276874      0.332312
  B      -0.347123     -1.005327     -0.704148
  B       1.473965     -0.526506     -1.226697
  B      -0.910945      0.464748     -0.218713
  B      -0.128572      2.056856     -0.716092
  B       0.944439     -2.011838     -1.171619
12
Coordinates from ORCA-job input E -297.256531745281
  B      -0.477023      0.089260      1.706015
  B       0.773360     -0.037806      0.431889
  B      -1.202626      1.444628      1.262682
  B      -0.158945     -1.388623      1.351464
  B       0.986258      0.959975     -0.992933
  B      -1.551771      2.177465     -0.078565
  B       0.600858     -2.309453      0.340892
  B      -0.348393     -0.983688     -0.686771
  B       1.478044     -0.502915     -1.257604
  B      -0.919857      0.467178     -0.220536
  B      -0.125971      2.061600     -0.708969
  B       0.946066     -1.977620     -1.147565
12
Coordinates from ORCA-job input E -297.259054813865
  B      -0.471653      0.101593      1.675063
  B       0.795666     -0.053560      0.419821
  B      -1.214096      1.456395      1.271622
  B      -0.138582     -1.385311      1.362414
  B       1.010610      0.977596     -0.993639
  B      -1.555674      2.163316     -0.085620
  B       0.567172     -2.327776      0.346029
  B      -0.371495     -0.994437     -0.686298
  B       1.466982     -0.487304     -1.272878
  B      -0.942108      0.454150     -0.221483
  B      -0.113396      2.056384     -0.685686
  B       0.966575     -1.961047     -1.129345
12
Coordinates from ORCA-job input E -297.260677035581
  B      -0.480457      0.111619      1.624799
  B       0.818331     -0.098029      0.408696
  B      -1.235809      1.463697      1.285231
  B      -0.145097     -1.374233      1.363067
  B       1.009739      0.987393     -0.998878
  B      -1.545964      2.159099     -0.071560
  B       0.560130     -2.333688      0.351165
  B      -0.364480     -1.012071     -0.685224
  B       1.453439     -0.471003     -1.314334
  B      -0.944124      0.459742     -0.211320
  B      -0.107411      2.062251     -0.670026
  B       0.981703     -1.954778     -1.081615
12
Coordinates from ORCA-job input E -297.262398001258
  B      -0.468068      0.122889      1.623866
  B       0.808798     -0.101766      0.375033
  B      -1.232741      1.458127      1.268585
  B      -0.119346     -1.368959      1.383699
  B       1.017689      0.992366     -0.991590
  B      -1.561475      2.174155     -0.075675
  B       0.520787     -2.354305      0.353481
  B      -0.360388     -1.010384     -0.688113
  B       1.445387     -0.463503     -1.324156
  B      -0.952506      0.441944     -0.225869
  B      -0.101264      2.055511     -0.632803
  B       1.003125     -1.946075     -1.066459
12
Coordinates from ORCA-job input E -297.263326638191
  B      -0.454285      0.144050      1.639810
  B       0.829654     -0.124791      0.381200
  B      -1.258455      1.451184      1.269446
  B      -0.138994     -1.343381      1.368623
  B       1.003397      0.967475     -0.987280
  B      -1.559732      2.179611     -0.072532
  B       0.506734     -2.318419      0.353830
  B      -0.362667     -1.003094     -0.703577
  B       1.437593     -0.480991     -1.351989
  B      -0.952659      0.430689     -0.212052
  B      -0.095693      2.042439     -0.613933
  B       1.045107     -1.944772     -1.071545
12
Coordinates from ORCA-job input E -297.264371613921
  B      -0.449312      0.145872      1.640153
  B       0.827148     -0.131245      0.380468
  B      -1.256748      1.448196      1.260873
  B      -0.131195     -1.341869      1.375547
  B       1.002918      0.971752     -0.985733
  B      -1.564816      2.192430     -0.071084
  B       0.493876     -2.322455      0.348155
  B      -0.352077     -1.011082     -0.709560
  B       1.424743     -0.475704     -1.366307
  B      -0.954504      0.426029     -0.221174
  B      -0.095291      2.049317     -0.599984
  B       1.055258     -1.951242     -1.051354
12
Coordinates from ORCA-job input E -297.265061310864
  B      -0.445579      0.148208      1.643315
  B       0.824797     -0.149938      0.377534
  B      -1.249056      1.447681      1.248325
  B      -0.135673     -1.341101      1.389534
  B       1.001126      0.976427     -0.976929
  B      -1.564469      2.205425     -0.069970
  B       0.485203     -2.319690      0.338794
  B      -0.343871     -1.028968     -0.708673
  B       1.408432     -0.468690     -1.378769
  B      -0.952324      0.425799     -0.225781
  B      -0.101124      2.050639     -0.595805
  B       1.072536     -1.945794     -1.041576
12
Coordinates from ORCA-job input E -297.265535059564
  B      -0.441275      0.145520      1.650596
  B       0.824510     -0.164381      0.385547
  B      -1.240812      1.446249      1.243870
  B      -0.144242     -1.355130      1.391668
  B       0.980930      0.966786     -0.974677
  B      -1.564958      2.207577     -0.069603
  B       0.471381     -2.305370      0.337934
  B      -0.323814     -1.017645     -0.713093
  B       1.393863     -0.465833     -1.404210
  B      -0.944418      0.433020     -0.232288
  B      -0.105330      2.059689     -0.595380
  B       1.094165     -1.950484     -1.020363
12
Coordinates from ORCA-job input E -297.266216593479
  B      -0.437775      0.144818      1.660039
  B       0.826016     -0.165899      0.393264
  B      -1.229498      1.444787      1.239484
  B      -0.145613     -1.357303      1.400916
  B       0.983574      0.970639     -0.961243
  B      -1.563514      2.205781     -0.073729
  B       0.466563     -2.299388      0.328822
  B      -0.334062     -1.029384     -0.710366
  B       1.385373     -0.461260     -1.401557
  B      -0.944525      0.429278     -0.241921
  B      -0.108086      2.063234     -0.606790
  B       1.101547     -1.945303     -1.026921
12
Coordinates from ORCA-job input E -297.267050191889
  B      -0.434049      0.138251      1.656464
  B       0.829709     -0.179367      0.396496
  B      -1.216385      1.449304      1.242393
  B      -0.146186     -1.368993      1.414591
  B       0.981722      0.972629     -0.941080
  B      -1.560646      2.193882     -0.080087
  B       0.461020     -2.299081      0.325015
  B      -0.349903     -1.036291     -0.698256
  B       1.382376     -0.452740     -1.401132
  B      -0.945542      0.437976     -0.253429
  B      -0.112062      2.074857     -0.630165
  B       1.109948     -1.930428     -1.030810
12
Coordinates from ORCA-job input E -297.267622638805
  B      -0.431441      0.131622      1.648655
  B       0.834254     -0.189001      0.402751
  B      -1.204350      1.451377      1.242518
  B      -0.142393     -1.382037      1.423488
  B       0.976892      0.973750     -0.918683
  B      -1.559003      2.182528     -0.084410
  B       0.458347     -2.298764      0.318752
  B      -0.363459     -1.034341     -0.684864
  B       1.378196     -0.446688     -1.401038
  B      -0.945886      0.446786     -0.264294
  B      -0.115932      2.091115     -0.653469
  B       1.114773     -1.926348     -1.029406
12
Coordinates from ORCA-job input E -297.267912796621
  B      -0.428317      0.122751      1.641402
  B       0.835276     -0.197649      0.405413
  B      -1.203123      1.447954      1.246262
  B      -0.133158     -1.387367      1.426070
  B       0.971536      0.971240     -0.902378
  B      -1.557654      2.180696     -0.083424
  B       0.452804     -2.303177      0.319815
  B      -0.366712     -1.033251     -0.675323
  B       1.375124     -0.441289     -1.403464
  B      -0.943292      0.458396     -0.277005
  B      -0.118189      2.103895     -0.673965
  B       1.115706     -1.922198     -1.023402
12
Coordinates from ORCA-job input E -297.268050055290
  B      -0.434195      0.123829      1.632125
  B       0.839666     -0.204915      0.405898
  B      -1.212002      1.448870      1.244776
  B      -0.129866     -1.388676      1.424362
  B       0.967107      0.967733     -0.894143
  B      -1.553457      2.188853     -0.078020
  B       0.460171     -2.306495      0.318242
  B      -0.371184     -1.031035     -0.666693
  B       1.375939     -0.441582     -1.409931
  B      -0.938933      0.461581     -0.273161
  B      -0.120781      2.107704     -0.681676
  B       1.117534     -1.925868     -1.021777
12
Coordinates from ORCA-job input E -297.268146361043
  B      -0.433236      0.124012      1.633531
  B       0.840016     -0.202999      0.407199
  B      -1.217326      1.445166      1.244128
  B      -0.126797     -1.384615      1.418826
  B       0.968202      0.965299     -0.889920
  B      -1.555211      2.196345     -0.075979
  B       0.461409     -2.308417      0.318878
  B      -0.367400     -1.029958     -0.664787
  B       1.375352     -0.443933     -1.408832
  B      -0.935068      0.462162     -0.274093
  B      -0.123149      2.105315     -0.684549
  B       1.113209     -1.928377     -1.024400
12
Coordinates from ORCA-job input E -297.268221700006
  B      -0.438294      0.123468      1.633225
  B       0.841875     -0.200977      0.409211
  B      -1.224570      1.443542      1.242686
  B      -0.125201     -1.382963      1.414373
  B       0.970698      0.964414     -0.889543
  B      -1.553464      2.209839     -0.072491
  B       0.467821     -2.313801      0.321970
  B      -0.365700     -1.032608     -0.663082
  B       1.374030     -0.444059     -1.409390
  B      -0.930122      0.462057     -0.269880
  B      -0.126202      2.100011     -0.688559
  B       1.109130     -1.928921     -1.028520
12
Coordinates from ORCA-job input E -297.268258115851
  B      -0.437517      0.124928      1.634491
  B       0.844676     -0.200104      0.410558
  B      -1.223566      1.443286      1.240325
  B      -0.127364     -1.381850      1.411555
  B       0.974566      0.965149     -0.886522
  B      -1.556200      2.211433     -0.073428
  B       0.467590     -2.313645      0.320726
  B      -0.363572     -1.031478     -0.661510
  B       1.372952     -0.444338     -1.409261
  B      -0.928354      0.459906     -0.266943
  B      -0.129385      2.095658     -0.689272
  B       1.106174     -1.928943     -1.030721
12
Coordinates from ORCA-job input E -297.268302525751
  B      -0.437723      0.124831      1.634046
  B       0.848406     -0.200443      0.411259
  B      -1.220444      1.445798      1.239204
  B      -0.130869     -1.383317      1.409884
  B       0.978260      0.967623     -0.882685
  B      -1.557789      2.212194     -0.075235
  B       0.467769     -2.314891      0.320604
  B      -0.363620     -1.032089     -0.661552
  B       1.370079     -0.443015     -1.410296
  B      -0.927121      0.457805     -0.262366
  B      -0.132816      2.092957     -0.692031
  B       1.105870     -1.927452     -1.030831
12
Coordinates from ORCA-job input E -297.268349794113
  B      -0.435651      0.126198      1.633137
  B       0.852879     -0.203726      0.411273
  B      -1.215241      1.449912      1.240027
  B      -0.136933     -1.383663      1.408099
  B       0.982282      0.969783     -0.878199
  B      -1.561083      2.206359     -0.078586
  B       0.464555     -2.314962      0.319987
  B      -0.363002     -1.030815     -0.663784
  B       1.366412     -0.440760     -1.413899
  B      -0.926882      0.455719     -0.256589
  B      -0.135258      2.090144     -0.693683
  B       1.107922     -1.924190     -1.027783
12
Coordinates from ORCA-job input E -297.268389394632
  B      -0.433571      0.127146      1.634263
  B       0.853823     -0.204609      0.410476
  B      -1.210659      1.453801      1.242481
  B      -0.142210     -1.383345      1.406302
  B       0.984472      0.970834     -0.875006
  B      -1.563381      2.198892     -0.081507
  B       0.461763     -2.314726      0.319780
  B      -0.362368     -1.029604     -0.668888
  B       1.363795     -0.440136     -1.417436
  B      -0.926575      0.454603     -0.251393
  B      -0.136133      2.089577     -0.694848
  B       1.111044     -1.922433     -1.024224
12
Coordinates from ORCA-job input E -297.268428219992
  B      -0.432036      0.129391      1.637831
  B       0.851705     -0.204615      0.409956
  B      -1.208475      1.456512      1.245793
  B      -0.146614     -1.380823      1.404414
  B       0.986173      0.970017     -0.873756
  B      -1.564993      2.190126     -0.083794
  B       0.458701     -2.313666      0.319257
  B      -0.360626     -1.027888     -0.675539
  B       1.362040     -0.440226     -1.422278
  B      -0.925151      0.453504     -0.245632
  B      -0.135160      2.089095     -0.695010
  B       1.114435     -1.921425     -1.021241
12
Coordinates from ORCA-job input E -297.268464017666
  B      -0.432563      0.131442      1.644511
  B       0.845533     -0.200404      0.409834
  B      -1.209196      1.457305      1.248968
  B      -0.148364     -1.377324      1.402664
  B       0.987418      0.968274     -0.874278
  B      -1.564905      2.183642     -0.084726
  B       0.457602     -2.312226      0.318650
  B      -0.358604     -1.026933     -0.682758
  B       1.362008     -0.442093     -1.425874
  B      -0.921806      0.452189     -0.240100
  B      -0.133185      2.089071     -0.695537
  B       1.116063     -1.922944     -1.021354
12
Coordinates from ORCA-job input E -297.268485904840
  B      -0.434781      0.132919      1.649903
  B       0.839692     -0.196558      0.410585
  B      -1.212323      1.456332      1.250429
  B      -0.146837     -1.374575      1.402587
  B       0.988567      0.966537     -0.875509
  B      -1.563672      2.181828     -0.084451
  B       0.457985     -2.310797      0.317749
  B      -0.357173     -1.026841     -0.686092
  B       1.363003     -0.443568     -1.427316
  B      -0.918235      0.451140     -0.236967
  B      -0.131512      2.088604     -0.696534
  B       1.115287     -1.925020     -1.024384
12
Coordinates from ORCA-job input E -297.268499280887
  B      -0.437500      0.132838      1.652124
  B       0.836400     -0.193801      0.411250
  B      -1.215253      1.454852      1.250408
  B      -0.143823     -1.373848      1.404010
  B       0.989454      0.966010     -0.876181
  B      -1.562223      2.183447     -0.083592
  B       0.459423     -2.309708      0.317399
  B      -0.357090     -1.027165     -0.686732
  B       1.364209     -0.444554     -1.426635
  B      -0.915771      0.450789     -0.236083
  B      -0.130943      2.088139     -0.697973
  B       1.113116     -1.927001     -1.027994
12
Coordinates from ORCA-job input E -297.268516068992
  B      -0.440604      0.132696      1.652769
  B       0.834470     -0.193029      0.412190
  B      -1.219084      1.453441      1.250070
  B      -0.139119     -1.373433      1.407131
  B       0.991228      0.965707     -0.875812
  B      -1.560994      2.185483     -0.082938
  B       0.460632     -2.307648      0.316818
  B      -0.357359     -1.027114     -0.686949
  B       1.365028     -0.445210     -1.425508
  B      -0.913302      0.450893     -0.235813
  B      -0.130838      2.087072     -0.699582
  B       1.109940     -1.928857     -1.032376
12
Coordinates from ORCA-job input E -297.268540362451
  B      -0.445142      0.131873      1.651773
  B       0.833479     -0.193791      0.412750
  B      -1.224351      1.451872      1.249525
  B      -0.132311     -1.373318      1.412938
  B       0.993794      0.965787     -0.874605
  B      -1.559739      2.188239     -0.082141
  B       0.462448     -2.304075      0.316987
  B      -0.358161     -1.026300     -0.689019
  B       1.365339     -0.446194     -1.424295
  B      -0.909889      0.451642     -0.235248
  B      -0.130952      2.085581     -0.701245
  B       1.105485     -1.931315     -1.037419
12
Coordinates from ORCA-job input E -297.268571136349
  B      -0.450325      0.130883      1.648715
  B       0.834184     -0.198621      0.412807
  B      -1.230884      1.450732      1.249047
  B      -0.123437     -1.373103      1.421961
  B       0.996778      0.965459     -0.871718
  B      -1.559141      2.190527     -0.081786
  B       0.464157     -2.298512      0.317874
  B      -0.359377     -1.024366     -0.693905
  B       1.364409     -0.447220     -1.424296
  B      -0.905936      0.453410     -0.234979
  B      -0.130958      2.084103     -0.701995
  B       1.100529     -1.933293     -1.041725
12
Coordinates from ORCA-job input E -297.268599114256
  B      -0.454791      0.129667      1.645150
  B       0.835702     -0.205118      0.411872
  B      -1.236234      1.450149      1.248691
  B      -0.115997     -1.372701      1.430828
  B       0.998234      0.964556     -0.868837
  B      -1.559272      2.191830     -0.081810
  B       0.466339     -2.292981      0.320152
  B      -0.360787     -1.021922     -0.700978
  B       1.363123     -0.448279     -1.425742
  B      -0.902449      0.455511     -0.234839
  B      -0.130315      2.083662     -0.700901
  B       1.096448     -1.934374     -1.043585
12
Coordinates from ORCA-job input E -297.268624224959
  B      -0.458074      0.128706      1.642004
  B       0.837389     -0.212700      0.410619
  B      -1.239816      1.450148      1.248060
  B      -0.110013     -1.372273      1.438554
  B       0.997871      0.962784     -0.865903
  B      -1.560011      2.192571     -0.082640
  B       0.468941     -2.288344      0.322907
  B      -0.362386     -1.019950     -0.707860
  B       1.362034     -0.448858     -1.428231
  B      -0.900196      0.457524     -0.235743
  B      -0.128921      2.084422     -0.698050
  B       1.093183     -1.934031     -1.043716
12
Coordinates from ORCA-job input E -297.268649847275
  B      -0.461328      0.127925      1.639951
  B       0.838531     -0.219396      0.409390
  B      -1.242344      1.450315      1.246807
  B      -0.105143     -1.371514      1.444627
  B       0.996157      0.960373     -0.863319
  B      -1.561035      2.193354     -0.084115
  B       0.473141     -2.284456      0.326268
  B      -0.364187     -1.018573     -0.714115
  B       1.361845     -0.449295     -1.430872
  B      -0.898044      0.458917     -0.236602
  B      -0.126740      2.085814     -0.693826
  B       1.089146     -1.933466     -1.044193
12
Coordinates from ORCA-job input E -297.268678668424
  B      -0.465618      0.127253      1.638724
  B       0.839269     -0.225837      0.408788
  B      -1.244851      1.450473      1.244359
  B      -0.099303     -1.370712      1.450051
  B       0.993578      0.957325     -0.860058
  B      -1.561918      2.195131     -0.086689
  B       0.479338     -2.281036      0.329571
  B      -0.366594     -1.018383     -0.718260
  B       1.362379     -0.449290     -1.433329
  B      -0.895680      0.459950     -0.237832
  B      -0.123765      2.087733     -0.688820
  B       1.083165     -1.932608     -1.046504
12
Coordinates from ORCA-job input E -297.268704558624
  B      -0.471090      0.126567      1.639040
  B       0.839284     -0.228679      0.409216
  B      -1.247794      1.450135      1.241369
  B      -0.093667     -1.369604      1.453066
  B       0.991527      0.954803     -0.857251
  B      -1.562000      2.197405     -0.089478
  B       0.486453     -2.278547      0.332044
  B      -0.368791     -1.019300     -0.719255
  B       1.363360     -0.449267     -1.434539
  B      -0.892251      0.460120     -0.237729
  B      -0.120709      2.089208     -0.685023
  B       1.075677     -1.932841     -1.051460
12
Coordinates from ORCA-job input E -297.268722636458
  B      -0.476392      0.125752      1.639588
  B       0.839341     -0.228921      0.410509
  B      -1.251167      1.449401      1.238643
  B      -0.087824     -1.368998      1.454615
  B       0.991140      0.953649     -0.854930
  B      -1.560879      2.199654     -0.092000
  B       0.491423     -2.277445      0.332313
  B      -0.370558     -1.021163     -0.716225
  B       1.363599     -0.448975     -1.434463
  B      -0.889614      0.460199     -0.237337
  B      -0.118352      2.090101     -0.683677
  B       1.069283     -1.933254     -1.057037
12
Coordinates from ORCA-job input E -297.268735577797
  B      -0.481512      0.124678      1.640282
  B       0.839556     -0.226622      0.412033
  B      -1.254930      1.448276      1.237001
  B      -0.083287     -1.368034      1.454973
  B       0.992173      0.953572     -0.853542
  B      -1.559420      2.200795     -0.093502
  B       0.494450     -2.276531      0.331979
  B      -0.371105     -1.022350     -0.713239
  B       1.362513     -0.449374     -1.434295
  B      -0.886278      0.460190     -0.235577
  B      -0.116607      2.090264     -0.684000
  B       1.064446     -1.934863     -1.062113
12
Coordinates from ORCA-job input E -297.268749257163
  B      -0.487133      0.122881      1.639385
  B       0.841071     -0.224920      0.413849
  B      -1.260001      1.446900      1.235194
  B      -0.076234     -1.367295      1.456834
  B       0.994469      0.953934     -0.851614
  B      -1.557288      2.201511     -0.095534
  B       0.496127     -2.275742      0.330715
  B      -0.371949     -1.023646     -0.708383
  B       1.359929     -0.449654     -1.434403
  B      -0.884319      0.461201     -0.235121
  B      -0.114364      2.090561     -0.684084
  B       1.059693     -1.935731     -1.066838
12
Coordinates from ORCA-job input E -297.268765571670
  B      -0.495563      0.119501      1.637308
  B       0.843247     -0.222114      0.415835
  B      -1.267516      1.444593      1.233529
  B      -0.067315     -1.365974      1.459845
  B       0.997441      0.954276     -0.849359
  B      -1.554737      2.202492     -0.097278
  B       0.499302     -2.274108      0.330891
  B      -0.372511     -1.023757     -0.704997
  B       1.355084     -0.451121     -1.436116
  B      -0.880137      0.463257     -0.233877
  B      -0.110965      2.091072     -0.683890
  B       1.053671     -1.938117     -1.071891
12
Coordinates from ORCA-job input E -297.268784131235
  B      -0.504811      0.114941      1.632950
  B       0.846386     -0.221207      0.417470
  B      -1.276316      1.442000      1.231543
  B      -0.056448     -1.364900      1.465017
  B       1.000692      0.954086     -0.846823
  B      -1.551545      2.203950     -0.099174
  B       0.503332     -2.272052      0.331856
  B      -0.373717     -1.023817     -0.700876
  B       1.348884     -0.452512     -1.439544
  B      -0.877550      0.466726     -0.234865
  B      -0.106355      2.092076     -0.681844
  B       1.047448     -1.939293     -1.075711
12
Coordinates from ORCA-job input E -297.268805356800
  B      -0.516068      0.109240      1.627477
  B       0.848969     -0.220606      0.418731
  B      -1.286809      1.438750      1.229418
  B      -0.044607     -1.363564      1.471077
  B       1.004450      0.953252     -0.843920
  B      -1.547804      2.206695     -0.100701
  B       0.510776     -2.268838      0.334684
  B      -0.375844     -1.023832     -0.697438
  B       1.341359     -0.454432     -1.444953
  B      -0.874260      0.470924     -0.236339
  B      -0.100241      2.093262     -0.678584
  B       1.040079     -1.940851     -1.079452
12
Coordinates from ORCA-job input E -297.268833712155
  B      -0.529430      0.101928      1.620548
  B       0.850714     -0.220418      0.419588
  B      -1.298707      1.434694      1.226454
  B      -0.031886     -1.362649      1.478089
  B       1.009353      0.952287     -0.840862
  B      -1.542443      2.211449     -0.101956
  B       0.522455     -2.264489      0.338994
  B      -0.379253     -1.025010     -0.691542
  B       1.332287     -0.456158     -1.451882
  B      -0.871869      0.475705     -0.239586
  B      -0.092492      2.094541     -0.674135
  B       1.031270     -1.941881     -1.083710
12
Coordinates from ORCA-job input E -297.268871635547
  B      -0.545419      0.093567      1.612977
  B       0.850503     -0.219972      0.420304
  B      -1.312246      1.429890      1.222862
  B      -0.018918     -1.361735      1.485033
  B       1.016858      0.951315     -0.836857
  B      -1.535406      2.217994     -0.102665
  B       0.539971     -2.258037      0.344697
  B      -0.384355     -1.027810     -0.683199
  B       1.321173     -0.457685     -1.460273
  B      -0.869444      0.480352     -0.243863
  B      -0.083020      2.095228     -0.669417
  B       1.020303     -1.943108     -1.089599
12
Coordinates from ORCA-job input E -297.268903631854
  B      -0.553114      0.089471      1.611744
  B       0.847033     -0.217700      0.420179
  B      -1.316045      1.427842      1.221036
  B      -0.017110     -1.363118      1.485454
  B       1.022653      0.952358     -0.836071
  B      -1.530562      2.222162     -0.101979
  B       0.552598     -2.254628      0.347887
  B      -0.387589     -1.031390     -0.675558
  B       1.315223     -0.457539     -1.463648
  B      -0.870198      0.481265     -0.247272
  B      -0.078580      2.094734     -0.668630
  B       1.015692     -1.943458     -1.093144
12
Coordinates from ORCA-job input E -297.268917818659
  B      -0.561966      0.086530      1.609618
  B       0.844155     -0.217508      0.420805
  B      -1.322115      1.425403      1.218267
  B      -0.008762     -1.361580      1.489002
  B       1.029281      0.952642     -0.830401
  B      -1.527097      2.225226     -0.102922
  B       0.563970     -2.249450      0.349661
  B      -0.391992     -1.034732     -0.670653
  B       1.310619     -0.456999     -1.464815
  B      -0.867654      0.481317     -0.249573
  B      -0.074346      2.094113     -0.668423
  B       1.005906     -1.944961     -1.100565
12
Coordinates from ORCA-job input E -297.268922422186
  B      -0.558453      0.088390      1.614389
  B       0.842467     -0.214668      0.420664
  B      -1.316512      1.426894      1.219268
  B      -0.015289     -1.363359      1.484140
  B       1.028431      0.954690     -0.833624
  B      -1.527773      2.223799     -0.102001
  B       0.561069     -2.252010      0.348020
  B      -0.390357     -1.035221     -0.670008
  B       1.313109     -0.456494     -1.461183
  B      -0.869209      0.479494     -0.248703
  B      -0.077245      2.093554     -0.671307
  B       1.009763     -1.945069     -1.099655
12
Coordinates from ORCA-job input E -297.268923286134
  B      -0.558089      0.088911      1.614989
  B       0.843457     -0.215387      0.420832
  B      -1.316689      1.427058      1.219550
  B      -0.014686     -1.361701      1.484707
  B       1.028630      0.954355     -0.832834
  B      -1.528337      2.221795     -0.102317
  B       0.559271     -2.251556      0.347222
  B      -0.389826     -1.035168     -0.670893
  B       1.313632     -0.456365     -1.460923
  B      -0.868993      0.479691     -0.249013
  B      -0.077446      2.093304     -0.671121
  B       1.009075     -1.944938     -1.100200
12
Coordinates from ORCA-job input E -297.268925217884
  B      -0.561506      0.087036      1.612098
  B       0.845142     -0.216330      0.421196
  B      -1.319884      1.425898      1.218194
  B      -0.009004     -1.361696      1.487057
  B       1.028326      0.954100     -0.831135
  B      -1.527546      2.224156     -0.102935
  B       0.560373     -2.251822      0.347718
  B      -0.390782     -1.034481     -0.669944
  B       1.312184     -0.456839     -1.461099
  B      -0.867468      0.481046     -0.248671
  B      -0.076526      2.094496     -0.671206
  B       1.006691     -1.945565     -1.101272
12
Coordinates from ORCA-job input E -297.268926817562
  B      -0.562551      0.086715      1.612667
  B       0.844731     -0.215823      0.421111
  B      -1.319942      1.425917      1.218301
  B      -0.009637     -1.361734      1.486379
  B       1.028855      0.954253     -0.831890
  B      -1.527087      2.224293     -0.102464
  B       0.561559     -2.251504      0.348073
  B      -0.390826     -1.034739     -0.669499
  B       1.311731     -0.456973     -1.461472
  B      -0.867311      0.481068     -0.248658
  B      -0.076255      2.094278     -0.671250
  B       1.006733     -1.945752     -1.101298
12
Coordinates from ORCA-job input E -297.268928503386
  B      -0.565141      0.085335      1.612803
  B       0.844688     -0.215352      0.421007
  B      -1.320566      1.425552      1.218136
  B      -0.008587     -1.361505      1.486428
  B       1.029395      0.954368     -0.832343
  B      -1.526093      2.224893     -0.101896
  B       0.563154     -2.251132      0.348546
  B      -0.391133     -1.035123     -0.668428
  B       1.311042     -0.457209     -1.461829
  B      -0.866966      0.481701     -0.249251
  B      -0.075702      2.094411     -0.671517
  B       1.005910     -1.945939     -1.101655
12
Coordinates from ORCA-job input E -297.268929571959
  B      -0.568208      0.083850      1.612076
  B       0.845061     -0.215694      0.420979
  B      -1.321794      1.425151      1.217829
  B      -0.006176     -1.360841      1.487164
  B       1.029568      0.954134     -0.832450
  B      -1.525300      2.225870     -0.101374
  B       0.564535     -2.250658      0.349042
  B      -0.391661     -1.035202     -0.667842
  B       1.310471     -0.457577     -1.462221
  B      -0.866186      0.482538     -0.249694
  B      -0.075081      2.094634     -0.671447
  B       1.004771     -1.946206     -1.102062
12
Coordinates from ORCA-job input E -297.268929990506
  B      -0.568991      0.083109      1.611738
  B       0.845014     -0.215437      0.420885
  B      -1.321545      1.425089      1.217709
  B      -0.005249     -1.360831      1.487503
  B       1.029355      0.954174     -0.832485
  B      -1.525163      2.226451     -0.101197
  B       0.564516     -2.250899      0.349058
  B      -0.391887     -1.035337     -0.667526
  B       1.310633     -0.457674     -1.462031
  B      -0.866249      0.482761     -0.250182
  B      -0.075098      2.094778     -0.671504
  B       1.004664     -1.946184     -1.101969
12
Coordinates from ORCA-job input E -297.268930245080
  B      -0.569321      0.082920      1.611279
  B       0.845101     -0.215896      0.420975
  B      -1.321351      1.425302      1.217704
  B      -0.004694     -1.360627      1.487691
  B       1.028954      0.953946     -0.832332
  B      -1.525331      2.226789     -0.101159
  B       0.564356     -2.250893      0.348982
  B      -0.392022     -1.035353     -0.667576
  B       1.310810     -0.457688     -1.461972
  B      -0.866021      0.482822     -0.250265
  B      -0.075261      2.094802     -0.671411
  B       1.004780     -1.946123     -1.101914
12
Coordinates from ORCA-job input E -297.268930470430
  B      -0.569201      0.082836      1.611000
  B       0.844969     -0.215672      0.421006
  B      -1.321019      1.425432      1.217679
  B      -0.004697     -1.360729      1.487667
  B       1.028981      0.954056     -0.832336
  B      -1.525473      2.226920     -0.101240
  B       0.564258     -2.251034      0.348903
  B      -0.392169     -1.035512     -0.667319
  B       1.310890     -0.457631     -1.461893
  B      -0.866130      0.482716     -0.250353
  B      -0.075304      2.094688     -0.671244
  B       1.004895     -1.946071     -1.101869
12
Coordinates from ORCA-job input E -297.268931012526
  B      -0.567781      0.083281      1.611006
  B       0.844610     -0.215369      0.421145
  B      -1.319306      1.426168      1.217903
  B      -0.006102     -1.361222      1.486878
  B       1.028666      0.954311     -0.832324
  B      -1.526195      2.226728     -0.101503
  B       0.563304     -2.251673      0.348404
  B      -0.392171     -1.035918     -0.666883
  B       1.311208     -0.457251     -1.461553
  B      -0.866437      0.482226     -0.250419
  B      -0.075955      2.094448     -0.671286
  B       1.006159     -1.945728     -1.101370
12
Coordinates from ORCA-job input E -297.268931803747
  B      -0.566886      0.083546      1.610901
  B       0.844466     -0.215025      0.421205
  B      -1.318322      1.426585      1.217955
  B      -0.007043     -1.361551      1.486286
  B       1.028767      0.954679     -0.832307
  B      -1.526677      2.226351     -0.101840
  B       0.562824     -2.252089      0.348127
  B      -0.392344     -1.036349     -0.666213
  B       1.311158     -0.456920     -1.461337
  B      -0.866443      0.481950     -0.250518
  B      -0.076229      2.094302     -0.671103
  B       1.006728     -1.945478     -1.101156
12
Coordinates from ORCA-job input E -297.268935756453
  B      -0.561990      0.084988      1.610745
  B       0.844011     -0.213974      0.421238
  B      -1.313382      1.428468      1.218207
  B      -0.012127     -1.363469      1.483135
  B       1.028831      0.956669     -0.832217
  B      -1.528957      2.224396     -0.103306
  B       0.560064     -2.254696      0.346754
  B      -0.393218     -1.038591     -0.662617
  B       1.310646     -0.454999     -1.460135
  B      -0.866291      0.480945     -0.251388
  B      -0.077775      2.094266     -0.670875
  B       1.010188     -1.944004     -1.099541
12
Coordinates from ORCA-job input E -297.268942484058
  B      -0.554015      0.087110      1.610228
  B       0.843862     -0.212637      0.420713
  B      -1.306151      1.430856      1.218361
  B      -0.019948     -1.366530      1.478058
  B       1.028946      0.960403     -0.832219
  B      -1.532381      2.221028     -0.105464
  B       0.555459     -2.259573      0.344900
  B      -0.394988     -1.042394     -0.656252
  B       1.309355     -0.451746     -1.457904
  B      -0.865550      0.479879     -0.253410
  B      -0.080055      2.095032     -0.670574
  B       1.015467     -1.941429     -1.096438
12
Coordinates from ORCA-job input E -297.268956963337
  B      -0.538230      0.090862      1.608899
  B       0.844277     -0.210883      0.418873
  B      -1.293278      1.434410      1.218397
  B      -0.034488     -1.372429      1.468534
  B       1.028669      0.968084     -0.832432
  B      -1.538512      2.214386     -0.109158
  B       0.546094     -2.269846      0.341713
  B      -0.398843     -1.049729     -0.643562
  B       1.306470     -0.445271     -1.453111
  B      -0.863409      0.478685     -0.258162
  B      -0.084281      2.097865     -0.670500
  B       1.025531     -1.936134     -1.089492
12
Coordinates from ORCA-job input E -297.268977236759
  B      -0.528528      0.092638      1.608292
  B       0.845218     -0.210340      0.416805
  B      -1.286853      1.435069      1.218203
  B      -0.042533     -1.376124      1.463083
  B       1.027938      0.973496     -0.833558
  B      -1.541694      2.209963     -0.110700
  B       0.539844     -2.277086      0.340337
  B      -0.401853     -1.053959     -0.635746
  B       1.304456     -0.441287     -1.449527
  B      -0.860699      0.479216     -0.262273
  B      -0.086571      2.101183     -0.670930
  B       1.031275     -1.932768     -1.083983
12
Coordinates from ORCA-job input E -297.269006573154
  B      -0.519870      0.093909      1.609266
  B       0.846633     -0.212084      0.413476
  B      -1.284024      1.432645      1.217880
  B      -0.047904     -1.379251      1.459910
  B       1.024717      0.977953     -0.836461
  B      -1.543096      2.206881     -0.109356
  B       0.533503     -2.284355      0.340380
  B      -0.404405     -1.055905     -0.631617
  B       1.303999     -0.438486     -1.445688
  B      -0.857216      0.481868     -0.268043
  B      -0.088564      2.106887     -0.672982
  B       1.036226     -1.930062     -1.076765
12
Coordinates from ORCA-job input E -297.269023341944
  B      -0.506722      0.096682      1.608301
  B       0.847175     -0.212128      0.411181
  B      -1.275611      1.433564      1.217982
  B      -0.058118     -1.383236      1.453831
  B       1.022459      0.983033     -0.837539
  B      -1.546662      2.203101     -0.110015
  B       0.525119     -2.292724      0.338358
  B      -0.406663     -1.060221     -0.623985
  B       1.303939     -0.434194     -1.441304
  B      -0.856798      0.481573     -0.272731
  B      -0.092279      2.110357     -0.674250
  B       1.044162     -1.925808     -1.069831
12
Coordinates from ORCA-job input E -297.269047145781
  B      -0.485178      0.101952      1.607917
  B       0.847758     -0.211320      0.407769
  B      -1.261604      1.435283      1.219358
  B      -0.075060     -1.388007      1.444136
  B       1.018674      0.990349     -0.840351
  B      -1.553861      2.195348     -0.110443
  B       0.509961     -2.304684      0.334795
  B      -0.409484     -1.065239     -0.616343
  B       1.306171     -0.428437     -1.434545
  B      -0.855400      0.480494     -0.278572
  B      -0.098764      2.114370     -0.675676
  B       1.056787     -1.920109     -1.058043
12
Coordinates from ORCA-job input E -297.269078494108
  B      -0.455600      0.107359      1.607665
  B       0.848639     -0.209119      0.402847
  B      -1.240489      1.437389      1.221406
  B      -0.099327     -1.395160      1.429873
  B       1.012388      1.001114     -0.847199
  B      -1.563057      2.184955     -0.109946
  B       0.487566     -2.322022      0.329107
  B      -0.413879     -1.072236     -0.603849
  B       1.311160     -0.420402     -1.424358
  B      -0.854054      0.479340     -0.287760
  B      -0.108665      2.119903     -0.678280
  B       1.075318     -1.911120     -1.039508
12
Coordinates from ORCA-job input E -297.269105455208
  B      -0.427325      0.111509      1.610593
  B       0.849234     -0.206533      0.397477
  B      -1.219986      1.437425      1.224942
  B      -0.123017     -1.400907      1.416714
  B       1.003284      1.010660     -0.859038
  B      -1.572629      2.174009     -0.105555
  B       0.462553     -2.337813      0.323382
  B      -0.418128     -1.076275     -0.596654
  B       1.321686     -0.414244     -1.414048
  B      -0.849301      0.480180     -0.297748
  B      -0.119968      2.125085     -0.682294
  B       1.093598     -1.903096     -1.017772
12
Coordinates from ORCA-job input E -297.269112680975
  B      -0.426523      0.108020      1.613432
  B       0.849488     -0.204513      0.396443
  B      -1.216356      1.435929      1.225030
  B      -0.126467     -1.405485      1.414206
  B       1.000010      1.013252     -0.868757
  B      -1.569695      2.176280     -0.102362
  B       0.459041     -2.342242      0.321705
  B      -0.420549     -1.076988     -0.589736
  B       1.326617     -0.412987     -1.410907
  B      -0.850986      0.481785     -0.302155
  B      -0.122552      2.126147     -0.685242
  B       1.097971     -1.899197     -1.011657
12
Coordinates from ORCA-job input E -297.269121653647
  B      -0.409767      0.112089      1.611755
  B       0.849667     -0.203948      0.393578
  B      -1.209107      1.435288      1.228599
  B      -0.139951     -1.406998      1.410076
  B       0.995240      1.015479     -0.874954
  B      -1.574236      2.170364     -0.099363
  B       0.447462     -2.346797      0.319543
  B      -0.421120     -1.076083     -0.592121
  B       1.335104     -0.411030     -1.405582
  B      -0.851246      0.481298     -0.302680
  B      -0.127858      2.127081     -0.686901
  B       1.105813     -1.896744     -1.001950
12
Coordinates from ORCA-job input E -297.269118555823
  B      -0.412989      0.114296      1.613829
  B       0.849494     -0.203946      0.394187
  B      -1.211620      1.435741      1.230639
  B      -0.138716     -1.403605      1.409734
  B       0.993910      1.013314     -0.876370
  B      -1.574951      2.170494     -0.096055
  B       0.446390     -2.344210      0.320859
  B      -0.415712     -1.074132     -0.598717
  B       1.337089     -0.413771     -1.406167
  B      -0.849187      0.480913     -0.300980
  B      -0.128605      2.125678     -0.686630
  B       1.104897     -1.900772     -1.004330
12
Coordinates from ORCA-job input E -297.269127370053
  B      -0.409462      0.113303      1.614165
  B       0.849784     -0.203203      0.394061
  B      -1.208287      1.436266      1.230037
  B      -0.140896     -1.405900      1.408421
  B       0.993126      1.014301     -0.877150
  B      -1.575589      2.170772     -0.097277
  B       0.443734     -2.346992      0.318245
  B      -0.418366     -1.075765     -0.595784
  B       1.338272     -0.412352     -1.404288
  B      -0.850018      0.481073     -0.300364
  B      -0.130109      2.126461     -0.688741
  B       1.107810     -1.897965     -1.001324
12
Coordinates from ORCA-job input E -297.269129283748
  B      -0.402479      0.114709      1.614322
  B       0.850003     -0.202641      0.392946
  B      -1.203843      1.436496      1.231477
  B      -0.147034     -1.406622      1.405093
  B       0.990202      1.015128     -0.881260
  B      -1.576498      2.169621     -0.095555
  B       0.437902     -2.350052      0.316632
  B      -0.417602     -1.075326     -0.596111
  B       1.342874     -0.411471     -1.401322
  B      -0.852900      0.479821     -0.300378
  B      -0.133116      2.126443     -0.689799
  B       1.112491     -1.896108     -0.996045
12
Coordinates from ORCA-job input E -297.269131960962
  B      -0.396243      0.116300      1.617180
  B       0.849889     -0.202579      0.391981
  B      -1.200392      1.436350      1.233944
  B      -0.152786     -1.406564      1.403298
  B       0.985289      1.013791     -0.887471
  B      -1.578077      2.168922     -0.092470
  B       0.430774     -2.351487      0.314192
  B      -0.416274     -1.072691     -0.602432
  B       1.351290     -0.412178     -1.398381
  B      -0.853738      0.479455     -0.296926
  B      -0.137294      2.125675     -0.692825
  B       1.117561     -1.894994     -0.990091
12
Coordinates from ORCA-job input E -297.269134910073
  B      -0.391391      0.117922      1.618593
  B       0.850394     -0.201931      0.391269
  B      -1.196763      1.437283      1.235650
  B      -0.158099     -1.406319      1.399273
  B       0.982288      1.014308     -0.890926
  B      -1.579769      2.167120     -0.090704
  B       0.424515     -2.353953      0.312246
  B      -0.414325     -1.073106     -0.603520
  B       1.354586     -0.411997     -1.395625
  B      -0.852992      0.478994     -0.295189
  B      -0.140529      2.125959     -0.694852
  B       1.122086     -1.894280     -0.986216
12
Coordinates from ORCA-job input E -297.269135507008
  B      -0.391498      0.118765      1.619345
  B       0.850381     -0.202468      0.391566
  B      -1.196847      1.437610      1.236268
  B      -0.158509     -1.405497      1.398762
  B       0.981461      1.013477     -0.891783
  B      -1.579736      2.167165     -0.089766
  B       0.424122     -2.353214      0.312422
  B      -0.412619     -1.071941     -0.606249
  B       1.355326     -0.412756     -1.395527
  B      -0.853783      0.478514     -0.294158
  B      -0.140925      2.125402     -0.694872
  B       1.122626     -1.895057     -0.986008
12
Coordinates from ORCA-job input E -297.269135613950
  B      -0.388956      0.119371      1.619595
  B       0.850586     -0.202465      0.391130
  B      -1.195461      1.437641      1.236843
  B      -0.160662     -1.405449      1.397762
  B       0.980429      1.013643     -0.893017
  B      -1.580385      2.166401     -0.089183
  B       0.421808     -2.353983      0.311782
  B      -0.412420     -1.071797     -0.606937
  B       1.356954     -0.412507     -1.394677
  B      -0.854064      0.478247     -0.293935
  B      -0.142035      2.125394     -0.695277
  B       1.124206     -1.894496     -0.984088
12
Coordinates from ORCA-job input E -297.269135573788
  B      -0.387958      0.119560      1.619807
  B       0.850678     -0.202605      0.391010
  B      -1.194795      1.437713      1.237095
  B      -0.161718     -1.405608      1.397233
  B       0.979809      1.013698     -0.893649
  B      -1.580662      2.166064     -0.088964
  B       0.421064     -2.354340      0.311510
  B      -0.412377     -1.071620     -0.607235
  B       1.357526     -0.412451     -1.394147
  B      -0.853949      0.478345     -0.293707
  B      -0.142555      2.125508     -0.695675
  B       1.124936     -1.894263     -0.983280
12
Coordinates from ORCA-job input E -297.269134120663
  B      -0.381335      0.121087      1.621353
  B       0.851314     -0.202957      0.390118
  B      -1.190575      1.438108      1.238961
  B      -0.168359     -1.405833      1.393780
  B       0.975671      1.013616     -0.898195
  B      -1.582339      2.164421     -0.086807
  B       0.414874     -2.356573      0.309433
  B      -0.411297     -1.070615     -0.609946
  B       1.362638     -0.412218     -1.390925
  B      -0.854232      0.478122     -0.291963
  B      -0.146296      2.125626     -0.698082
  B       1.129936     -1.892784     -0.977727
12
Coordinates from ORCA-job input E -297.269135546939
  B      -0.387145      0.119848      1.620194
  B       0.850819     -0.202641      0.390896
  B      -1.194288      1.437785      1.237411
  B      -0.162636     -1.405447      1.396747
  B       0.979111      1.013489     -0.894492
  B      -1.580806      2.166072     -0.088456
  B       0.419983     -2.354572      0.311131
  B      -0.411985     -1.071458     -0.607955
  B       1.358625     -0.412512     -1.393747
  B      -0.854196      0.478135     -0.293162
  B      -0.143211      2.125346     -0.696086
  B       1.125729     -1.894046     -0.982482
12
Coordinates from ORCA-job input E -297.269135597003
  B      -0.388749      0.119412      1.619614
  B       0.850575     -0.202513      0.391142
  B      -1.195287      1.437664      1.236874
  B      -0.160820     -1.405533      1.397636
  B       0.980298      1.013678     -0.893096
  B      -1.580487      2.166339     -0.089113
  B       0.421701     -2.354066      0.311761
  B      -0.412440     -1.071775     -0.606940
  B       1.357015     -0.412487     -1.394541
  B      -0.854011      0.478307     -0.294065
  B      -0.142125      2.125462     -0.695341
  B       1.124330     -1.894488     -0.983931
12
Coordinates from ORCA-job input E -297.269135627976
  B      -0.389472      0.119296      1.619621
  B       0.850603     -0.202582      0.391215
  B      -1.195772      1.437652      1.236736
  B      -0.160314     -1.405391      1.397968
  B       0.980568      1.013513     -0.892827
  B      -1.580218      2.166631     -0.089258
  B       0.422264     -2.353756      0.311883
  B      -0.412404     -1.071800     -0.606967
  B       1.356769     -0.412582     -1.394869
  B      -0.854070      0.478241     -0.293785
  B      -0.141877      2.125335     -0.695247
  B       1.123922     -1.894556     -0.984469
12
Coordinates from ORCA-job input E -297.269135632225
  B      -0.388972      0.119415      1.619744
  B       0.850640     -0.202617      0.391157
  B      -1.195443      1.437693      1.236870
  B      -0.160804     -1.405419      1.397702
  B       0.980272      1.013523     -0.893138
  B      -1.580365      2.166476     -0.089118
  B       0.421822     -2.353925      0.311738
  B      -0.412338     -1.071728     -0.607164
  B       1.357093     -0.412559     -1.394631
  B      -0.854062      0.478242     -0.293690
  B      -0.142140      2.125358     -0.695412
  B       1.124296     -1.894459     -0.984058
12
Coordinates from ORCA-job input E -297.269135604606
  B      -0.387853      0.119676      1.619972
  B       0.850732     -0.202632      0.390998
  B      -1.194738      1.437743      1.237190
  B      -0.161888     -1.405454      1.397128
  B       0.979594      1.013533     -0.893916
  B      -1.580653      2.166217     -0.088725
  B       0.420738     -2.354328      0.311399
  B      -0.412147     -1.071581     -0.607588
  B       1.357971     -0.412519     -1.394091
  B      -0.854125      0.478189     -0.293464
  B      -0.142764      2.125376     -0.695787
  B       1.125132     -1.894222     -0.983116
12
Coordinates from ORCA-job input E -297.269135629060
  B      -0.388555      0.119502      1.619800
  B       0.850663     -0.202613      0.391099
  B      -1.195182      1.437704      1.236977
  B      -0.161180     -1.405447      1.397496
  B       0.980046      1.013552     -0.893395
  B      -1.580480      2.166368     -0.088986
  B       0.421440     -2.354082      0.311628
  B      -0.412292     -1.071690     -0.607264
  B       1.357379     -0.412533     -1.394436
  B      -0.854073      0.478232     -0.293672
  B      -0.142349      2.125382     -0.695526
  B       1.124582     -1.894376     -0.983720
