12
Coordinates from ORCA-job input E -297.269135629060
  B          -0.38855535768758      0.11950242764311      1.61980000712345
  B           0.85066336818364     -0.20261270152326      0.39109909852321
  B          -1.19518181200510      1.43770376378304      1.23697746096489
  B          -0.16118032774320     -1.40544714669416      1.39749579322713
  B           0.98004578215018      1.01355208272430     -0.89339480246774
  B          -1.58047958134634      2.16636840417177     -0.08898588569238
  B           0.42144026664888     -2.35408210340151      0.31162799521416
  B          -0.41229183431256     -1.07169016144791     -0.60726432421176
  B           1.35737889151168     -0.41253302056958     -1.39443620987965
  B          -0.85407308885445      0.47823246917038     -0.29367245313135
  B          -0.14234876584518      2.12538201143313     -0.69552641339136
  B           1.12458245930002     -1.89437602528930     -0.98372024627860
