12
Optimized coordinates extracted from calculations\B12\compact_3d\d_2.0\mult_3\output.out
B       -0.38855536       0.11950243       1.61980001
B        0.85066337      -0.20261270       0.39109910
B       -1.19518181       1.43770376       1.23697746
B       -0.16118033      -1.40544715       1.39749579
B        0.98004578       1.01355208      -0.89339480
B       -1.58047958       2.16636840      -0.08898589
B        0.42144027      -2.35408210       0.31162800
B       -0.41229183      -1.07169016      -0.60726432
B        1.35737889      -0.41253302      -1.39443621
B       -0.85407309       0.47823247      -0.29367245
B       -0.14234877       2.12538201      -0.69552641
B        1.12458246      -1.89437603      -0.98372025
