12
B12 distorted_icosahedron_01; neutral charge=0; multiplicity=5; 3D initial geometry; nominal d=4.0 A; Low-symmetry distorted icosahedron variant 01.
B       -0.03761192      -1.88602551      -3.18031250
B        0.05613131      -2.02020926       3.16230649
B        0.06192173       1.94515406      -3.10459871
B       -0.03790549       1.88990805       3.18206441
B       -1.96353846      -3.20833910       0.01682855
B       -2.02145448       3.23261403      -0.04979887
B        2.03362736      -3.07958939       0.02230139
B        2.05590829       3.33084282      -0.02606342
B       -3.15722298      -0.06641072      -2.00447337
B       -3.25147526      -0.06334120       2.03517395
B        3.16126414      -0.03704110      -2.03506251
B        3.10035577      -0.03756269       1.98163458
