12
B12 cuboctahedral_fragment; neutral charge=0; multiplicity=1; 3D initial geometry; nominal d=4.0 A; Cuboctahedron-like 12-vertex 3D structure.
B       -2.82842712      -2.82842712       0.00000000
B       -2.82842712       2.82842712       0.00000000
B        2.82842712      -2.82842712       0.00000000
B        2.82842712       2.82842712       0.00000000
B       -2.82842712       0.00000000      -2.82842712
B       -2.82842712       0.00000000       2.82842712
B        2.82842712       0.00000000      -2.82842712
B        2.82842712       0.00000000       2.82842712
B        0.00000000      -2.82842712      -2.82842712
B        0.00000000      -2.82842712       2.82842712
B        0.00000000       2.82842712      -2.82842712
B        0.00000000       2.82842712       2.82842712
