12
Coordinates from ORCA-job input
  B           0.00000000000000      0.00000000000000      6.03933474000000
  B           4.55119637000000      0.00000000000000      2.76093057000000
  B          -2.27559819000000      3.93408500000000      2.76093057000000
  B          -2.27559819000000     -3.93408500000000      2.76093057000000
  B           2.77700118000000      4.55119637000000     -0.13177899000000
  B          -2.77700118000000      4.55119637000000     -0.13177899000000
  B           2.77700118000000     -4.55119637000000     -0.13177899000000
  B          -2.77700118000000     -4.55119637000000     -0.13177899000000
  B           4.31977961000000      0.00000000000000     -3.06305801000000
  B          -4.31977961000000      0.00000000000000     -3.06305801000000
  B           0.00000000000000      3.77980716000000     -3.83444723000000
  B           0.00000000000000     -3.77980716000000     -3.83444723000000
