12
B12 compact_3d; neutral charge=0; multiplicity=5; 3D initial geometry; nominal d=3.0 A; Compact non-planar B12 cage-like cluster.
B        0.00000000       0.00000000       6.03933474
B        4.55119637       0.00000000       2.76093057
B       -2.27559819       3.93408500       2.76093057
B       -2.27559819      -3.93408500       2.76093057
B        2.77700118       4.55119637      -0.13177899
B       -2.77700118       4.55119637      -0.13177899
B        2.77700118      -4.55119637      -0.13177899
B       -2.77700118      -4.55119637      -0.13177899
B        4.31977961       0.00000000      -3.06305801
B       -4.31977961       0.00000000      -3.06305801
B        0.00000000       3.77980716      -3.83444723
B        0.00000000      -3.77980716      -3.83444723
