12
B12 planar_triangular_patch; neutral charge=0; multiplicity=1; planar initial geometry; nominal d=4.0 A; Compact planar triangular-lattice B12 control motif.
B       -6.66666667      -3.46410162       0.00000000
B       -2.66666667      -3.46410162       0.00000000
B        1.33333333      -3.46410162       0.00000000
B        5.33333333      -3.46410162       0.00000000
B       -4.66666667       0.00000000       0.00000000
B       -0.66666667       0.00000000       0.00000000
B        3.33333333       0.00000000       0.00000000
B        7.33333333       0.00000000       0.00000000
B       -6.66666667       3.46410162       0.00000000
B       -2.66666667       3.46410162       0.00000000
B        1.33333333       3.46410162       0.00000000
B        5.33333333       3.46410162       0.00000000
