12
Coordinates from ORCA-job input E -295.492409863092
  B       3.500000     -0.000000      1.085000
  B       1.750000      3.031089      1.085000
  B      -1.750000      3.031089      1.085000
  B      -3.500000      0.000000      1.085000
  B      -1.750000     -3.031089      1.085000
  B       1.750000     -3.031089      1.085000
  B       2.849224      1.645000     -1.085000
  B       0.000000      3.290000     -1.085000
  B      -2.849224      1.645000     -1.085000
  B      -2.849224     -1.645000     -1.085000
  B      -0.000000     -3.290000     -1.085000
  B       2.849224     -1.645000     -1.085000
12
Coordinates from ORCA-job input E -295.514260865456
  B       3.484138     -0.004125      1.064248
  B       1.743674      3.012936      1.062863
  B      -1.740922      3.016792      1.061867
  B      -3.485711      0.000623      1.061678
  B      -1.742340     -3.016572      1.061783
  B       1.742370     -3.017351      1.063678
  B       2.831676      1.640309     -1.065265
  B       0.000485      3.272900     -1.063543
  B      -2.834532      1.636596     -1.062180
  B      -2.836146     -1.637306     -1.061803
  B       0.002038     -3.272424     -1.060596
  B       2.835270     -1.632380     -1.062731
12
Coordinates from ORCA-job input E -295.536815515798
  B       3.468392     -0.008449      1.043419
  B       1.737356      2.994782      1.040747
  B      -1.731756      3.002399      1.038643
  B      -3.471287      0.001095      1.038225
  B      -1.734642     -3.002027      1.038673
  B       1.734686     -3.003758      1.042465
  B       2.814227      1.636048     -1.045502
  B       0.000739      3.256001     -1.042065
  B      -2.819876      1.628233     -1.039492
  B      -2.823234     -1.629485     -1.038508
  B       0.003983     -3.254959     -1.036193
  B       2.821411     -1.619879     -1.040411
12
Coordinates from ORCA-job input E -295.572043627724
  B       3.443841     -0.015111      1.012304
  B       1.727322      2.966851      1.007900
  B      -1.717370      2.979794      1.004087
  B      -3.448241      0.001583      1.003244
  B      -1.722540     -2.979285      1.004612
  B       1.722493     -2.982640      1.011104
  B       2.787462      1.629814     -1.016000
  B       0.000738      3.230097     -1.010119
  B      -2.797181      1.615294     -1.006026
  B      -2.803231     -1.617119     -1.003853
  B       0.006688     -3.228172     -1.000085
  B       2.800020     -1.601108     -1.007168
12
Coordinates from ORCA-job input E -295.628374894520
  B       3.405168     -0.025201      0.965816
  B       1.711021      2.923741      0.959349
  B      -1.694493      2.943788      0.952914
  B      -3.410734      0.001914      0.951258
  B      -1.703355     -2.943302      0.954872
  B       1.702948     -2.949455      0.964969
  B       2.746292      1.620757     -0.971866
  B      -0.000083      3.190122     -0.962736
  B      -2.761683      1.595014     -0.957102
  B      -2.771936     -1.597252     -0.952516
  B       0.010152     -3.186887     -0.947111
  B       2.766703     -1.573239     -0.957845
12
Coordinates from ORCA-job input E -295.691920266745
  B       3.365462     -0.035176      0.916908
  B       1.693514      2.879936      0.909291
  B      -1.670367      2.905872      0.899885
  B      -3.370715      0.001908      0.897109
  B      -1.683668     -2.905916      0.904192
  B       1.682828     -2.915319      0.917402
  B       2.704712      1.612705     -0.925151
  B      -0.001938      3.149475     -0.913423
  B      -2.724915      1.573843     -0.907366
  B      -2.739936     -1.576103     -0.899062
  B       0.012668     -3.144947     -0.893027
  B       2.732357     -1.546278     -0.906756
12
Coordinates from ORCA-job input E -295.761106274955
  B       3.325603     -0.043764      0.867683
  B       1.674838      2.837466      0.859861
  B      -1.645868      2.867373      0.847204
  B      -3.329277      0.001966      0.843138
  B      -1.664307     -2.868233      0.854370
  B       1.663101     -2.880897      0.870044
  B       2.664340      1.604785     -0.877456
  B      -0.004439      3.109136     -0.863976
  B      -2.688067      1.552306     -0.858775
  B      -2.707902     -1.554528     -0.845379
  B       0.013988     -3.103899     -0.840345
  B       2.697989     -1.521711     -0.856368
12
Coordinates from ORCA-job input E -295.835732412663
  B       3.284386     -0.050769      0.819208
  B       1.654509      2.795789      0.811615
  B      -1.620643      2.827701      0.795308
  B      -3.285630      0.002290      0.790161
  B      -1.644993     -2.829291      0.805489
  B       1.643463     -2.845238      0.823155
  B       2.624255      1.595858     -0.829622
  B      -0.007347      3.067741     -0.814820
  B      -2.650483      1.530012     -0.811679
  B      -2.674804     -1.532185     -0.791808
  B       0.014313     -3.062994     -0.789590
  B       2.662974     -1.498913     -0.807419
12
Coordinates from ORCA-job input E -295.914903782693
  B       3.240982     -0.056298      0.772468
  B       1.632380      2.754090      0.764931
  B      -1.594397      2.786229      0.744611
  B      -3.239317      0.002855      0.739156
  B      -1.625418     -2.788131      0.757695
  B       1.623534     -2.807536      0.776893
  B       2.583562      1.585407     -0.782469
  B      -0.010557      3.024136     -0.766539
  B      -2.611497      1.506758     -0.766421
  B      -2.639929     -1.508791     -0.739007
  B       0.013909     -3.021560     -0.741032
  B       2.626748     -1.477160     -0.760285
12
Coordinates from ORCA-job input E -295.999305214771
  B       3.194910     -0.060262      0.728275
  B       1.608412      2.711371      0.719805
  B      -1.567139      2.742393      0.695590
  B      -3.190289      0.003570      0.691009
  B      -1.605325     -2.743818      0.710968
  B       1.603201     -2.767293      0.731651
  B       2.541437      1.573062     -0.736469
  B      -0.013982      2.977629     -0.719942
  B      -2.570321      1.482718     -0.722967
  B      -2.602845     -1.484209     -0.687680
  B       0.013159     -2.979189     -0.695009
  B       2.588783     -1.455971     -0.715231
12
Coordinates from ORCA-job input E -296.090903876303
  B       3.146347     -0.062678      0.688064
  B       1.581949      2.665413      0.675237
  B      -1.539161      2.695345      0.648564
  B      -3.138618      0.004736      0.646469
  B      -1.584330     -2.694989      0.664977
  B       1.582562     -2.725249      0.688854
  B       2.496610      1.558668     -0.691984
  B      -0.018228      2.927551     -0.676090
  B      -2.525655      1.458781     -0.680463
  B      -2.563302     -1.457723     -0.638416
  B       0.012716     -2.935667     -0.652263
  B       2.549111     -1.434188     -0.672949
12
Coordinates from ORCA-job input E -296.188974536749
  B       3.095663     -0.064065      0.650763
  B       1.552295      2.615996      0.632772
  B      -1.510296      2.645586      0.604215
  B      -3.085333      0.007217      0.605791
  B      -1.561411     -2.642514      0.620831
  B       1.559697     -2.680656      0.646647
  B       2.450285      1.540476     -0.649947
  B      -0.022994      2.872990     -0.634415
  B      -2.478010      1.434259     -0.640498
  B      -2.522092     -1.429403     -0.592318
  B       0.013523     -2.890195     -0.610448
  B       2.508673     -1.409692     -0.633392
12
Coordinates from ORCA-job input E -296.284656371934
  B       3.039900     -0.069935      0.614657
  B       1.522179      2.568395      0.593259
  B      -1.478905      2.599938      0.566502
  B      -3.027994      0.011967      0.563521
  B      -1.531488     -2.589598      0.577518
  B       1.532734     -2.633079      0.607725
  B       2.401317      1.519589     -0.611168
  B      -0.026261      2.818697     -0.595673
  B      -2.433638      1.405554     -0.602806
  B      -2.478066     -1.404773     -0.547148
  B       0.014895     -2.841354     -0.571660
  B       2.465327     -1.385402     -0.594728
12
Coordinates from ORCA-job input E -296.381068305867
  B       2.987030     -0.074729      0.574501
  B       1.489955      2.526027      0.553946
  B      -1.449269      2.559306      0.527051
  B      -2.974745      0.018391      0.517316
  B      -1.504320     -2.537796      0.532027
  B       1.508772     -2.591466      0.564544
  B       2.356353      1.496911     -0.569944
  B      -0.028268      2.769366     -0.554445
  B      -2.393615      1.376497     -0.563685
  B      -2.435990     -1.381218     -0.497719
  B       0.020078     -2.796633     -0.528927
  B       2.424020     -1.364656     -0.554666
12
Coordinates from ORCA-job input E -296.469627699262
  B       2.932567     -0.073914      0.532674
  B       1.454375      2.481247      0.516254
  B      -1.423625      2.516245      0.487442
  B      -2.924057      0.029477      0.476612
  B      -1.471837     -2.485437      0.491103
  B       1.483484     -2.553930      0.521927
  B       2.309738      1.469315     -0.524216
  B      -0.025109      2.717309     -0.512653
  B      -2.355142      1.351770     -0.530009
  B      -2.392250     -1.354717     -0.452990
  B       0.030149     -2.753335     -0.483940
  B       2.381707     -1.344029     -0.522204
12
Coordinates from ORCA-job input E -296.552036511257
  B       2.881570     -0.074290      0.492737
  B       1.419723      2.442207      0.487536
  B      -1.409335      2.475283      0.448892
  B      -2.887358      0.041065      0.440786
  B      -1.431611     -2.437991      0.447136
  B       1.468381     -2.509854      0.475247
  B       2.277873      1.425246     -0.487361
  B      -0.026418      2.665639     -0.475909
  B      -2.323794      1.333353     -0.496296
  B      -2.357605     -1.318363     -0.409858
  B       0.046279     -2.709902     -0.438454
  B       2.342296     -1.332393     -0.484455
12
Coordinates from ORCA-job input E -296.611434271638
  B       2.830023     -0.054452      0.456383
  B       1.390695      2.395563      0.455395
  B      -1.391976      2.441418      0.412740
  B      -2.847526      0.055610      0.410909
  B      -1.395738     -2.396732      0.406936
  B       1.453700     -2.466308      0.431760
  B       2.243990      1.375739     -0.445206
  B      -0.030567      2.606609     -0.443125
  B      -2.282116      1.314928     -0.458289
  B      -2.319296     -1.295132     -0.380257
  B       0.048281     -2.662911     -0.395564
  B       2.300531     -1.314331     -0.451683
12
Coordinates from ORCA-job input E -296.654992299376
  B       2.791958     -0.026408      0.414945
  B       1.369545      2.357759      0.423153
  B      -1.387949      2.418734      0.384289
  B      -2.832370      0.054747      0.383598
  B      -1.375338     -2.367809      0.372041
  B       1.442562     -2.429549      0.385981
  B       2.229680      1.319351     -0.402801
  B      -0.016019      2.560590     -0.412000
  B      -2.253823      1.304671     -0.430016
  B      -2.300035     -1.274988     -0.347151
  B       0.056543     -2.626754     -0.355083
  B       2.275246     -1.290342     -0.416955
12
Coordinates from ORCA-job input E -296.707265603103
  B       2.790668      0.009862      0.377218
  B       1.360922      2.345728      0.390251
  B      -1.393184      2.413466      0.358261
  B      -2.836332      0.055183      0.358236
  B      -1.362992     -2.362843      0.332718
  B       1.446845     -2.428755      0.350185
  B       2.233465      1.299220     -0.363675
  B      -0.009817      2.541962     -0.383273
  B      -2.243029      1.304862     -0.402897
  B      -2.302546     -1.260730     -0.315736
  B       0.037191     -2.629533     -0.319782
  B       2.278809     -1.288423     -0.381506
12
Coordinates from ORCA-job input E -296.739826340435
  B       2.799458      0.012636      0.343531
  B       1.338132      2.356556      0.364363
  B      -1.412062      2.426581      0.329481
  B      -2.860606      0.054462      0.338295
  B      -1.354354     -2.360825      0.300010
  B       1.472959     -2.439411      0.314354
  B       2.248049      1.281446     -0.329472
  B      -0.005234      2.543166     -0.357482
  B      -2.244756      1.324320     -0.380393
  B      -2.320302     -1.246992     -0.282163
  B       0.042632     -2.644882     -0.290747
  B       2.296084     -1.307059     -0.349776
12
Coordinates from ORCA-job input E -296.773511480568
  B       2.830886      0.003572      0.318850
  B       1.355137      2.375971      0.342576
  B      -1.436641      2.467927      0.304358
  B      -2.908592      0.065155      0.321605
  B      -1.357747     -2.372970      0.269099
  B       1.491956     -2.478145      0.284414
  B       2.273029      1.292373     -0.299954
  B      -0.016915      2.568536     -0.338514
  B      -2.278923      1.343337     -0.360291
  B      -2.341493     -1.259809     -0.253364
  B       0.058728     -2.679140     -0.264091
  B       2.330574     -1.326806     -0.324687
12
Coordinates from ORCA-job input E -296.806459077399
  B       2.883136     -0.003073      0.302008
  B       1.375656      2.414014      0.322767
  B      -1.466029      2.524256      0.284188
  B      -2.967830      0.068101      0.305127
  B      -1.367312     -2.401977      0.244268
  B       1.525793     -2.531883      0.264351
  B       2.310135      1.316663     -0.277820
  B      -0.023360      2.615131     -0.320650
  B      -2.328436      1.366831     -0.342625
  B      -2.376746     -1.277627     -0.230608
  B       0.058302     -2.728659     -0.244300
  B       2.376690     -1.361776     -0.306705
12
Coordinates from ORCA-job input E -296.834044962264
  B       2.931613     -0.011167      0.283008
  B       1.392249      2.450331      0.305968
  B      -1.501059      2.573670      0.260662
  B      -3.024070      0.071101      0.288796
  B      -1.384286     -2.423661      0.226208
  B       1.550444     -2.586050      0.243532
  B       2.352212      1.327422     -0.256419
  B      -0.031803      2.662324     -0.302285
  B      -2.376930      1.395030     -0.323317
  B      -2.408528     -1.293770     -0.208988
  B       0.079485     -2.773939     -0.227243
  B       2.420673     -1.391290     -0.289921
12
Coordinates from ORCA-job input E -296.856679510338
  B       2.966483     -0.031643      0.265776
  B       1.407620      2.472878      0.285254
  B      -1.525299      2.615438      0.236194
  B      -3.066718      0.071548      0.271031
  B      -1.372410     -2.443406      0.203552
  B       1.585818     -2.618651      0.224101
  B       2.372179      1.344372     -0.233581
  B      -0.043732      2.698572     -0.282964
  B      -2.417445      1.412955     -0.302622
  B      -2.427121     -1.295848     -0.188054
  B       0.069253     -2.800400     -0.208949
  B       2.451372     -1.425814     -0.269738
12
Coordinates from ORCA-job input E -296.876453465370
  B       2.996783     -0.023596      0.246499
  B       1.410575      2.496591      0.263930
  B      -1.547256      2.647296      0.214001
  B      -3.101662      0.071007      0.252146
  B      -1.386947     -2.447746      0.184215
  B       1.598424     -2.663535      0.205350
  B       2.399155      1.347928     -0.211095
  B      -0.036277      2.727798     -0.261985
  B      -2.451925      1.424158     -0.280523
  B      -2.439102     -1.306689     -0.166487
  B       0.080337     -2.828525     -0.192531
  B       2.477895     -1.444687     -0.253520
12
Coordinates from ORCA-job input E -296.892319840376
  B       3.019964     -0.038694      0.227457
  B       1.425221      2.503312      0.247541
  B      -1.571287      2.669690      0.184559
  B      -3.131427      0.065223      0.234687
  B      -1.382389     -2.451194      0.169228
  B       1.614486     -2.695498      0.184458
  B       2.413835      1.350570     -0.188575
  B      -0.062920      2.747959     -0.242921
  B      -2.471744      1.451056     -0.259008
  B      -2.454908     -1.294347     -0.145786
  B       0.099513     -2.846434     -0.176327
  B       2.501656     -1.461642     -0.235313
12
Coordinates from ORCA-job input E -296.906119023344
  B       3.029292     -0.055005      0.209569
  B       1.419884      2.512563      0.225855
  B      -1.589559      2.697835      0.165192
  B      -3.154591      0.084855      0.217435
  B      -1.369454     -2.448276      0.149251
  B       1.637691     -2.711967      0.165681
  B       2.417618      1.341461     -0.168951
  B      -0.061522      2.766147     -0.223673
  B      -2.505907      1.453307     -0.235980
  B      -2.437586     -1.302513     -0.129216
  B       0.103543     -2.851047     -0.161455
  B       2.510591     -1.487358     -0.213707
12
Coordinates from ORCA-job input E -296.917489477345
  B       3.042091     -0.047962      0.192635
  B       1.419850      2.522548      0.204533
  B      -1.598407      2.717056      0.144051
  B      -3.168630      0.064462      0.198764
  B      -1.365288     -2.449143      0.132489
  B       1.638353     -2.749135      0.149650
  B       2.418931      1.351344     -0.148837
  B      -0.049895      2.778250     -0.204255
  B      -2.514565      1.457834     -0.214837
  B      -2.444369     -1.291527     -0.110438
  B       0.096372     -2.865315     -0.145578
  B       2.525558     -1.488410     -0.198176
12
Coordinates from ORCA-job input E -296.926447250027
  B       3.057551     -0.040423      0.179092
  B       1.426621      2.520463      0.189740
  B      -1.612382      2.729287      0.118295
  B      -3.184178      0.068625      0.184222
  B      -1.374233     -2.436088      0.120299
  B       1.665307     -2.769136      0.129562
  B       2.429930      1.343697     -0.128321
  B      -0.085051      2.784506     -0.188103
  B      -2.524053      1.473457     -0.194330
  B      -2.445607     -1.280995     -0.092875
  B       0.114471     -2.872162     -0.136023
  B       2.531623     -1.521232     -0.181559
12
Coordinates from ORCA-job input E -296.934665137679
  B       3.065327     -0.080284      0.161312
  B       1.417912      2.522338      0.171305
  B      -1.645251      2.747976      0.100935
  B      -3.200359      0.095725      0.167975
  B      -1.352175     -2.436347      0.106151
  B       1.677846     -2.794567      0.116072
  B       2.420737      1.330518     -0.116361
  B      -0.097264      2.792823     -0.170569
  B      -2.544931      1.495762     -0.171002
  B      -2.430517     -1.270925     -0.083049
  B       0.136526     -2.881712     -0.122671
  B       2.552149     -1.521307     -0.160098
12
Coordinates from ORCA-job input E -296.940916032662
  B       3.058507     -0.080890      0.147927
  B       1.419393      2.530293      0.153007
  B      -1.633449      2.786215      0.083817
  B      -3.203911      0.068895      0.151898
  B      -1.339844     -2.432137      0.093558
  B       1.670032     -2.809270      0.098125
  B       2.409477      1.333820     -0.100093
  B      -0.086015      2.810002     -0.154006
  B      -2.552445      1.475779     -0.152904
  B      -2.420396     -1.269437     -0.068476
  B       0.141005     -2.881810     -0.110070
  B       2.537645     -1.531460     -0.142782
12
Coordinates from ORCA-job input E -296.946020029139
  B       3.067066     -0.062004      0.136689
  B       1.421846      2.527228      0.136612
  B      -1.657435      2.787218      0.062615
  B      -3.207681      0.068957      0.140768
  B      -1.348202     -2.425092      0.080205
  B       1.689676     -2.835408      0.083357
  B       2.407227      1.336822     -0.082985
  B      -0.088971      2.802973     -0.140493
  B      -2.544934      1.500436     -0.132717
  B      -2.406623     -1.271819     -0.054404
  B       0.122890     -2.889377     -0.101925
  B       2.545141     -1.539933     -0.127722
12
Coordinates from ORCA-job input E -296.949502053999
  B       3.072278     -0.068062      0.122144
  B       1.400274      2.530782      0.123145
  B      -1.669954      2.801382      0.046809
  B      -3.202117      0.106646      0.124438
  B      -1.330570     -2.433176      0.072483
  B       1.709775     -2.867558      0.070257
  B       2.404860      1.311466     -0.070796
  B      -0.129807      2.807349     -0.124679
  B      -2.550570      1.506424     -0.112935
  B      -2.403512     -1.234608     -0.047136
  B       0.142982     -2.911185     -0.091493
  B       2.556361     -1.549460     -0.112238
12
Coordinates from ORCA-job input E -296.952607781079
  B       3.060868     -0.099014      0.113401
  B       1.402324      2.531865      0.105725
  B      -1.684447      2.836638      0.034527
  B      -3.206531      0.092574      0.114000
  B      -1.315818     -2.433838      0.063473
  B       1.707919     -2.859933      0.055950
  B       2.379932      1.314294     -0.062992
  B      -0.118772      2.817929     -0.111609
  B      -2.549725      1.520760     -0.095548
  B      -2.390741     -1.240081     -0.040322
  B       0.181332     -2.913519     -0.083785
  B       2.533659     -1.567675     -0.092820
12
Coordinates from ORCA-job input E -296.953892191230
  B       3.059475     -0.105029      0.103066
  B       1.405240      2.545285      0.097249
  B      -1.678262      2.861008      0.020645
  B      -3.197391      0.061824      0.106777
  B      -1.330151     -2.421388      0.054119
  B       1.706251     -2.867809      0.047797
  B       2.384258      1.304798     -0.054385
  B      -0.128436      2.832132     -0.101129
  B      -2.536919      1.514554     -0.083642
  B      -2.369169     -1.264779     -0.032102
  B       0.144842     -2.914290     -0.077318
  B       2.540261     -1.546307     -0.081077
12
Coordinates from ORCA-job input E -296.956278568016
  B       3.058687     -0.068338      0.099742
  B       1.401140      2.545075      0.091023
  B      -1.695718      2.853240      0.011664
  B      -3.177971      0.091354      0.099844
  B      -1.316051     -2.435640      0.051281
  B       1.704203     -2.900206      0.038860
  B       2.375909      1.325250     -0.044727
  B      -0.127308      2.824472     -0.095388
  B      -2.532630      1.517985     -0.074699
  B      -2.360117     -1.243463     -0.027420
  B       0.137620     -2.944951     -0.071712
  B       2.532235     -1.564777     -0.078468
12
Coordinates from ORCA-job input E -296.957910200300
  B       3.035862     -0.077131      0.092883
  B       1.390345      2.535437      0.082850
  B      -1.691271      2.877833      0.006944
  B      -3.177058      0.101877      0.093286
  B      -1.310661     -2.452433      0.048204
  B       1.720706     -2.890899      0.033322
  B       2.359738      1.311600     -0.041525
  B      -0.132939      2.829060     -0.086789
  B      -2.523725      1.540151     -0.066540
  B      -2.361900     -1.242946     -0.026525
  B       0.164477     -2.970014     -0.066109
  B       2.526425     -1.562537     -0.070001
12
Coordinates from ORCA-job input E -296.959218517670
  B       3.030512     -0.103268      0.088660
  B       1.383139      2.556887      0.079172
  B      -1.713387      2.888175      0.005854
  B      -3.129213      0.091463      0.087386
  B      -1.299534     -2.440884      0.046616
  B       1.693747     -2.883800      0.029190
  B       2.362526      1.312984     -0.041103
  B      -0.153716      2.849485     -0.080567
  B      -2.513073      1.539243     -0.062639
  B      -2.340007     -1.244715     -0.028453
  B       0.165241     -2.986463     -0.058184
  B       2.513765     -1.579106     -0.065931
12
Coordinates from ORCA-job input E -296.961947446178
  B       3.000499     -0.094136      0.083481
  B       1.373454      2.559558      0.077997
  B      -1.705736      2.911514      0.004346
  B      -3.092268      0.091241      0.082358
  B      -1.298359     -2.459281      0.046301
  B       1.685212     -2.883540      0.024152
  B       2.352687      1.330857     -0.038279
  B      -0.151832      2.870547     -0.074957
  B      -2.497282      1.552670     -0.061553
  B      -2.329893     -1.265492     -0.029757
  B       0.150765     -3.040054     -0.047678
  B       2.512753     -1.573884     -0.066410
12
Coordinates from ORCA-job input E -296.965500264614
  B       2.939905     -0.069520      0.076528
  B       1.372020      2.556018      0.085025
  B      -1.708524      2.949541      0.012775
  B      -3.028328      0.087003      0.077035
  B      -1.277182     -2.499899      0.051095
  B       1.656347     -2.870416      0.022793
  B       2.361796      1.347665     -0.036664
  B      -0.142922      2.920572     -0.073096
  B      -2.490728      1.586008     -0.071073
  B      -2.321682     -1.309341     -0.037138
  B       0.125262     -3.129491     -0.028998
  B       2.514036     -1.568141     -0.078282
12
Coordinates from ORCA-job input E -296.968900384605
  B       2.896074     -0.061408      0.067913
  B       1.336559      2.562477      0.087195
  B      -1.703672      2.972726      0.024681
  B      -2.941269      0.098567      0.066451
  B      -1.274833     -2.523466      0.053983
  B       1.640781     -2.873714      0.018763
  B       2.355705      1.388431     -0.036947
  B      -0.151298      2.970366     -0.066920
  B      -2.474052      1.612491     -0.078185
  B      -2.321414     -1.330536     -0.046034
  B       0.108066     -3.229383     -0.004762
  B       2.529352     -1.586550     -0.086136
12
Coordinates from ORCA-job input E -296.972057748774
  B       2.842224     -0.068030      0.054487
  B       1.306320      2.570595      0.086275
  B      -1.712814      3.014799      0.031131
  B      -2.857253      0.099373      0.051679
  B      -1.242671     -2.545472      0.053899
  B       1.604989     -2.875944      0.011463
  B       2.353250      1.405086     -0.033356
  B      -0.167461      3.027942     -0.056488
  B      -2.457239      1.645912     -0.080120
  B      -2.296359     -1.359996     -0.051437
  B       0.105578     -3.304566      0.021778
  B       2.521438     -1.609699     -0.089311
12
Coordinates from ORCA-job input E -296.974564067282
  B       2.784516     -0.093363      0.039323
  B       1.286906      2.552242      0.082525
  B      -1.759166      3.054047      0.042506
  B      -2.759587      0.101383      0.032977
  B      -1.211101     -2.540260      0.053742
  B       1.581616     -2.865309      0.006296
  B       2.360067      1.397698     -0.029373
  B      -0.184228      3.089211     -0.047704
  B      -2.460534      1.662472     -0.080689
  B      -2.272286     -1.358432     -0.056765
  B       0.116989     -3.365374      0.047040
  B       2.516807     -1.634314     -0.089878
12
Coordinates from ORCA-job input E -296.977256621207
  B       2.719424     -0.092082      0.024272
  B       1.234591      2.545302      0.076495
  B      -1.762755      3.093417      0.043733
  B      -2.660968      0.118730      0.015586
  B      -1.173342     -2.560691      0.052904
  B       1.556864     -2.881057     -0.003972
  B       2.335344      1.408282     -0.021826
  B      -0.209830      3.134144     -0.033030
  B      -2.425759      1.703183     -0.078751
  B      -2.233142     -1.374030     -0.057936
  B       0.114622     -3.438711      0.072792
  B       2.504950     -1.656488     -0.090267
12
Coordinates from ORCA-job input E -296.979781842992
  B       2.656633     -0.104884      0.013707
  B       1.178624      2.526501      0.067969
  B      -1.778214      3.146285      0.037055
  B      -2.557433      0.144059      0.001500
  B      -1.132733     -2.573665      0.052674
  B       1.541471     -2.907065     -0.019124
  B       2.293216      1.403212     -0.011421
  B      -0.245996      3.167019     -0.020180
  B      -2.383466      1.734113     -0.073203
  B      -2.172220     -1.368699     -0.052387
  B       0.120839     -3.494797      0.089267
  B       2.479279     -1.672080     -0.085857
12
Coordinates from ORCA-job input E -296.983675972456
  B       2.583752     -0.124759      0.010340
  B       1.093671      2.491891      0.057214
  B      -1.814471      3.224527      0.026694
  B      -2.414075      0.186414     -0.007864
  B      -1.084079     -2.590595      0.054096
  B       1.536301     -2.955401     -0.037952
  B       2.212679      1.377592     -0.000497
  B      -0.302430      3.195885     -0.012934
  B      -2.314417      1.777611     -0.065433
  B      -2.061555     -1.336802     -0.041189
  B       0.130481     -3.554144      0.095561
  B       2.434144     -1.692218     -0.078035
12
Coordinates from ORCA-job input E -296.988490092879
  B       2.511884     -0.147288      0.006206
  B       1.008511      2.460547      0.048503
  B      -1.864605      3.305912      0.014541
  B      -2.270891      0.228678     -0.015137
  B      -1.035192     -2.604660      0.055025
  B       1.530092     -3.003711     -0.057068
  B       2.141789      1.355188      0.010941
  B      -0.354459      3.227943     -0.005198
  B      -2.247389      1.824573     -0.058420
  B      -1.954860     -1.309615     -0.031142
  B       0.137544     -3.619267      0.103989
  B       2.397576     -1.718301     -0.072239
12
Coordinates from ORCA-job input E -296.994597634613
  B       2.442410     -0.170912      0.005619
  B       0.914668      2.424427      0.041539
  B      -1.913017      3.382386      0.000186
  B      -2.122730      0.276791     -0.017104
  B      -0.983047     -2.613476      0.055684
  B       1.524067     -3.053486     -0.076438
  B       2.055290      1.323515      0.020965
  B      -0.416830      3.242995     -0.001348
  B      -2.165508      1.873211     -0.051079
  B      -1.832117     -1.270691     -0.019651
  B       0.145080     -3.670300      0.107123
  B       2.351734     -1.744460     -0.065497
12
Coordinates from ORCA-job input E -297.001622543670
  B       2.375353     -0.194884      0.005183
  B       0.821764      2.387513      0.036878
  B      -1.967749      3.451396     -0.014880
  B      -1.974356      0.326839     -0.017034
  B      -0.931816     -2.615832      0.056632
  B       1.516284     -3.098928     -0.095607
  B       1.973389      1.293711      0.031051
  B      -0.477692      3.252906      0.001398
  B      -2.081578      1.921655     -0.044610
  B      -1.710916     -1.233427     -0.009020
  B       0.146221     -3.720799      0.110690
  B       2.311097     -1.770150     -0.060680
12
Coordinates from ORCA-job input E -297.005708271001
  B       2.134402     -0.297288      0.003538
  B       0.471971      2.221918      0.034435
  B      -2.137933      3.663334     -0.071291
  B      -1.498293      0.528231     -0.002932
  B      -0.703934     -2.564691      0.063206
  B       1.469428     -3.246928     -0.171121
  B       1.665104      1.151030      0.066111
  B      -0.718603      3.226881      0.005790
  B      -1.791871      2.111152     -0.033077
  B      -1.203304     -1.058803      0.025571
  B       0.138963     -3.859192      0.123791
  B       2.174070     -1.875645     -0.044021
12
Coordinates from ORCA-job input E -297.032670409507
  B       2.127044     -0.277437     -0.017988
  B       0.406781      2.307068      0.074314
  B      -2.134663      3.695013     -0.097171
  B      -1.428239      0.483850     -0.019809
  B      -0.682809     -2.650736      0.079533
  B       1.463748     -3.273776     -0.176454
  B       1.578956      1.169472      0.069630
  B      -0.692967      3.438263      0.037316
  B      -1.722378      2.055773     -0.052024
  B      -1.150098     -1.103644      0.026073
  B       0.105492     -3.987213      0.149750
  B       2.129134     -1.856634     -0.073170
12
Coordinates from ORCA-job input E -297.056651180737
  B       2.142735     -0.293743     -0.027812
  B       0.279814      2.244449      0.105355
  B      -2.150541      3.648178     -0.143376
  B      -1.289655      0.507047     -0.001506
  B      -0.587878     -2.578269      0.070256
  B       1.384160     -3.243744     -0.148654
  B       1.420203      1.094604      0.065398
  B      -0.650471      3.515201      0.067542
  B      -1.615508      1.995944     -0.067273
  B      -1.087944     -1.084511      0.052241
  B       0.096131     -3.978871      0.137928
  B       2.066561     -1.826285     -0.110101
12
Coordinates from ORCA-job input E -297.072673927604
  B       2.087020     -0.303265     -0.034782
  B       0.235818      2.234374      0.092185
  B      -2.181769      3.648949     -0.115327
  B      -1.206609      0.542618     -0.001747
  B      -0.530350     -2.571404      0.055834
  B       1.380856     -3.277364     -0.111437
  B       1.346128      1.070481      0.047099
  B      -0.664132      3.522158      0.055386
  B      -1.596489      2.037648     -0.056072
  B      -0.967397     -1.044001      0.038547
  B       0.063173     -4.003630      0.118613
  B       2.041359     -1.856564     -0.088300
12
Coordinates from ORCA-job input E -297.084209429800
  B       2.057857     -0.307558     -0.036501
  B       0.194748      2.205297      0.090460
  B      -2.200635      3.652073     -0.111672
  B      -1.149342      0.571506     -0.000159
  B      -0.484581     -2.563118      0.055899
  B       1.371157     -3.291387     -0.099804
  B       1.294765      1.049723      0.046400
  B      -0.672456      3.518648      0.050097
  B      -1.582970      2.074548     -0.053513
  B      -0.882520     -1.011943      0.037232
  B       0.042826     -4.026374      0.109455
  B       2.018757     -1.871416     -0.087894
12
Coordinates from ORCA-job input E -297.164507987216
  B       1.711399     -0.463572     -0.023150
  B       0.000308      2.171599      0.017102
  B      -2.378363      3.578351     -0.069905
  B      -0.651441      0.767085      0.098789
  B      -0.131666     -2.411078      0.004305
  B       1.262685     -3.442160      0.006982
  B       0.952278      0.914579      0.002408
  B      -0.795804      3.572201     -0.051152
  B      -1.505243      2.120381      0.007661
  B      -0.137927     -0.768417      0.072605
  B      -0.135940     -4.006953     -0.061063
  B       1.817321     -2.032018     -0.004582
12
Coordinates from ORCA-job input E -297.183335243277
  B       1.730763     -0.467820     -0.019630
  B       0.025794      2.196766      0.006368
  B      -2.384916      3.592411     -0.059696
  B      -0.691407      0.761280      0.090619
  B      -0.111734     -2.403194      0.005440
  B       1.263013     -3.473929      0.011897
  B       0.980746      0.905608     -0.001673
  B      -0.803220      3.584231     -0.048827
  B      -1.550803      2.125681      0.008927
  B      -0.123578     -0.762182      0.070043
  B      -0.150415     -4.018147     -0.065567
  B       1.823365     -2.040704      0.002098
12
Coordinates from ORCA-job input E -297.194274946088
  B       1.732466     -0.473509     -0.015469
  B       0.038903      2.218662     -0.003811
  B      -2.380233      3.605166     -0.048797
  B      -0.717657      0.762194      0.078023
  B      -0.073178     -2.387511      0.007970
  B       1.261921     -3.509922      0.016058
  B       0.974969      0.886479     -0.005481
  B      -0.807796      3.592900     -0.040835
  B      -1.592041      2.127287      0.005719
  B      -0.083280     -0.747509      0.065550
  B      -0.165962     -4.024209     -0.067086
  B       1.819497     -2.050030      0.008161
12
Coordinates from ORCA-job input E -297.144591693146
  B       1.861406     -0.562032      0.020512
  B       0.109855      2.248819     -0.047389
  B      -2.373046      3.491675      0.073976
  B      -0.891315      0.799964     -0.031444
  B       0.193422     -2.138950      0.036059
  B       1.146680     -3.608541      0.028980
  B       0.963540      0.693456     -0.020130
  B      -0.828710      3.511047      0.003615
  B      -1.813935      2.023044     -0.077632
  B       0.204665     -0.523952      0.025554
  B      -0.371613     -3.823486     -0.052109
  B       1.806657     -2.111044      0.040009
12
Coordinates from ORCA-job input E -297.189681600302
  B       1.837088     -0.524581      0.021238
  B       0.115927      2.270943     -0.049716
  B      -2.347187      3.544809      0.065292
  B      -0.905756      0.760360     -0.020764
  B       0.127885     -2.220590      0.031746
  B       1.194424     -3.583087      0.026465
  B       0.933868      0.761760     -0.021124
  B      -0.797783      3.543149     -0.003963
  B      -1.771083      2.054288     -0.064219
  B       0.100590     -0.614243      0.030283
  B      -0.308262     -3.898135     -0.055833
  B       1.827897     -2.094674      0.040596
12
Coordinates from ORCA-job input E -297.204463229631
  B       1.766480     -0.516135      0.020866
  B       0.100617      2.255614     -0.048806
  B      -2.341436      3.597170      0.052347
  B      -0.864971      0.743461     -0.011244
  B       0.096925     -2.276063      0.027057
  B       1.231121     -3.555125      0.024015
  B       0.869257      0.781897     -0.021879
  B      -0.782147      3.567810     -0.007046
  B      -1.724827      2.094123     -0.049854
  B       0.066466     -0.651034      0.030142
  B      -0.253129     -3.944055     -0.055987
  B       1.843252     -2.097663      0.040388
12
Coordinates from ORCA-job input E -297.203024213129
  B       1.737012     -0.531831      0.013002
  B       0.056645      2.152786     -0.027607
  B      -2.280095      3.687021      0.008893
  B      -0.892878      0.758095      0.006913
  B       0.016335     -2.317793      0.022872
  B       1.308246     -3.462263      0.012066
  B       0.772021      0.746458     -0.018859
  B      -0.734251      3.549032     -0.009562
  B      -1.650832      2.162214     -0.023645
  B      -0.138592     -0.694037      0.038326
  B      -0.138553     -3.957688     -0.050043
  B       1.952550     -2.091992      0.027643
12
Coordinates from ORCA-job input E -297.211657221499
  B       1.707138     -0.540304      0.013318
  B       0.064048      2.226142     -0.029254
  B      -2.307028      3.662252      0.018147
  B      -0.867436      0.768242      0.002625
  B       0.076730     -2.303934      0.026713
  B       1.288271     -3.536753      0.014748
  B       0.801780      0.760153     -0.015552
  B      -0.761339      3.579255     -0.014032
  B      -1.674866      2.144409     -0.030054
  B      -0.056844     -0.684273      0.039723
  B      -0.173464     -3.966293     -0.054475
  B       1.910618     -2.108893      0.028093
12
Coordinates from ORCA-job input E -297.213144364844
  B       1.694366     -0.557635      0.013716
  B       0.057516      2.224217     -0.031790
  B      -2.308868      3.677385      0.027031
  B      -0.877565      0.778757      0.001129
  B       0.098210     -2.292377      0.023076
  B       1.301400     -3.553419      0.023248
  B       0.802071      0.751250     -0.015304
  B      -0.757976      3.584675     -0.025053
  B      -1.686093      2.151245     -0.024496
  B      -0.064427     -0.675252      0.038431
  B      -0.172573     -3.962626     -0.062402
  B       1.921546     -2.126219      0.032413
12
Coordinates from ORCA-job input E -297.220821077482
  B       1.607653     -0.646192      0.016057
  B       0.030544      2.210508     -0.031277
  B      -2.297443      3.750475      0.048241
  B      -0.931244      0.809384     -0.017074
  B       0.210822     -2.238520      0.014911
  B       1.364338     -3.607937      0.037328
  B       0.773577      0.710028     -0.011326
  B      -0.730581      3.608568     -0.039831
  B      -1.722219      2.188363     -0.019827
  B      -0.131789     -0.649797      0.031154
  B      -0.148435     -3.935086     -0.064235
  B       1.982385     -2.199794      0.035880
12
Coordinates from ORCA-job input E -297.225566699251
  B       1.537890     -0.717023      0.015450
  B       0.010587      2.192738     -0.027969
  B      -2.284815      3.801258      0.058772
  B      -0.974002      0.825522     -0.030253
  B       0.300081     -2.190622      0.011880
  B       1.407427     -3.635647      0.044056
  B       0.748159      0.674719     -0.009147
  B      -0.704969      3.620537     -0.038038
  B      -1.745099      2.213076     -0.023566
  B      -0.184703     -0.636922      0.019942
  B      -0.131248     -3.901264     -0.056742
  B       2.028300     -2.246372      0.035614
12
Coordinates from ORCA-job input E -297.228960797779
  B       1.473799     -0.755392      0.009500
  B      -0.006507      2.160520     -0.027059
  B      -2.247167      3.851034      0.048165
  B      -1.026185      0.816926     -0.024610
  B       0.362083     -2.177447      0.023098
  B       1.445241     -3.619598      0.042577
  B       0.704214      0.654996     -0.011763
  B      -0.656309      3.620333     -0.016766
  B      -1.750025      2.235007     -0.033818
  B      -0.252728     -0.656172      0.012476
  B      -0.097669     -3.885817     -0.052271
  B       2.058861     -2.244391      0.030470
12
Coordinates from ORCA-job input E -297.232815257010
  B       1.453980     -0.741899      0.006447
  B      -0.006871      2.153125     -0.028255
  B      -2.222506      3.852704      0.034888
  B      -1.029750      0.800713     -0.018059
  B       0.369744     -2.197116      0.036512
  B       1.443103     -3.600611      0.037567
  B       0.686438      0.671052     -0.014078
  B      -0.637874      3.613099     -0.006652
  B      -1.744229      2.232811     -0.033816
  B      -0.275838     -0.677706      0.015535
  B      -0.090787     -3.894311     -0.057006
  B       2.062198     -2.211862      0.026917
12
Coordinates from ORCA-job input E -297.193090516159
  B       1.441451     -0.751106     -0.000528
  B       0.014366      2.205393     -0.012849
  B      -2.222611      3.596135      0.016479
  B      -0.832290      0.727404     -0.026054
  B       0.531070     -2.100199      0.028922
  B       1.207503     -3.621430      0.109408
  B       0.715477      0.789051     -0.004775
  B      -0.740471      3.544043     -0.049904
  B      -1.753799      2.093449      0.031402
  B      -0.208875     -0.657360      0.014485
  B      -0.365774     -3.631251     -0.120399
  B       2.221560     -2.194129      0.013813
12
Coordinates from ORCA-job input E -297.225868927561
  B       1.432266     -0.820387     -0.003262
  B       0.039796      2.141416      0.024031
  B      -2.190807      3.787003     -0.055693
  B      -1.076752      0.804045     -0.001975
  B       0.420725     -2.176342      0.038565
  B       1.385117     -3.546323     -0.012640
  B       0.761463      0.662524      0.016339
  B      -0.680758      3.586107      0.009015
  B      -1.771693      2.236637     -0.024113
  B      -0.351260     -0.691166      0.029993
  B      -0.117434     -3.780314     -0.017199
  B       2.156944     -2.203199     -0.003061
12
Coordinates from ORCA-job input E -297.235523446421
  B       1.384526     -0.771264      0.004642
  B       0.020469      2.170938      0.004120
  B      -2.240184      3.823348     -0.032814
  B      -0.990951      0.799120      0.008492
  B       0.355300     -2.222658      0.048998
  B       1.439325     -3.582500     -0.014496
  B       0.720106      0.703676      0.009460
  B      -0.690565      3.622284     -0.018834
  B      -1.717237      2.257127     -0.009579
  B      -0.285292     -0.688535      0.018975
  B      -0.094842     -3.889216     -0.040486
  B       2.106954     -2.222318      0.021522
12
Coordinates from ORCA-job input E -297.238272571421
  B       1.398936     -0.771482      0.007159
  B       0.020514      2.170386      0.001093
  B      -2.227314      3.800175     -0.021078
  B      -1.004861      0.780325      0.004002
  B       0.394405     -2.189936      0.027378
  B       1.414236     -3.592295      0.003351
  B       0.718065      0.703526      0.007263
  B      -0.683123      3.603927     -0.020794
  B      -1.729343      2.232916     -0.005425
  B      -0.278423     -0.677605      0.008340
  B      -0.127047     -3.848806     -0.036792
  B       2.111563     -2.211131      0.025503
12
Coordinates from ORCA-job input E -297.238170996589
  B       1.445860     -0.755841      0.014018
  B       0.031175      2.163742     -0.002337
  B      -2.234312      3.751894     -0.020924
  B      -0.974823      0.762893      0.009123
  B       0.364218     -2.174434      0.025949
  B       1.372425     -3.557320      0.001146
  B       0.723073      0.699744      0.004456
  B      -0.695102      3.579700     -0.016356
  B      -1.714856      2.202440     -0.007798
  B      -0.252998     -0.678630     -0.000060
  B      -0.160106     -3.810204     -0.032643
  B       2.103053     -2.183984      0.025428
12
Coordinates from ORCA-job input E -297.239183771750
  B       1.433624     -0.764250      0.016449
  B       0.030304      2.175978     -0.004500
  B      -2.228940      3.772847     -0.019824
  B      -0.992111      0.778383      0.005228
  B       0.378771     -2.183052      0.024603
  B       1.395070     -3.584584      0.002893
  B       0.714708      0.700914      0.005650
  B      -0.694734      3.593230     -0.020417
  B      -1.725329      2.216574     -0.005215
  B      -0.270678     -0.667681      0.009076
  B      -0.143961     -3.832567     -0.037144
  B       2.110883     -2.205792      0.023200
12
Coordinates from ORCA-job input E -297.239306545907
  B       1.420379     -0.772269      0.019985
  B       0.030981      2.175863     -0.008186
  B      -2.229412      3.776434     -0.018154
  B      -0.993669      0.781836      0.009973
  B       0.389205     -2.178445      0.023551
  B       1.401380     -3.584315      0.002235
  B       0.705575      0.695956      0.003891
  B      -0.691424      3.594742     -0.020455
  B      -1.722646      2.218949     -0.006510
  B      -0.267780     -0.668013      0.006709
  B      -0.137632     -3.833029     -0.037482
  B       2.102650     -2.207708      0.024442
12
Coordinates from ORCA-job input E -297.239435356536
  B       1.425313     -0.769520      0.019226
  B       0.033797      2.176494     -0.009813
  B      -2.226572      3.775142     -0.018438
  B      -0.994185      0.782919      0.010083
  B       0.384489     -2.181815      0.021729
  B       1.401341     -3.583226      0.006441
  B       0.700036      0.696023      0.001490
  B      -0.692981      3.593292     -0.018573
  B      -1.721675      2.218771     -0.004845
  B      -0.270369     -0.667192      0.007277
  B      -0.136984     -3.833999     -0.039538
  B       2.105397     -2.206888      0.024960
12
Coordinates from ORCA-job input E -297.239470394052
  B       1.426199     -0.768796      0.019662
  B       0.037398      2.177465     -0.010373
  B      -2.225238      3.774389     -0.017913
  B      -0.995072      0.783870      0.008012
  B       0.383284     -2.182970      0.020850
  B       1.401249     -3.582861      0.008088
  B       0.695903      0.695385      0.000848
  B      -0.694181      3.592105     -0.016858
  B      -1.720817      2.218698     -0.004490
  B      -0.270666     -0.667190      0.006588
  B      -0.135721     -3.834345     -0.038706
  B       2.105268     -2.205750      0.024291
12
Coordinates from ORCA-job input E -297.239486176666
  B       1.424506     -0.769200      0.018742
  B       0.040236      2.177030     -0.010785
  B      -2.224360      3.775813     -0.016513
  B      -0.997227      0.784147      0.006584
  B       0.382373     -2.183303      0.019252
  B       1.403215     -3.582053      0.010847
  B       0.692737      0.694094     -0.000449
  B      -0.693744      3.591262     -0.015528
  B      -1.719779      2.219816     -0.004068
  B      -0.272374     -0.668077      0.005104
  B      -0.133722     -3.835231     -0.038322
  B       2.105745     -2.204298      0.025136
12
Coordinates from ORCA-job input E -297.239497216092
  B       1.421941     -0.769488      0.018194
  B       0.042864      2.177557     -0.009549
  B      -2.224395      3.776973     -0.015522
  B      -0.998143      0.784175      0.003101
  B       0.381995     -2.183736      0.018494
  B       1.404315     -3.582607      0.011584
  B       0.691781      0.693842      0.000109
  B      -0.694164      3.590908     -0.014533
  B      -1.718838      2.220735     -0.004150
  B      -0.273212     -0.668635      0.003692
  B      -0.131765     -3.836814     -0.035918
  B       2.105229     -2.202910      0.024496
12
Coordinates from ORCA-job input E -297.239502743250
  B       1.419899     -0.770211      0.016839
  B       0.043559      2.177315     -0.008821
  B      -2.224319      3.778256     -0.014786
  B      -0.999068      0.784006      0.002388
  B       0.381503     -2.183725      0.016795
  B       1.405900     -3.582556      0.013358
  B       0.691836      0.693430     -0.000281
  B      -0.693785      3.590912     -0.014322
  B      -1.718167      2.221655     -0.003861
  B      -0.274625     -0.668919      0.002767
  B      -0.130371     -3.838089     -0.035337
  B       2.105245     -2.202072      0.025262
12
Coordinates from ORCA-job input E -297.239506993174
  B       1.418417     -0.770683      0.016264
  B       0.043283      2.177365     -0.007586
  B      -2.224158      3.779018     -0.014817
  B      -0.999127      0.783765      0.001868
  B       0.381087     -2.183918      0.015375
  B       1.406687     -3.582689      0.013618
  B       0.692330      0.693527      0.000279
  B      -0.693631      3.591193     -0.014625
  B      -1.717648      2.222193     -0.003774
  B      -0.275487     -0.668866      0.002317
  B      -0.129239     -3.839349     -0.034116
  B       2.105095     -2.201555      0.025198
12
Coordinates from ORCA-job input E -297.239511565897
  B       1.417440     -0.771077      0.015586
  B       0.042494      2.177376     -0.005993
  B      -2.223530      3.779608     -0.015291
  B      -0.999315      0.783558      0.001831
  B       0.380513     -2.184145      0.013113
  B       1.407386     -3.582569      0.013923
  B       0.692579      0.693618      0.000931
  B      -0.693321      3.591495     -0.014776
  B      -1.717256      2.222599     -0.003819
  B      -0.276202     -0.668695      0.001904
  B      -0.128149     -3.840706     -0.032436
  B       2.104969     -2.201063      0.025027
12
Coordinates from ORCA-job input E -297.239516749279
  B       1.416779     -0.771281      0.015249
  B       0.041380      2.177235     -0.003732
  B      -2.222389      3.780276     -0.016306
  B      -0.999793      0.783342      0.001533
  B       0.379950     -2.184459      0.010243
  B       1.407990     -3.582189      0.013428
  B       0.692084      0.693669      0.002241
  B      -0.692662      3.591769     -0.014519
  B      -1.717028      2.222974     -0.004338
  B      -0.276761     -0.668618      0.001335
  B      -0.126961     -3.842180     -0.029291
  B       2.105017     -2.200539      0.024157
12
Coordinates from ORCA-job input E -297.239522096317
  B       1.416866     -0.771126      0.014894
  B       0.040449      2.177021     -0.001016
  B      -2.221161      3.780665     -0.017741
  B      -1.000521      0.783231      0.000555
  B       0.379685     -2.184635      0.007187
  B       1.408246     -3.581728      0.012448
  B       0.691143      0.693653      0.003914
  B      -0.691897      3.591854     -0.013129
  B      -1.717210      2.223120     -0.005555
  B      -0.276794     -0.668643      0.000555
  B      -0.126333     -3.843260     -0.024746
  B       2.105134     -2.200152      0.022636
12
Coordinates from ORCA-job input E -297.239527156398
  B       1.417488     -0.770668      0.014664
  B       0.040028      2.176723      0.001683
  B      -2.220389      3.780720     -0.019265
  B      -1.001134      0.783208     -0.001275
  B       0.379918     -2.184625      0.004624
  B       1.408101     -3.581303      0.010896
  B       0.690072      0.693589      0.005821
  B      -0.691193      3.591757     -0.010708
  B      -1.717704      2.223054     -0.007385
  B      -0.276443     -0.668821     -0.000406
  B      -0.126484     -3.843600     -0.019286
  B       2.105349     -2.200033      0.020638
12
Coordinates from ORCA-job input E -297.239531133779
  B       1.418428     -0.770100      0.014110
  B       0.040240      2.176523      0.004532
  B      -2.220413      3.780310     -0.020957
  B      -1.001249      0.783285     -0.004124
  B       0.380527     -2.184360      0.002504
  B       1.407557     -3.581108      0.009071
  B       0.689561      0.693503      0.007896
  B      -0.690961      3.591542     -0.006968
  B      -1.718330      2.222774     -0.009837
  B      -0.275808     -0.669005     -0.001582
  B      -0.127438     -3.843148     -0.012860
  B       2.105493     -2.200217      0.018214
12
Coordinates from ORCA-job input E -297.239533219458
  B       1.418974     -0.769844      0.013708
  B       0.040863      2.176610      0.005467
  B      -2.221242      3.779668     -0.021566
  B      -1.000675      0.783386     -0.005684
  B       0.381091     -2.184126      0.001757
  B       1.407021     -3.581209      0.008334
  B       0.689962      0.693554      0.008726
  B      -0.691321      3.591416     -0.004759
  B      -1.718561      2.222452     -0.011121
  B      -0.275447     -0.669069     -0.002175
  B      -0.128561     -3.842262     -0.009923
  B       2.105505     -2.200576      0.017236
12
Coordinates from ORCA-job input E -297.239534463781
  B       1.419258     -0.769875      0.013568
  B       0.041541      2.176929      0.005277
  B      -2.222410      3.778918     -0.021537
  B      -0.999724      0.783510     -0.006181
  B       0.381479     -2.183947      0.001501
  B       1.406507     -3.581491      0.008162
  B       0.690923      0.693697      0.008914
  B      -0.692059      3.591406     -0.003849
  B      -1.718502      2.222114     -0.011594
  B      -0.275238     -0.668993     -0.002348
  B      -0.129615     -3.841241     -0.009102
  B       2.105448     -2.201028      0.017190
