12
Coordinates from ORCA-job input E -297.239534463781
  B           1.41925794617542     -0.76987477768025      0.01356802408702
  B           0.04154114847358      2.17692945232546      0.00527672100927
  B          -2.22240980866776      3.77891809644305     -0.02153692592337
  B          -0.99972354684384      0.78350956179643     -0.00618126170651
  B           0.38147862439339     -2.18394663492764      0.00150083772513
  B           1.40650661160579     -3.58149123850711      0.00816174090968
  B           0.69092294311748      0.69369737516795      0.00891371952030
  B          -0.69205883936965      3.59140640325695     -0.00384854104291
  B          -1.71850221999253      2.22211423348202     -0.01159408699974
  B          -0.27523826613252     -0.66899331319797     -0.00234820887890
  B          -0.12961507675168     -3.84124107724897     -0.00910198806940
  B           2.10544802188690     -2.20102808090991      0.01718996936944
