12
Optimized coordinates extracted from calculations/B12/bilayer_3d/d_3.5/mult_3/output.out
B        1.41925795      -0.76987478       0.01356802
B        0.04154115       2.17692945       0.00527672
B       -2.22240981       3.77891810      -0.02153693
B       -0.99972355       0.78350956      -0.00618126
B        0.38147862      -2.18394663       0.00150084
B        1.40650661      -3.58149124       0.00816174
B        0.69092294       0.69369738       0.00891372
B       -0.69205884       3.59140640      -0.00384854
B       -1.71850222       2.22211423      -0.01159409
B       -0.27523827      -0.66899331      -0.00234821
B       -0.12961508      -3.84124108      -0.00910199
B        2.10544802      -2.20102808       0.01718997
